# Co-dmd_expanded_Co_p-F2-bdp_
1.000000
 41.8237999999999985   0.0000000000000000         0.0000000000
  0.0000000000000020  33.0598000000000027         0.0000000000
 -3.9374820349014050   0.0000000000000019        27.5181263495
Co C C C C C C F N N H H H 
16 16 16 16 16 16 16 16 16 16 16 16 16 
Direct
0.2500000000000000 0.2580500000000000 0.0625000000000000
0.2500000000000000 0.2580500000000000 0.3125000000000000
0.2500000000000000 0.2580500000000000 0.5625000000000000
0.2500000000000000 0.2580500000000000 0.8125000000000000
0.2500000000000001 0.7580500000000001 0.0625000000000000
0.2500000000000000 0.7580500000000001 0.3125000000000000
0.2500000000000000 0.7580500000000001 0.5625000000000000
0.2500000000000000 0.7580500000000001 0.8125000000000000
0.7499999999999999 0.2580500000000000 0.0625000000000000
0.7500000000000000 0.2580500000000000 0.3125000000000000
0.7499999999999999 0.2580500000000000 0.5625000000000000
0.7500000000000000 0.2580500000000000 0.8125000000000000
0.7499999999999999 0.7580500000000001 0.0625000000000000
0.7500000000000000 0.7580500000000001 0.3125000000000000
0.7499999999999999 0.7580500000000001 0.5625000000000000
0.7500000000000000 0.7580500000000001 0.8125000000000000
0.1110000000000000 0.1220000000000000 0.0400000000000000
0.1110000000000000 0.1220000000000000 0.2900000000000000
0.1110000000000000 0.1220000000000000 0.5400000000000000
0.1110000000000000 0.1220000000000000 0.7899999999999999
0.1110000000000000 0.6220000000000000 0.0400000000000000
0.1110000000000000 0.6220000000000000 0.2900000000000000
0.1110000000000000 0.6220000000000000 0.5400000000000000
0.1110000000000000 0.6220000000000000 0.7899999999999999
0.6110000000000000 0.1220000000000000 0.0400000000000000
0.6110000000000000 0.1220000000000000 0.2900000000000000
0.6110000000000000 0.1220000000000000 0.5400000000000000
0.6109999999999999 0.1220000000000000 0.7899999999999999
0.6110000000000000 0.6220000000000000 0.0400000000000000
0.6110000000000000 0.6220000000000000 0.2900000000000000
0.6110000000000000 0.6220000000000000 0.5400000000000000
0.6109999999999999 0.6220000000000000 0.7899999999999999
0.1390000000000000 0.1410000000000000 0.0400000000000000
0.1390000000000000 0.1410000000000000 0.2900000000000000
0.1390000000000000 0.1410000000000000 0.5400000000000000
0.1390000000000000 0.1410000000000000 0.7899999999999999
0.1390000000000000 0.6410000000000001 0.0400000000000000
0.1390000000000000 0.6410000000000001 0.2900000000000000
0.1390000000000000 0.6410000000000001 0.5400000000000000
0.1390000000000000 0.6410000000000001 0.7899999999999999
0.6390000000000000 0.1410000000000000 0.0400000000000000
0.6390000000000000 0.1410000000000000 0.2900000000000000
0.6390000000000000 0.1410000000000000 0.5400000000000000
0.6389999999999999 0.1410000000000000 0.7899999999999999
0.6390000000000000 0.6410000000000001 0.0400000000000000
0.6390000000000000 0.6410000000000001 0.2900000000000000
0.6390000000000000 0.6410000000000001 0.5400000000000000
0.6389999999999999 0.6410000000000001 0.7899999999999999
0.1555000000000000 0.1440000000000000 0.0000000000000000
0.1555000000000000 0.1440000000000000 0.2500000000000000
0.1555000000000000 0.1440000000000000 0.5000000000000000
0.1555000000000000 0.1440000000000000 0.7500000000000000
0.1555000000000000 0.6440000000000000 0.0000000000000000
0.1555000000000000 0.6440000000000000 0.2500000000000000
0.1555000000000000 0.6440000000000000 0.5000000000000000
0.1555000000000000 0.6440000000000000 0.7500000000000000
0.6555000000000000 0.1440000000000000 0.0000000000000000
0.6554999999999999 0.1440000000000000 0.2500000000000000
0.6555000000000000 0.1440000000000000 0.5000000000000000
0.6555000000000000 0.1440000000000000 0.7500000000000000
0.6555000000000000 0.6440000000000000 0.0000000000000000
0.6554999999999999 0.6440000000000000 0.2500000000000000
0.6555000000000000 0.6440000000000000 0.5000000000000000
0.6555000000000000 0.6440000000000000 0.7500000000000000
0.1810000000000000 0.1725000000000000 0.0000000000000000
0.1810000000000000 0.1725000000000000 0.2500000000000000
0.1810000000000000 0.1725000000000000 0.5000000000000000
0.1810000000000000 0.1725000000000000 0.7500000000000000
0.1810000000000000 0.6725000000000000 0.0000000000000000
0.1810000000000000 0.6725000000000000 0.2500000000000000
0.1810000000000000 0.6725000000000000 0.5000000000000000
0.1810000000000000 0.6725000000000000 0.7500000000000000
0.6810000000000000 0.1725000000000000 0.0000000000000000
0.6810000000000000 0.1725000000000000 0.2500000000000000
0.6810000000000000 0.1725000000000000 0.5000000000000000
0.6809999999999999 0.1725000000000000 0.7500000000000000
0.6810000000000000 0.6725000000000000 0.0000000000000000
0.6810000000000000 0.6725000000000000 0.2500000000000000
0.6810000000000000 0.6725000000000000 0.5000000000000000
0.6809999999999999 0.6725000000000000 0.7500000000000000
0.1890000000000000 0.2015000000000000 0.0325000000000000
0.1890000000000000 0.2015000000000000 0.2825000000000000
0.1890000000000000 0.2015000000000000 0.5325000000000000
0.1890000000000000 0.2015000000000000 0.7825000000000000
0.1890000000000000 0.7015000000000001 0.0325000000000000
0.1890000000000000 0.7015000000000001 0.2825000000000000
0.1890000000000000 0.7015000000000001 0.5325000000000000
0.1890000000000000 0.7015000000000001 0.7825000000000000
0.6890000000000001 0.2015000000000000 0.0325000000000000
0.6890000000000001 0.2015000000000000 0.2825000000000000
0.6890000000000001 0.2015000000000000 0.5325000000000000
0.6890000000000001 0.2015000000000000 0.7825000000000000
0.6890000000000001 0.7015000000000001 0.0325000000000000
0.6890000000000001 0.7015000000000001 0.2825000000000000
0.6890000000000001 0.7015000000000001 0.5325000000000000
0.6890000000000001 0.7015000000000001 0.7825000000000000
0.2035000000000000 0.1720000000000000 0.2200000000000000
0.2035000000000000 0.1720000000000000 0.4700000000000000
0.2035000000000000 0.1720000000000000 0.7200000000000000
0.2035000000000000 0.1720000000000000 0.9700000000000000
0.2035000000000000 0.6719999999999999 0.2200000000000000
0.2035000000000000 0.6719999999999999 0.4700000000000000
0.2035000000000000 0.6719999999999999 0.7200000000000000
0.2035000000000000 0.6719999999999999 0.9700000000000000
0.7035000000000000 0.1720000000000000 0.2200000000000000
0.7034999999999999 0.1720000000000000 0.4700000000000000
0.7035000000000001 0.1720000000000000 0.7200000000000000
0.7035000000000000 0.1720000000000000 0.9700000000000000
0.7035000000000000 0.6719999999999999 0.2200000000000000
0.7034999999999999 0.6719999999999999 0.4700000000000000
0.7035000000000001 0.6719999999999999 0.7200000000000000
0.7035000000000000 0.6719999999999999 0.9700000000000000
0.1530000000000000 0.1620000000000000 0.0800000000000000
0.1530000000000000 0.1620000000000000 0.3300000000000000
0.1530000000000000 0.1620000000000000 0.5800000000000000
0.1530000000000000 0.1620000000000000 0.8299999999999998
0.1530000000000000 0.6620000000000001 0.0800000000000000
0.1530000000000000 0.6620000000000001 0.3300000000000000
0.1530000000000000 0.6620000000000001 0.5800000000000000
0.1530000000000000 0.6620000000000001 0.8299999999999998
0.6530000000000000 0.1620000000000000 0.0800000000000000
0.6530000000000000 0.1620000000000000 0.3300000000000000
0.6530000000000000 0.1620000000000000 0.5800000000000000
0.6530000000000000 0.1620000000000000 0.8299999999999998
0.6530000000000000 0.6620000000000001 0.0800000000000000
0.6530000000000000 0.6620000000000001 0.3300000000000000
0.6530000000000000 0.6620000000000001 0.5800000000000000
0.6530000000000000 0.6620000000000001 0.8299999999999998
0.2160000000000000 0.2200000000000000 0.0275000000000000
0.2160000000000000 0.2200000000000000 0.2775000000000000
0.2160000000000000 0.2200000000000000 0.5275000000000000
0.2160000000000000 0.2200000000000000 0.7775000000000000
0.2160000000000000 0.7200000000000001 0.0275000000000000
0.2160000000000000 0.7200000000000001 0.2775000000000000
0.2160000000000000 0.7200000000000001 0.5275000000000000
0.2160000000000000 0.7200000000000001 0.7775000000000000
0.7160000000000000 0.2200000000000000 0.0275000000000000
0.7160000000000000 0.2200000000000000 0.2775000000000000
0.7160000000000001 0.2200000000000000 0.5275000000000000
0.7160000000000000 0.2200000000000000 0.7775000000000000
0.7160000000000000 0.7200000000000001 0.0275000000000000
0.7160000000000000 0.7200000000000001 0.2775000000000000
0.7160000000000001 0.7200000000000001 0.5275000000000000
0.7160000000000000 0.7200000000000001 0.7775000000000000
0.2240000000000000 0.2020000000000001 0.2300000000000000
0.2240000000000000 0.2020000000000000 0.4800000000000000
0.2240000000000000 0.2020000000000000 0.7299999999999999
0.2240000000000000 0.2020000000000000 0.9800000000000000
0.2240000000000000 0.7020000000000001 0.2300000000000000
0.2240000000000000 0.7020000000000001 0.4800000000000000
0.2240000000000000 0.7020000000000001 0.7299999999999999
0.2240000000000000 0.7020000000000001 0.9800000000000000
0.7240000000000000 0.2020000000000001 0.2300000000000000
0.7240000000000000 0.2020000000000000 0.4800000000000000
0.7239999999999999 0.2020000000000000 0.7299999999999999
0.7240000000000001 0.2020000000000000 0.9800000000000000
0.7240000000000000 0.7020000000000001 0.2300000000000000
0.7240000000000000 0.7020000000000001 0.4800000000000000
0.7239999999999999 0.7020000000000001 0.7299999999999999
0.7240000000000001 0.7020000000000001 0.9800000000000000
0.1012820000000000 0.1197040000000000 0.0738167500000000
0.1012820000000000 0.1197040000000000 0.3238167500000000
0.1012820000000000 0.1197040000000000 0.5738167500000000
0.1012820000000000 0.1197040000000000 0.8238167500000000
0.1012820000000000 0.6197040000000000 0.0738167500000000
0.1012820000000000 0.6197040000000000 0.3238167500000000
0.1012820000000000 0.6197040000000000 0.5738167500000000
0.1012820000000000 0.6197040000000000 0.8238167500000000
0.6012820000000000 0.1197040000000000 0.0738167500000000
0.6012820000000000 0.1197040000000000 0.3238167500000000
0.6012820000000001 0.1197040000000000 0.5738167500000000
0.6012820000000000 0.1197040000000000 0.8238167500000000
0.6012820000000000 0.6197040000000000 0.0738167500000000
0.6012820000000000 0.6197040000000000 0.3238167500000000
0.6012820000000001 0.6197040000000000 0.5738167500000000
0.6012820000000000 0.6197040000000000 0.8238167500000000
0.1744175000000000 0.2092455000000000 0.0606032500000000
0.1744175000000000 0.2092455000000000 0.3106032500000000
0.1744175000000000 0.2092455000000000 0.5606032500000000
0.1744175000000000 0.2092455000000000 0.8106032500000000
0.1744175000000000 0.7092455000000000 0.0606032500000000
0.1744175000000000 0.7092455000000000 0.3106032500000000
0.1744175000000000 0.7092455000000000 0.5606032500000000
0.1744175000000000 0.7092455000000000 0.8106032500000000
0.6744175000000000 0.2092455000000000 0.0606032500000000
0.6744174999999999 0.2092455000000000 0.3106032500000000
0.6744175000000000 0.2092455000000000 0.5606032500000000
0.6744175000000000 0.2092455000000000 0.8106032500000000
0.6744175000000000 0.7092455000000000 0.0606032500000000
0.6744174999999999 0.7092455000000000 0.3106032500000000
0.6744175000000000 0.7092455000000000 0.5606032500000000
0.6744175000000000 0.7092455000000000 0.8106032500000000
0.2046230000000000 0.1492815000000000 0.1929677500000000
0.2046230000000000 0.1492815000000000 0.4429677500000000
0.2046230000000000 0.1492815000000001 0.6929677500000000
0.2046230000000000 0.1492815000000000 0.9429677499999999
0.2046230000000000 0.6492815000000002 0.1929677500000000
0.2046230000000000 0.6492815000000002 0.4429677500000000
0.2046230000000000 0.6492815000000002 0.6929677500000000
0.2046230000000000 0.6492815000000003 0.9429677499999999
0.7046230000000000 0.1492815000000000 0.1929677500000000
0.7046230000000000 0.1492815000000000 0.4429677500000000
0.7046230000000000 0.1492815000000001 0.6929677500000000
0.7046229999999999 0.1492815000000000 0.9429677499999999
0.7046230000000000 0.6492815000000002 0.1929677500000000
0.7046230000000000 0.6492815000000002 0.4429677500000000
0.7046230000000000 0.6492815000000002 0.6929677500000000
0.7046229999999999 0.6492815000000003 0.9429677499999999
