C  Cl H  N  O  Zn
 1.0000000000000000
    26.0839999999999996    0.0000000000000000    0.0000000000000000
   -13.0419999999999945   22.5894066323132989    0.0000000000000000
     0.0000000000000000    0.0000000000000000   19.4082000000000008
 C   Cl  H   N   O   Zn 
 240  18 146 126  61  24
Direct
  0.3149848900000000  0.2925333400000000  0.4775269100000000
  0.9725242399999999  0.2929532300000000  0.4791293800000000
  0.9680600600000000  0.1997953700000000  0.4743891200000000
  0.9441235700000000  0.2350184100000000  0.4563330299999999
  0.8249111700000000  0.3900575400000000  0.4180411199999999
  0.9871175500000000  0.3596945600000000  0.2878739000000000
  0.8205654400000000  0.2363929900000000  0.5037287700000000
  0.8259012799999998  0.2189253200000000  0.6231007299999999
  0.8495417100000000  0.2554058900000000  0.5666942500000000
  0.3215778300000000  0.0293368600000000  0.4760934999999999
  0.2342971300000000  0.0363000800000000  0.4689676300000000
  0.2933218500000000  0.0584608200000000  0.4514278100000000
  0.5672035199999997  0.1763376200000000  0.4182491999999999
  0.7500020900000001  0.5975816100000001  0.5682422799999999
  0.4165773900000000  0.1802907900000000  0.5031606900000000
  0.4058167400000000  0.1508228900000000  0.5658839300000000
  0.2939315900000000  0.3196331800000000  0.9728931199999999
  0.2015161100000000  0.2298642100000001  0.9744020399999999
  0.2349693300000000  0.2886511600000000  0.9539889199999998
  0.3849847000000000  0.5650108500000000  0.9168761499999999
  0.3542210300000000  0.3780971700000000  0.7821225000000001
  0.2367986200000000  0.4123596300000000  0.0078232200000000
  0.2284339200000000  0.3859497500000000  0.1263777500000000
  0.2592795300000000  0.3984325500000000  0.0647352700000000
  0.0239055500000000  0.7058568900000000  0.9711760100000000
  0.0267493900000001  0.7983322200000003  0.9718845300000000
  0.0514391000000000  0.7644551300000000  0.9508919600000000
  0.3922524900000000  0.1740202900000000  0.6221279300000000
  0.1760728500000001  0.6139132300000001  0.9149626500000000
  0.7864959800000002  0.6088391200000001  0.6241051299999999
  0.6402609900000000  0.6248172200000000  0.2880618300000000
  0.2852476199999999  0.2328210200000000  0.0319652600000000
  0.5623765200000000  0.3865166500000001  0.0816696100000000
  0.3745838399999999  0.3591611200000000  0.2118269000000000
  0.4135905999999999  0.2296638400000001  0.9962326499999999
  0.3916055600000000  0.2120266700000000  0.8766996399999998
  0.4024142000000000  0.2477967400000000  0.9331729500000000
  0.7097488400000000  0.0231143000000000  0.0135391200000000
  0.7985651700000000  0.0186654500000000  0.0078835200000000
  0.7691593600000000  0.0466583900000000  0.0312351800000000
  0.6181162899999999  0.1770401400000000  0.0796954000000000
  0.6417914400000000  0.0155104500000000  0.2125513500000000
  0.7727993600000002  0.1840244400000000  0.9956008000000000
  0.7679122000000000  0.5870962000000000  0.5046622500000000
  0.7905813600000000  0.1809316800000000  0.8759272399999999
  0.9731081699999999  0.6817250000000000  0.0144198500000000
  0.9745468000000000  0.7735368000000001  0.0111817100000000
  0.9477797000000000  0.7158014700000002  0.0332306100000000
  0.8247742100000000  0.4376509100000000  0.0811763600000000
  0.9870366300000000  0.6258838100000000  0.2129111500000000
  0.8179266200000002  0.5836869900000000  0.9967640199999999
  0.8242566500000003  0.6072358000000001  0.8775830299999999
  0.8474382200000000  0.5940519700000000  0.9341228499999999
  0.7060069700000000  0.6787555600000000  0.4804107100000000
  0.7991547700000000  0.7675947300000000  0.4779475200000000
  0.7644685900000000  0.7084781000000000  0.4594923000000000
  0.6101681900000000  0.4340791100000000  0.4181527400000000
  0.7547579000000000  0.1553127100000000  0.9322066700000000
  0.0141165500000000  0.6403269200000000  0.7854575399999998
  0.1741435200000000  0.7628299000000001  0.9996348799999999
  0.1574551100000000  0.7671983100000000  0.1192880600000000
  0.9185701399999999  0.4589107200000000  0.0886737900000000
  0.5452742300000000  0.0833917400000000  0.0859801900000000
  0.4382501799999999  0.3313342600000000  0.2459922500000000
  0.6702522499999999  0.1072193100000000  0.2463890800000000
  0.8953237999999999  0.5623983900000000  0.2466731900000000
  0.5557904400000000  0.6699485700000001  0.7522698599999998
  0.3303461000000000  0.8925536600000000  0.7529225700000000
  0.1076211800000000  0.4364050100000000  0.7533666699999999
  0.3316344400000000  0.4455785700000000  0.7476654700000001
  0.1040710000000000  0.6649053800000000  0.7479823199999998
  0.5541586099999999  0.8871635500000000  0.7472666000000000
  0.6668376499999999  0.5601443300000000  0.2540476100000000
  0.5416355800000000  0.4593438300000000  0.0898587200000000
  0.8963415300000001  0.3347862300000000  0.2535728400000000
  0.4409177500000000  0.2156244300000000  0.3960948800000000
  0.7862062600000000  0.2246104800000000  0.3960992300000000
  0.7772064400000001  0.5623180600000000  0.3974075699999999
  0.5585598200000000  0.7795701800000000  0.9060718400000000
  0.2190885800000000  0.7819758500000000  0.8977189499999999
  0.2202024700000000  0.4411629500000000  0.9063379399999999
  0.2227248700000000  0.4400970000000000  0.5935801000000001
  0.2132544600000001  0.7744198400000000  0.6042562299999999
  0.5564360000000002  0.7812064400000002  0.5939321800000000
  0.7828025600000000  0.5603470800000000  0.1039979400000000
  0.7823521999999999  0.2182244100000000  0.1028626900000000
  0.4399443600000000  0.2203322500000000  0.1027294500000000
  0.4470454200000000  0.1097972100000000  0.2515499200000000
  0.4530476400000000  0.9163418600000001  0.5879228100000000
  0.0820846200000000  0.5363337400000001  0.5894507599999999
  0.4583605200000000  0.5448910000000000  0.5861750800000000
  0.1382210000000001  0.7385102800000001  0.0565901700000000
  0.6812923400000001  0.9723030400000000  0.9704393600000000
  0.7695855600000000  0.9669588100000002  0.9679438199999999
  0.7108103600000000  0.9436183299999999  0.9484780999999998
  0.4365572000000000  0.8223496300000001  0.9180865800000000
  0.6227680300000000  0.9770487500000001  0.7808918600000000
  0.5882286500000000  0.8254043000000000  0.0073165100000000
  0.6148035800000001  0.8434102600000001  0.1258644600000000
  0.6025486700000000  0.8619399700000000  0.0641873000000000
  0.3863282700000000  0.3862282300000001  0.4937434099999999
  0.6128702700000002  0.9998734000000001  0.4957022899999999
  0.9951215400000000  0.6092955200000001  0.4957823400000000
  0.6121343299999999  0.6145473200000000  0.0042965800000000
  0.3863514499999999  0.9980641600000000  0.0040525300000000
  0.0078007400000000  0.3917182700000000  0.0049676600000000
  0.6114678099999999  0.6139272000000000  0.5036248400000000
  0.3840636000000001  0.9977800200000002  0.5038750900000000
  0.0025837100000001  0.3872981000000001  0.5042622000000000
  0.3873853600000000  0.3871783800000000  0.9973583799999999
  0.6161446800000001  0.0008381800000000  0.9970531000000000
  0.9982731599999999  0.6125483300000000  0.9963286600000000
  0.5375671200000000  0.4552029400000001  0.4105040599999999
  0.5470977900000000  0.0827979700000000  0.4132046500000000
  0.9185972999999999  0.4629802200000001  0.4116014499999999
  0.4580812200000000  0.5443474000000000  0.9135066999999999
  0.4567358100000000  0.9159640999999999  0.9142995800000000
  0.0826333700000000  0.5400744400000000  0.9111708699999999
  0.2271033400000000  0.2020236000000000  0.0114035200000000
  0.3188526000000000  0.2924883700000000  0.0140664900000000
  0.3770367700000000  0.0213918100000000  0.2873574000000000
  0.1578299500000000  0.3849840600000001  0.3739427500000000
  0.2920894100000001  0.9732417000000002  0.9866608799999999
  0.2020252100000000  0.9752740100000000  0.9898568799999999
  0.2326445899999999  0.9480666400000000  0.9681158500000000
  0.3838984200000000  0.8221855200000000  0.9194073999999999
  0.3596414800000002  0.9844246300000002  0.7868074400000000
  0.2291035600000000  0.8166897400000001  0.0047579600000000
  0.2119659199999999  0.8201941900000000  0.1245378800000000
  0.2476621200000000  0.8454091800000001  0.0680835400000000
  0.0274093200000000  0.3185170100000000  0.9857094099999999
  0.0173949300000000  0.2227121100000000  0.9872979099999998
  0.0484250900000000  0.2809727600000000  0.9662316300000000
  0.1765610400000000  0.5615975600000001  0.9171023300000000
  0.6007919500000000  0.7529086900000000  0.0737780600000000
  0.0158107200000000  0.3747222400000000  0.7879588000000000
  0.1748789800000000  0.3864987700000000  0.1308380500000000
  0.1514945600000000  0.3991764900000001  0.0741702900000000
  0.2925691300000000  0.3212034400000000  0.5201341700000000
  0.1998889500000000  0.2319961300000000  0.5255351399999999
  0.2347523700000000  0.2912679600000000  0.5433094700000000
  0.3854171399999999  0.5656924300000000  0.5811335499999999
  0.3527429300000000  0.3776789200000000  0.7114260400000000
  0.2317307700000000  0.4126748000000000  0.4873197300000000
  0.2123443800000000  0.3864909500000000  0.3685372200000000
  0.2490975900000000  0.3997545000000000  0.4246482499999999
  0.0295661000000000  0.7046399700000000  0.5187964999999999
  0.0392663199999999  0.7999391900000000  0.5239158900000001
  0.1824972100000000  0.4126852600000000  0.0119458700000000
  0.6137815700000000  0.7890817600000000  0.1303884900000000
  0.5874501100000000  0.7705699400000002  0.0115776500000000
  0.6228848299999999  0.6478327800000000  0.7888993200000000
  0.2229132800000000  0.2028629100000000  0.4864202500000000
  0.2799125800000000  0.2325338400000000  0.4618070500000000
  0.5575137900000000  0.3816453400000000  0.4154509900000000
  0.3747262600000000  0.3586282900000000  0.2825419400000000
  0.4135864500000000  0.2329591000000000  0.4978981800000000
  0.3885890200000000  0.2255496600000000  0.6162786900000000
  0.3993197800000000  0.2552889200000000  0.5546042600000000
  0.7065100300000000  0.0222834400000000  0.4790179600000000
  0.7963684500000000  0.0202198400000000  0.4871952100000000
  0.7664624300000000  0.0474182900000000  0.4629731599999999
  0.6199527000000000  0.1767546900000000  0.4153047799999999
  0.6418323100000000  0.0162308800000000  0.2832582099999999
  0.7677556000000000  0.1808502100000000  0.4985164999999999
  0.7743364999999999  0.1637498500000000  0.6172159899999999
  0.1394961800000000  0.3966024800000000  0.4361317699999999
  0.9791339200000000  0.6847406500000000  0.4759233399999999
  0.9879201299999999  0.7797512300000000  0.4842645199999999
  0.9576927900000000  0.7225651400000001  0.4596198500000000
  0.8249051700000000  0.4426098700000001  0.4154990900000000
  0.9860650899999999  0.6259828700000000  0.2836141900000000
  0.8232524900000000  0.5890993100000000  0.4986275500000000
  0.8410600100000000  0.6105723900000000  0.6180904300000000
  0.8597686600000000  0.6011106000000002  0.5550809200000000
  0.6820782800000000  0.7082871800000000  0.9848845000000001
  0.7744342900000000  0.7980975300000001  0.9877846299999999
  0.7166707299999999  0.7675534000000001  0.9657495899999998
  0.4376216999999999  0.6174970900000000  0.9188971900000000
  0.0601570600000000  0.7625368600000000  0.5415646100000000
  0.1754941600000000  0.6098777300000000  0.5829064199999998
  0.7449110300000000  0.1445740800000000  0.5553903200000000
  0.1788393300000000  0.7622544900000000  0.4966402999999999
  0.4131575600000000  0.1750234400000000  0.0010833700000000
  0.3907226300000000  0.1577993100000000  0.8817310999999999
  0.4012196700000000  0.1390065300000000  0.9441518999999998
  0.6827525100000000  0.7073652000000000  0.5217963899999999
  0.7752747400000001  0.7968537900000001  0.5153432400000000
  0.7176473500000000  0.7673017700000000  0.5379767400000000
  0.4380292200000001  0.6182067100000000  0.5829157500000000
  0.6224910399999999  0.6461323100000000  0.7182144499999999
  0.5867661000000000  0.7649564900000000  0.4932235600000000
  0.6138744300000001  0.7730282400000001  0.3749204099999999
  0.6013251099999999  0.7425065000000001  0.4367818700000000
  0.2915313199999999  0.9791298700000001  0.5198271500000000
  0.5655249200000000  0.1769949300000000  0.0817296300000000
  0.2037430700000001  0.9851593800000003  0.5095661100000000
  0.3793452800000000  0.8228782100000001  0.5853690100000000
  0.3587239500000000  0.9835510600000000  0.7160989399999999
  0.2312137399999999  0.8181565900000000  0.5018731900000000
  0.2244845200000000  0.8350423600000000  0.3831450800000000
  0.2537033399999999  0.8545439100000001  0.4450344600000000
  0.0234413900000000  0.3150126000000000  0.5219695100000000
  0.0202257700000000  0.2225452700000000  0.5135029300000000
  0.0479043700000000  0.2795921000000000  0.5380056899999999
  0.1760386300000000  0.5575919300000000  0.5848189299999998
  0.0161433600000000  0.3749390800000000  0.7172186299999999
  0.1764214000000000  0.4108189500000000  0.4925967299999999
  0.0128466900000000  0.6392689200000000  0.7147548300000000
  0.2318608500000001  0.9566870700000001  0.5355202999999999
  0.2885196500000000  0.0523459300000000  0.0493047200000000
  0.3771832199999999  0.0207453200000000  0.2166602900000000
  0.3192796200000000  0.0244233400000000  0.0292761300000000
  0.1732114900000000  0.7796370400000000  0.3772687800000000
  0.1498807500000001  0.7430816800000000  0.4336692399999999
  0.6779850700000000  0.9711077200000000  0.5214926700000000
  0.7673974699999999  0.9679273800000001  0.5261398699999998
  0.7081489800000000  0.9433277600000001  0.5442218800000000
  0.4316780099999999  0.8224211200000000  0.5833397599999998
  0.6224973900000000  0.9756698200000000  0.7101914300000000
  0.5854295800000000  0.8186965300000000  0.4883182699999999
  0.6128996800000001  0.8263339400000002  0.3698632300000000
  0.5992953000000000  0.8495550600000001  0.4259751800000000
  0.7060150300000002  0.6812583200000001  0.0278359100000000
  0.2298640600000000  0.0277403400000000  0.0286535800000000
  0.7645759100000000  0.7119593000000000  0.0482935500000000
  0.6149430500000000  0.4390238300000001  0.0846500500000000
  0.7987520500000000  0.7705463500000002  0.0275813500000000
  0.6409824000000000  0.6247175100000000  0.2173443900000000
  0.8632919000000000  0.2631371200000000  0.9441337499999999
  0.8446781899999999  0.2343387300000000  0.8814218400000000
  0.9864801200000000  0.3590368700000001  0.2171626500000000
  0.8250138500000002  0.3852325000000000  0.0841071300000000
  0.9452860299999999  0.2382815300000000  0.0473963400000000
  0.8272905199999999  0.2383348100000000  0.0009239600000000
  0.9765516099999999  0.2970422000000000  0.0281082100000000
  0.7426011800000000  0.6000125500000001  0.9445696500000000
  0.7727295299999999  0.6109504600000000  0.8831440699999999
  0.7648193699999999  0.5859236400000000  0.0015138000000000
  0.9657009299999999  0.2012121400000000  0.0266693700000000
  0.6300341200000000  0.8879580500000001  0.1967256199999999
  0.9320509400000000  0.1269329300000000  0.4503324499999999
  0.8064153699999999  0.9307862900000000  0.9446101399999999
  0.0624564700000000  0.8721949200000000  0.9522727799999999
  0.2578077600000000  0.3706447000000000  0.1971305400000000
  0.1270484000000000  0.1922357600000001  0.9581544500000000
  0.1991603800000000  0.0734220300000000  0.4426414200000000
  0.8728545599999999  0.8042050700000000  0.4575556600000000
  0.1133385900000001  0.7357729000000001  0.1900045500000000
  0.6294981300000000  0.7433931800000000  0.3046154000000000
  0.3772686300000000  0.1133087600000000  0.8111639800000000
  0.1920540800000000  0.0637992100000000  0.0481853400000000
  0.8892033200000000  0.2659801900000001  0.8110721000000000
  0.8720656100000002  0.8090390300000000  0.0496223300000000
  0.8048183500000000  0.9323201900000000  0.5494410900000000
  0.1270057700000000  0.1947328400000000  0.5494376800000000
  0.8858694900000001  0.6233025200000001  0.6881657799999999
  0.1128037000000000  0.3700268300000000  0.3036055699999999
  0.7830043000000000  0.6857433100000000  0.4321369600000000
  0.6542069099999999  0.4403897500000000  0.4143315900000000
  0.6294148300000000  0.6514044000000000  0.3207968000000000
  0.7729931599999998  0.6152404900000000  0.6741735700000000
  0.7083038900000000  0.5963548800000000  0.5723567600000000
  0.9037146900000000  0.2173847700000000  0.4273524400000000
  0.7873531200000000  0.3460019100000000  0.4133151700000000
  0.3169151200000000  0.0979866100000000  0.4210717500000000
  0.8468641999999998  0.2322041700000000  0.6728699499999999
  0.8897936200000000  0.2973987800000000  0.5697773900000001
  0.8876936200000000  0.5922938100000000  0.9313580899999999
  0.5602479700000000  0.2135948600000000  0.4131387899999999
  0.3457875000000000  0.9872798200000001  0.3211054899999999
  0.3841557200000000  0.1528136800000000  0.6717851900000000
  0.0242264200000001  0.3695351900000001  0.3207161800000000
  0.8456099900000000  0.6152107500000000  0.8280268699999999
  0.9553361199999999  0.8006449500000000  0.0232221600000000
  0.7870822800000000  0.4439811400000000  0.0853686600000000
  0.0970115300000000  0.3935627200000000  0.4403793000000000
  0.2002071900000000  0.1556028000000000  0.0230896900000000
  0.3055279000000000  0.2120218800000000  0.0599370000000000
  0.5558470700000000  0.3423832900000000  0.0851943900000000
  0.3484871100000000  0.3705929600000001  0.1790265800000000
  0.3849823100000000  0.2258984500000000  0.8269308100000000
  0.4028762300000000  0.2891653900000000  0.9298757399999998
  0.8448933100000000  0.0367853700000000  0.0195885300000000
  0.7913472600000000  0.0864398100000000  0.0615351300000000
  0.6620608200000000  0.2146579200000000  0.0849483600000000
  0.6302653599999999  0.9779048299999999  0.1798516499999999
  0.7767790999999999  0.1609390500000000  0.8259212700000000
  0.7133910300000000  0.1144394500000000  0.9284534400000000
  0.4075367100000000  0.1105576000000000  0.5689061500000000
  0.9076760600000000  0.6962082700000000  0.0630623300000000
  0.0247018500000000  0.6518627700000001  0.1802547700000000
  0.2150320300000000  0.3103543500000000  0.9272660500000000
  0.0922029400000000  0.7837667500000001  0.9224048799999999
  0.3643481300000000  0.3512729600000000  0.8154526700000000
  0.9983460800000000  0.5712663100000001  0.9986069999999998
  0.4620830900000000  0.2247261900000000  0.3463869600000000
  0.7775518499999999  0.2363845700000000  0.3459807899999999
  0.7643033200000000  0.5408018999999999  0.3479990200000000
  0.5366152400000002  0.7669956600000001  0.8568263300000000
  0.2318578100000001  0.7732717900000002  0.8482736299999999
  0.5756106600000001  0.0023377400000000  0.9996051099999999
  0.2291390100000000  0.4624845800000000  0.8567522299999999
  0.2221437900000001  0.7628101200000001  0.6543395700000000
  0.5346110400000000  0.7720405500000000  0.6432377300000000
  0.7740952599999998  0.5398342400000000  0.1540617500000000
  0.7693958899999999  0.2265146200000000  0.1524183600000000
  0.4621010800000000  0.2334182600000000  0.1517794400000000
  0.9789121599999999  0.3524975200000000  0.6828601200000000
  0.2351760300000000  0.4612593800000000  0.6432577500000000
  0.4285741900000000  0.4286093700000001  0.9998387700000000
  0.0052496000000000  0.4298995700000000  0.5059060600000000
  0.4234068300000001  0.9941065600000001  0.5061072800000000
  0.2991337900000000  0.3960750500000001  0.0611099700000000
  0.2133980100000000  0.6579468100000000  0.9087808099999999
  0.9779178100000000  0.6291150000000000  0.8204418499999999
  0.0958289899999999  0.6989445700000000  0.0525038900000000
  0.6882412500000001  0.9032437700000000  0.9193782500000000
  0.4430826200000000  0.7849627000000000  0.9112113600000000
  0.6503354800000000  0.0139934000000000  0.8138817500000000
  0.6054141700000000  0.9043830000000000  0.0605569500000000
  0.4286128400000000  0.4264947700000000  0.4915847500000000
  0.5724715800000000  0.0016402200000000  0.4934824500000000
  0.9899103700000000  0.5655840000000000  0.4959230700000000
  0.5703900600000000  0.5736335200000000  0.0030013700000000
  0.4276171899999999  0.9979984400000000  0.0013711000000000
  0.0102623000000000  0.4342432700000000  0.0034907300000000
  0.5690800800000000  0.5737132600000000  0.5046201200000000
  0.3412065400000001  0.5588308600000002  0.9100989800000000
  0.2138906000000000  0.5516904500000001  0.5906058300000000
  0.6588315799999999  0.4452871500000001  0.0904545500000000
  0.0387943400000000  0.1944818100000000  0.5231090999999999
  0.6527395399999999  0.6431074300000001  0.8231379000000000
  0.6225374700000003  0.7758903200000002  0.1795957300000000
  0.6004746399999999  0.7115809700000000  0.0761908600000000
  0.1557025700000000  0.9562441000000000  0.9779150999999999
  0.2118541600000000  0.9077328900000000  0.9387166400000000
  0.3400504300000000  0.7845656900000000  0.9133727699999999
  0.4441794500000000  0.6615281300000000  0.9136046399999999
  0.3718453300000000  0.0221624300000000  0.8195451200000000
  0.2893124000000001  0.8859969400000002  0.0716056800000000
  0.0330080000000000  0.1927570800000001  0.9740332899999998
  0.0884946200000000  0.2980397200000000  0.9365304999999999
  0.2143695900000000  0.5554742100000000  0.9127451799999999
  0.9781921600000000  0.3495474500000000  0.8209823400000000
  0.1528470900000000  0.3775263700000000  0.1800125700000000
  0.2262204699999999  0.8401089600000000  0.1745023600000000
  0.6975711200000001  0.7882775300000001  0.9354273499999999
  0.8020518999999999  0.8442363200000000  0.9752712199999999
  0.9021404399999999  0.6039835600000000  0.5505575100000000
  0.0883381000000000  0.2978274400000000  0.5671204699999999
  0.1949888400000000  0.1562312300000000  0.4767213000000000
  0.2983215800000000  0.2104948900000000  0.4327047099999999
  0.5510447100000001  0.3377020600000001  0.4093856599999999
  0.3509889800000000  0.3717706600000000  0.3170270400000000
  0.3947711300000000  0.2938294600000000  0.5500303300000000
  0.8430541199999999  0.0392730300000000  0.4774998300000000
  0.7882446800000000  0.0879519400000000  0.4339952100000000
  0.6635233300000000  0.2144093700000000  0.4076013800000000
  0.6279555600000000  0.9793049900000003  0.3178636400000000
  0.7063003900000001  0.1015423300000000  0.5507752500000000
  0.9716851300000000  0.8097707700000000  0.4743245600000000
  0.9174312600000000  0.7062104000000000  0.4304546400000000
  0.7873637900000000  0.4489517200000001  0.4091297100000000
  0.0227627500000000  0.6498400400000000  0.3183340600000000
  0.1101966500000000  0.3989134000000000  0.0765001000000000
  0.2169586800000000  0.3137510500000000  0.5725698900000000
  0.7162697363056906  0.0788419934162750  0.3637800926617837
  0.3570377800000001  0.3474348100000000  0.6774131300000000
  0.9053847199999999  0.3030550000000000  0.9484520400000001
  0.3102611400000000  0.0933380200000000  0.0773280100000000
  0.5591254200000000  0.2144773900000000  0.0884435100000000
  0.3489574200000000  0.9845232100000000  0.1831332400000000
  0.3988886100000000  0.0968282600000000  0.9480639599999998
  0.8030265500000000  0.8434684600000001  0.5253340000000000
  0.6986298600000000  0.7893890800000000  0.5658363299999999
  0.4443998200000000  0.6620329300000000  0.5899286600000000
  0.6489065100000000  0.6353040800000000  0.6850848199999999
  0.6039122200000000  0.7027987800000000  0.4407882800000000
  0.1572139100000000  0.9677646900000000  0.5193764500000000
  0.3353853500000000  0.7855793000000000  0.5920196300000000
  0.3721258200000000  0.0203932300000000  0.6814754799999998
  0.2919258200000001  0.8978356300000001  0.4496728100000000
  0.3414811700000001  0.5593372200000001  0.5867507699999999
  0.0229984500000000  0.3702794100000000  0.1827191600000000
  0.7875858700000000  0.3413092600000000  0.0905454900000000
  0.2084422700000000  0.9171679500000001  0.5660615799999998
  0.7041205200000001  0.6046915300000000  0.9489322300000000
  0.9043511700000000  0.2212510500000000  0.0751358900000000
  0.2905618900000000  0.4004015500000000  0.4215738199999999
  0.2251580900000000  0.3778122000000000  0.3190454000000000
  0.2127899900000001  0.6540881600000001  0.5875527699999999
  0.9753540000000001  0.6290012300000000  0.6824127500000000
  0.1522449200000001  0.7662316000000001  0.3275120600000000
  0.1098210300000000  0.7009164300000000  0.4306072900000000
  0.1002069600000000  0.7784722200000002  0.5708738300000000
  0.4378535500000000  0.7846629700000000  0.5881507200000000
  0.6527276200000000  0.0099484700000000  0.6759031599999997
  0.6222329200000000  0.8482579000000000  0.3206017800000000
  0.5991266000000000  0.8906245100000001  0.4231507600000000
  0.7835198500000000  0.6903250600000000  0.0771137000000000
  0.6858942600000000  0.9030580600000000  0.5735279100000000
  0.6287137600000000  0.6491141000000000  0.1827817300000000
  0.7400284576863606  0.1451643460213234  0.3637800926617837
  0.4204841200000000  0.0767334400000000  0.3085847700000000
  0.4330957700000000  0.1706980200000000  0.4377918200000000
  0.3389004400000000  0.3786218500000000  0.9630762300000000
  0.3981894200000000  0.5200146300000000  0.9139872999999999
  0.0373872799999999  0.6605891900000000  0.9608166600000000
  0.2583979300000000  0.4299710400000001  0.9405465999999999
  0.0710454699999999  0.6567901200000000  0.8054045699999998
  0.1697119500000001  0.7430328300000001  0.9315438400000000
  0.5224098200000000  0.1179728900000000  0.4170696700000000
  0.6230238800000000  0.9605640000000000  0.9612159199999999
  0.3404177000000000  0.4200434700000000  0.8041784600000000
  0.3791176500000000  0.0388934800000000  0.4673395699999999
  0.6594602000000001  0.6207020600000001  0.4697857200000000
  0.9308837500000000  0.3443572900000000  0.3101109300000000
  0.8831429500000000  0.4031851400000000  0.4157741700000000
  0.9618061700000000  0.3400882100000000  0.4689526500000000
  0.7408869300000001  0.5708064800000000  0.4400225699999999
  0.6566663400000000  0.5847643300000001  0.3105056600000000
  0.5973329600000000  0.4793657700000000  0.4152619100000000
  0.8280316200000001  0.5684948900000001  0.0626013400000000
  0.8829005000000001  0.4829665900000001  0.0839031400000000
  0.9593457800000000  0.6239285700000001  0.0294433700000000
  0.7464614400000000  0.1728144000000000  0.0606326200000000
  0.6598920199999999  0.0723139400000000  0.1899901800000000
  0.6051212700000000  0.1188335900000000  0.0821989200000000
  0.4813316800000002  0.8806310700000002  0.9152736900000000
  0.8309104600000000  0.2619132800000000  0.4379454200000000
  0.5805177999999999  0.9216045900000001  0.8034489799999999
  0.5105871500000000  0.6862984000000000  0.7513625499999999
  0.5065843500000000  0.4873388000000000  0.3985894800000000
  0.0729636300000000  0.8611184200000001  0.5472418300000000
  0.9303216100000000  0.1391068100000000  0.0460850500000000
  0.3699779599999999  0.2476850700000000  0.6743768799999998
  0.7519719400000000  0.1230098200000000  0.6753146900000000
  0.2473816800000000  0.8753464600000002  0.3246658700000000
  0.7514165400000000  0.6305380500000000  0.8251723399999999
  0.4926684700000000  0.1712944600000000  0.2509977900000000
  0.8347739800000000  0.3188101200000000  0.2531640900000000
  0.6828624300000000  0.5146118900000000  0.2539102600000000
  0.5083628500000000  0.8258412500000000  0.7487430899999999
  0.1657020700000000  0.6810757700000001  0.7479339699999997
  0.3155315500000000  0.4909697000000001  0.7484306500000000
  0.1694091400000001  0.4811631100000001  0.7528445900000000
  0.3135938500000000  0.8308072600000000  0.7530420799999997
  0.6672994499999999  0.0388938400000000  0.0294137100000000
  0.8335677100000000  0.5172899000000000  0.2468739500000000
  0.6867180899999999  0.1688827900000000  0.2464094700000000
  0.4836289000000000  0.3151079100000000  0.2462646500000000
  0.5138270500000000  0.0203455500000000  0.0982157500000000
  0.9816622699999999  0.4910853400000000  0.1007217400000000
  0.5098737900000000  0.4907171500000000  0.1016710300000000
  0.4853869600000000  0.9796595800000000  0.5982863299999998
  0.0188587300000000  0.5045306600000000  0.6005852800000000
  0.4897511100000000  0.5131237500000000  0.5975735800000000
  0.0193833800000000  0.5078365100000000  0.9003023400000000
  0.4882537700000001  0.9791024600000001  0.9026900499999999
  0.4895397599999999  0.5127047300000001  0.9017119799999999
  0.9818221100000001  0.4941679300000000  0.4004783399999999
  0.5153910000000000  0.0194740200000000  0.4028214800000000
  0.5703253600000000  0.8292248300000000  0.9400957400000000
  0.4297677799999999  0.2561593600000000  0.0611281800000000
  0.1176838200000001  0.6000588000000001  0.9117826099999998
  0.5172318400000000  0.3995545800000000  0.0847674300000000
  0.2588306000000000  0.4305701700000000  0.5518658700000000
  0.3386966200000001  0.4196397700000001  0.6903878500000000
  0.3985247300000000  0.5205732800000000  0.5828503900000001
  0.3390823800000000  0.3794878500000000  0.5293263499999998
  0.1735485100000000  0.4302315900000000  0.9470513900000000
  0.0729253300000000  0.4127844400000000  0.8100820200000000
  0.1185023400000000  0.5161546299999999  0.9149345099999999
  0.0448978200000001  0.3778475800000001  0.9720035700000000
  0.2553493600000000  0.8273880900000000  0.9396914300000000
  0.3415493600000000  0.9276159800000000  0.8093357699999998
  0.3968752500000001  0.8803923299999999  0.9172288700000000
  0.3357164300000001  0.9589667200000001  0.9715771000000000
  0.5694569000000002  0.7438587200000001  0.9468880200000001
  0.5814898900000000  0.6627361899999999  0.8096591600000000
  0.4826179700000000  0.6042094700000000  0.9170837900000000
  0.6237703400000000  0.6649154200000000  0.9710312899999999
  0.8272568499999999  0.5738054400000000  0.4304091300000000
  0.9287849499999999  0.5869723000000000  0.3038985700000000
  0.8831332400000000  0.4874525900000000  0.4119787899999999
  0.9597313500000000  0.6250075300000000  0.4620931500000000
  0.7480038900000000  0.1750535100000000  0.4304043100000000
  0.6603098400000000  0.0735310100000000  0.3036889800000000
  0.6069779500000000  0.1185921200000000  0.4126318500000000
  0.6640890300000000  0.0381444000000000  0.4635802499999999
  0.4286336200000000  0.2533213800000000  0.4300991700000000
  0.4138399900000000  0.3405727000000000  0.3031693600000000
  0.5128137900000002  0.3952239900000001  0.4112122800000000
  0.3732474700000000  0.3349365800000000  0.4617416300000000
  0.4139035000000000  0.3417675800000000  0.1894688599999999
  0.0375406000000001  0.6561033800000000  0.5302317600000001
  0.1171020400000000  0.5962020700000000  0.5856584399999999
  0.9304077800000000  0.5865527200000000  0.1903418000000000
  0.1686839400000001  0.7367610600000001  0.5624699200000000
  0.3767363500000000  0.3364059300000000  0.0287740400000000
  0.0689826900000000  0.6548085500000000  0.6918122600000000
  0.1725378400000000  0.4276510500000000  0.5602974799999999
  0.0735294500000000  0.4128438300000000  0.6963158099999999
  0.1179656200000000  0.5123530100000000  0.5883961300000000
  0.0399816100000000  0.3735602200000000  0.5370335099999999
  0.2511498600000000  0.8240972700000000  0.5699067799999999
  0.3397701200000001  0.9261506700000002  0.6956343600000000
  0.3930395000000000  0.8812665100000000  0.5877938700000001
  0.5689874300000000  0.7435921700000000  0.5605130500000000
  0.5811181399999999  0.6606660400000000  0.6959052899999998
  0.4829029300000000  0.6048071300000000  0.5856486700000000
  0.6240484200000000  0.6650063700000000  0.5358076600000000
  0.4295202300000000  0.1709901000000000  0.0688201700000000
  0.3324133900000000  0.9613877000000000  0.5364444999999999
  0.5207060000000000  0.1187612800000000  0.0851478200000000
  0.6196555500000002  0.9592460000000003  0.5309091100000000
  0.4204362499999999  0.0760699700000000  0.1949844300000000
  0.5798085300000000  0.9197693900000000  0.6896578500000000
  0.5667870100000000  0.8273921100000000  0.5526717499999999
  0.6603629900000000  0.6228582900000001  0.0389687600000000
  0.6015785200000000  0.4838471700000000  0.0891845000000000
  0.6581518600000000  0.5848942900000000  0.1968154700000000
  0.4770640600000000  0.8805194600000000  0.5846170000000001
  0.9662142000000000  0.3441007600000000  0.0391191200000000
  0.3780500400000000  0.0377360200000000  0.0392514100000000
  0.8833414600000001  0.3989675100000001  0.0882529400000000
  0.9298016800000001  0.3429990500000001  0.1964935400000000
  0.8315573900000000  0.2577324500000000  0.0691795600000000
  0.7444586000000000  0.5712972600000000  0.0693941700000000
  0.9931766999999999  0.5361063400000000  0.8939901099999999
  0.3063607100000000  0.5071400000000000  0.8046170599999999
  0.4605988500000001  0.4583727000000001  0.8942634499999997
  0.5138307600000001  0.1958290000000000  0.3065512499999999
  0.4610332900000000  0.9921961100000001  0.4101792799999999
  0.0082243300000000  0.4658641700000001  0.4027844300000000
  0.6845762600000000  0.4923047200000001  0.3093045900000000
  0.5349862700000000  0.5420569700000000  0.4004498200000000
  0.8097298699999999  0.4939833900000001  0.1917745000000000
  0.0076180400000000  0.5458100700000000  0.1010251500000000
  0.1926864899999999  0.6940968700000000  0.8032483300000000
  0.8107229000000000  0.3177213200000000  0.3083189499999999
  0.5428323200000000  0.0049968500000000  0.8981980899999999
  0.7495713936784769  0.1157028594638975  0.3494083598356316
  0.7533007500000000  0.6129142500000000  0.7667125200000000
  0.7320683000000000  0.6642799900000000  0.8371754100000000
  0.2660199600000001  0.9285247900000001  0.3352825100000000
  0.2477431200000000  0.8552897600000001  0.2671603200000000
  0.7539943000000000  0.1428353800000000  0.7336421100000000
  0.7315847199999999  0.0697174800000000  0.6635375100000001
  0.3864679900000000  0.2442282700000000  0.7329669199999997
  0.3381964199999999  0.2693144500000000  0.6623471700000000
  0.9450056900000000  0.1034208200000000  0.0253945600000000
  0.8858009600000000  0.1240690200000000  0.0821462300000000
  0.0587737100000001  0.8972190800000001  0.5266793199999998
  0.1155672700000001  0.8750346500000000  0.5862275400000000
  0.6895157500000000  0.1931281000000000  0.1908589600000000
  0.4922074000000000  0.8010755100000000  0.8052437600000000
  0.5424433800000000  0.9943269500000002  0.1017979000000000
  0.9939311400000000  0.4506431200000000  0.6115995199999997
  0.4551432900000000  0.4622175100000001  0.1028113000000000
  0.4526918400000000  0.4589321200000000  0.3874657199999999
  0.5058019499999999  0.3130452500000000  0.1909345300000000
  0.5438022600000001  0.9947809800000003  0.3874755000000000
  0.6979044000000000  0.1952768800000000  0.3020245399999999
  0.0072965000000000  0.5480947800000000  0.3895796800000000
  0.8065877399999999  0.5040201300000001  0.3021869400000000
  0.5442404900000000  0.5410417300000000  0.8999150799999999
  0.4909945300000000  0.6919512799999999  0.8069810700000000
  0.4595787500000000  0.0050073300000000  0.8980905500000000
  0.3114454700000002  0.8067793700000001  0.8085667000000000
  0.9937004400000000  0.4531420100000000  0.8982140100000000
  0.1939940800000000  0.5027085000000000  0.8082440999999999
  0.3109724500000000  0.5112661200000000  0.6927748699999999
  0.9918869700000000  0.5322677900000000  0.5981577199999999
  0.4982443699999999  0.3033052600000000  0.3018874600000000
  0.5400599900000000  0.0058253900000000  0.5955940900000000
  0.1953813500000000  0.4958831000000000  0.6969289400000001
  0.1894285900000000  0.6819390400000001  0.6926273100000000
  0.3015427900000000  0.8041248300000000  0.6975913399999999
  0.4572055200000000  0.0054301400000000  0.6090490400000000
  0.4938383400000000  0.6945866700000001  0.6951029800000000
  0.5436377400000000  0.5418498300000000  0.6085881800000000
  0.4616961400000000  0.4584286800000000  0.5954488600000000
  0.4593595800000001  0.9946419500000002  0.1042459000000000
  0.8081714600000000  0.3061324300000000  0.1976108300000000
  0.0075088100000000  0.4627583100000000  0.1098119700000000
  0.6948858899999999  0.5000613900000001  0.1983607300000000
  0.4877330000000001  0.8005358000000001  0.6933843900000000
  0.5081278600000000  0.1972584000000001  0.1951062400000000
  0.5385781300000000  0.5450126199999999  0.1096917600000000
  0.4344502099999999  0.3323216800000000  0.0922191900000000
  0.6708512700000000  0.1011581100000000  0.0920630100000000
  0.8999398100000000  0.5656681600000001  0.0937792200000000
  0.4398333800000000  0.1009960500000000  0.4070222099999999
  0.9010714600000000  0.3380645800000001  0.4065309300000000
  0.3332722600000000  0.4372809700000001  0.9029676999999999
  0.1010938700000000  0.6658717400000000  0.9011302400000000
  0.5632643899999999  0.8968610100000000  0.9020525700000001
  0.6635747500000000  0.5625195200000001  0.4077291200000000
  0.1027687700000000  0.4304917100000001  0.5992138599999999
  0.4383818200000000  0.1022069600000000  0.0975520000000000
  0.5654984700000000  0.6700841700000000  0.5971046000000000
  0.9011239100000000  0.3343209400000000  0.0999739800000000
  0.6682157000000000  0.5660163499999999  0.0999526800000000
  0.5596319099999999  0.8954751700000000  0.5906172999999999
  0.3334439700000000  0.4374674800000001  0.5907202800000000
  0.1043707600000000  0.4342329400000000  0.9068550899999999
  0.3312948400000000  0.8978848100000001  0.9068807799999999
  0.5654926300000001  0.6701877500000000  0.9093266399999999
  0.8975607100000000  0.5687686100000000  0.3993760100000000
  0.6730278600000000  0.1024835800000000  0.4007596800000000
  0.4307028000000000  0.3282016500000000  0.4001416300000000
  0.3263284400000000  0.8972877500000001  0.5983731200000000
  0.0982754600000001  0.6606982200000000  0.5948633099999998
