 Entering Gaussian System
 *********************************************
 Gaussian 98:
 frequency output generated by the xtb code
 *********************************************
                         Standard orientation:
 --------------------------------------------------------------------
  Center     Atomic     Atomic              Coordinates (Angstroms)
  Number     Number      Type              X           Y           Z
 --------------------------------------------------------------------
    1          8             0        2.658842    1.089512   -0.243905
    2          7             0        1.986586    0.112047   -0.028656
    3          8             0        2.413729   -1.007423    0.215457
    4          6             0        0.578101    0.222354   -0.049863
    5          7             0       -0.138911    1.295679   -0.283238
    6          6             0       -1.419096    0.899722   -0.193924
    7          6             0       -1.483499   -0.446531    0.100776
    8          7             0       -0.202884   -0.868322    0.190424
    9          1             0       -2.219588    1.594555   -0.344295
   10          1             0       -2.320594   -1.097580    0.244967
   11          1             0        0.147313   -1.794013    0.392256
 --------------------------------------------------------------------
     1 basis functions        1 primitive gaussians
     1 alpha electrons        1 beta electrons

 Harmonic frequencies (cm**-1), IR intensities (km*mol⁻¹),
 Raman scattering activities (A**4/amu), Raman depolarization ratios,
 reduced masses (AMU), force constants (mDyne/A) and normal coordinates:
                      1                      2                      3
                        a                      a                      a 
 Frequencies --    87.6184               191.8391               196.7561
 Red. masses --    14.2135                11.9948                13.5414
 Frc consts  --     0.0000                 0.0000                 0.0000
 IR Inten    --     5.8632                 4.2378                 5.9383
 Raman Activ --     0.0000                 0.0000                 0.0000
 Depolar     --     0.0000                 0.0000                 0.0000
 Atom AN      X      Y      Z        X      Y      Z        X      Y      Z
   1   8     0.00   0.11   0.52    -0.00   0.06   0.28    -0.44   0.21  -0.05
   2   7    -0.00  -0.00  -0.01    -0.00  -0.02  -0.10     0.01  -0.09   0.02
   3   8    -0.00  -0.12  -0.54     0.00   0.06   0.26     0.48   0.09  -0.02
   4   6     0.00  -0.00  -0.01    -0.00  -0.13  -0.57    -0.01  -0.31   0.07
   5   7    -0.00  -0.08  -0.35     0.00  -0.07  -0.29     0.28  -0.17   0.04
   6   6    -0.00  -0.05  -0.21     0.00   0.07   0.30     0.16   0.17  -0.04
   7   6     0.00   0.05   0.22    -0.00   0.07   0.32    -0.16   0.19  -0.04
   8   7     0.00   0.08   0.34    -0.00  -0.07  -0.31    -0.28  -0.15   0.04
   9   1    -0.00  -0.03  -0.12     0.00   0.04   0.20     0.10   0.11  -0.02
  10   1     0.00   0.03   0.13    -0.00   0.05   0.20    -0.10   0.11  -0.03
  11   1     0.00   0.03   0.16    -0.00  -0.02  -0.10    -0.16  -0.07   0.02
                      4                      5                      6
                        a                      a                      a 
 Frequencies --   444.7284               554.5027               583.2586
 Red. masses --    14.2796                14.1320                11.7935
 Frc consts  --     0.0000                 0.0000                 0.0000
 IR Inten    --     1.6844                 1.9398                15.5872
 Raman Activ --     0.0000                 0.0000                 0.0000
 Depolar     --     0.0000                 0.0000                 0.0000
 Atom AN      X      Y      Z        X      Y      Z        X      Y      Z
   1   8     0.52  -0.14   0.03    -0.41  -0.16   0.04     0.00   0.02   0.11
   2   7     0.24   0.02  -0.01    -0.01  -0.37   0.08    -0.00  -0.07  -0.30
   3   8     0.47   0.11  -0.03     0.47  -0.24   0.05     0.00   0.02   0.09
   4   6    -0.08   0.00  -0.00    -0.01   0.25  -0.06    -0.00  -0.08  -0.38
   5   7    -0.29  -0.06   0.01    -0.21   0.28  -0.06     0.00   0.01   0.06
   6   6    -0.31  -0.01   0.00    -0.14   0.00  -0.00     0.00   0.05   0.25
   7   6    -0.32   0.02  -0.00     0.10  -0.02   0.00    -0.00  -0.10  -0.45
   8   7    -0.29   0.05  -0.01     0.17   0.29  -0.06     0.00   0.13   0.57
   9   1    -0.08   0.02  -0.00    -0.09  -0.05   0.01     0.00   0.03   0.16
  10   1    -0.08  -0.01   0.00     0.08  -0.06   0.01    -0.00  -0.06  -0.27
  11   1    -0.13  -0.00   0.00     0.12   0.11  -0.02     0.00   0.02   0.08
                      7                      8                      9
                        a                      a                      a 
 Frequencies --   629.3894               683.5817               737.2501
 Red. masses --    11.9844                 2.7695                13.1220
 Frc consts  --     0.0000                 0.0000                 0.0000
 IR Inten    --    15.9842                83.1362                33.3242
 Raman Activ --     0.0000                 0.0000                 0.0000
 Depolar     --     0.0000                 0.0000                 0.0000
 Atom AN      X      Y      Z        X      Y      Z        X      Y      Z
   1   8     0.00   0.02   0.10     0.00   0.01   0.04     0.00   0.05   0.22
   2   7    -0.00  -0.07  -0.33    -0.00  -0.03  -0.13    -0.00  -0.16  -0.72
   3   8     0.00   0.02   0.11    -0.00   0.01   0.03     0.00   0.05   0.22
   4   6    -0.00  -0.07  -0.32     0.00   0.02   0.08     0.00   0.11   0.51
   5   7     0.00   0.13   0.61    -0.00  -0.00  -0.00    -0.00  -0.03  -0.15
   6   6    -0.00  -0.10  -0.46     0.00   0.03   0.12     0.00   0.01   0.04
   7   6     0.00   0.05   0.21     0.00  -0.01  -0.07     0.00   0.01   0.03
   8   7     0.00   0.01   0.02    -0.00  -0.07  -0.30    -0.00  -0.02  -0.07
   9   1    -0.00  -0.05  -0.25     0.00   0.01   0.05    -0.00  -0.01  -0.05
  10   1     0.00   0.04   0.17    -0.00  -0.01  -0.05    -0.00  -0.00  -0.02
  11   1     0.00   0.02   0.08     0.00   0.20   0.90    -0.00  -0.04  -0.19
                     10                     11                     12
                        a                      a                      a 
 Frequencies --   788.5442               788.8746               844.5652
 Red. masses --     3.6387                14.5669                 3.3101
 Frc consts  --     0.0000                 0.0000                 0.0000
 IR Inten    --     9.0651                70.5889                 6.7808
 Raman Activ --     0.0000                 0.0000                 0.0000
 Depolar     --     0.0000                 0.0000                 0.0000
 Atom AN      X      Y      Z        X      Y      Z        X      Y      Z
   1   8    -0.01   0.04  -0.01     0.08  -0.50   0.11     0.00  -0.00  -0.01
   2   7     0.04  -0.00   0.00    -0.52   0.05  -0.01     0.00   0.01   0.03
   3   8    -0.02  -0.04   0.01     0.21   0.46  -0.10    -0.00  -0.00  -0.01
   4   6     0.02  -0.01  -0.06    -0.23  -0.01  -0.00    -0.00  -0.02  -0.09
   5   7    -0.01  -0.02  -0.01     0.08   0.16  -0.04    -0.00  -0.01  -0.03
   6   6    -0.01  -0.02  -0.08     0.15   0.03  -0.01     0.00   0.10   0.43
   7   6    -0.01   0.10   0.45     0.14  -0.00   0.04     0.00  -0.01  -0.03
   8   7    -0.00   0.01  -0.04     0.05  -0.19   0.04     0.00  -0.01  -0.03
   9   1     0.00   0.00  -0.01    -0.00  -0.04   0.01    -0.00  -0.19  -0.87
  10   1    -0.00  -0.19  -0.85    -0.02   0.05  -0.09     0.00  -0.01  -0.04
  11   1    -0.01  -0.00  -0.01     0.10  -0.02   0.00    -0.00  -0.00  -0.01
                     13                     14                     15
                        a                      a                      a 
 Frequencies --   886.8497               965.4016              1051.8874
 Red. masses --    11.6435                 9.1312                 2.7906
 Frc consts  --     0.0000                 0.0000                 0.0000
 IR Inten    --     5.3942                 1.6488                50.2314
 Raman Activ --     0.0000                 0.0000                 0.0000
 Depolar     --     0.0000                 0.0000                 0.0000
 Atom AN      X      Y      Z        X      Y      Z        X      Y      Z
   1   8     0.01   0.02  -0.00     0.06   0.19  -0.04    -0.04  -0.06   0.01
   2   7     0.01   0.00  -0.00     0.19  -0.02   0.00    -0.04  -0.02   0.01
   3   8     0.00   0.01  -0.00     0.02  -0.20   0.04    -0.02   0.07  -0.02
   4   6     0.00   0.14  -0.03    -0.22   0.08  -0.02     0.15   0.10  -0.02
   5   7     0.26   0.27  -0.06    -0.04   0.43  -0.09     0.06   0.13  -0.03
   6   6     0.41  -0.35   0.08     0.05  -0.01   0.00     0.09  -0.14   0.03
   7   6    -0.43  -0.36   0.08     0.11   0.02  -0.01     0.17  -0.01   0.00
   8   7    -0.29   0.23  -0.05    -0.05  -0.48   0.10    -0.12   0.10  -0.02
   9   1     0.11  -0.10   0.02    -0.25  -0.28   0.06    -0.19  -0.28   0.06
  10   1    -0.15  -0.06   0.01    -0.27   0.37  -0.08     0.17  -0.15   0.03
  11   1     0.12   0.13  -0.03     0.04  -0.11   0.02    -0.79  -0.24   0.05
                     16                     17                     18
                        a                      a                      a 
 Frequencies --  1100.3683              1127.4582              1258.3541
 Red. masses --     6.4233                 4.2824                13.0783
 Frc consts  --     0.0000                 0.0000                 0.0000
 IR Inten    --     3.1157                30.2222               159.6911
 Raman Activ --     0.0000                 0.0000                 0.0000
 Depolar     --     0.0000                 0.0000                 0.0000
 Atom AN      X      Y      Z        X      Y      Z        X      Y      Z
   1   8     0.08   0.12  -0.03    -0.02   0.00  -0.00    -0.17  -0.18   0.04
   2   7     0.04   0.01  -0.00    -0.03  -0.03   0.01     0.26  -0.08   0.02
   3   8     0.04  -0.13   0.03     0.03  -0.03   0.01    -0.12   0.24  -0.05
   4   6    -0.26  -0.07   0.02     0.06   0.27  -0.06     0.06   0.16  -0.04
   5   7     0.05   0.34  -0.07    -0.29   0.09  -0.02     0.45   0.14  -0.03
   6   6     0.02   0.27  -0.06     0.09  -0.07   0.02    -0.45  -0.09   0.02
   7   6    -0.01  -0.14   0.03     0.06  -0.20   0.04    -0.36   0.04  -0.01
   8   7    -0.13  -0.28   0.06     0.09  -0.17   0.04     0.33  -0.21   0.04
   9   1     0.10   0.18  -0.04     0.51   0.52  -0.11    -0.02   0.10  -0.02
  10   1     0.42  -0.57   0.12    -0.18   0.18  -0.04    -0.05  -0.06   0.01
  11   1     0.04  -0.05   0.01    -0.30  -0.16   0.04    -0.06  -0.11   0.02
                     19                     20                     21
                        a                      a                      a 
 Frequencies --  1332.3914              1351.6042              1405.3587
 Red. masses --    12.4903                13.3266                12.0590
 Frc consts  --     0.0000                 0.0000                 0.0000
 IR Inten    --     2.4090               491.6292                 2.3445
 Raman Activ --     0.0000                 0.0000                 0.0000
 Depolar     --     0.0000                 0.0000                 0.0000
 Atom AN      X      Y      Z        X      Y      Z        X      Y      Z
   1   8    -0.18  -0.20   0.05    -0.18  -0.20   0.04     0.00   0.01  -0.00
   2   7     0.21  -0.07   0.01     0.58  -0.12   0.03    -0.02  -0.01   0.00
   3   8    -0.12   0.26  -0.06    -0.18   0.32  -0.07     0.02  -0.01   0.00
   4   6     0.57   0.17  -0.04    -0.40  -0.18   0.04     0.04   0.32  -0.07
   5   7    -0.27  -0.02   0.01    -0.18   0.04  -0.01     0.31  -0.09   0.02
   6   6     0.16   0.33  -0.07     0.19  -0.19   0.04    -0.33  -0.27   0.06
   7   6    -0.03  -0.14   0.03     0.20   0.15  -0.03     0.45   0.07  -0.02
   8   7    -0.27  -0.26   0.06    -0.08   0.13  -0.03    -0.56  -0.08   0.02
   9   1    -0.13  -0.09   0.02     0.14   0.03  -0.01     0.09   0.12  -0.03
  10   1     0.01  -0.07   0.02     0.09   0.02  -0.00     0.11   0.05  -0.01
  11   1     0.18   0.01  -0.00     0.01   0.05  -0.01     0.16   0.09  -0.02
                     22                     23                     24
                        a                      a                      a 
 Frequencies --  1417.2896              1508.3766              1655.9876
 Red. masses --    11.2514                12.1975                14.6876
 Frc consts  --     0.0000                 0.0000                 0.0000
 IR Inten    --    60.1666                53.2187               412.7398
 Raman Activ --     0.0000                 0.0000                 0.0000
 Depolar     --     0.0000                 0.0000                 0.0000
 Atom AN      X      Y      Z        X      Y      Z        X      Y      Z
   1   8     0.01   0.03  -0.01     0.01  -0.01   0.00    -0.26  -0.38   0.08
   2   7    -0.08  -0.00   0.00    -0.11   0.08  -0.02     0.17   0.77  -0.17
   3   8     0.05  -0.07   0.02    -0.01  -0.00   0.00     0.12  -0.33   0.07
   4   6    -0.00   0.36  -0.08     0.45  -0.50   0.11    -0.03   0.03  -0.01
   5   7    -0.17  -0.18   0.04    -0.16   0.47  -0.10     0.02  -0.02   0.00
   6   6     0.29  -0.31   0.07    -0.16  -0.34   0.08     0.01   0.01  -0.00
   7   6    -0.27   0.58  -0.13    -0.01   0.26  -0.06     0.00  -0.01   0.00
   8   7     0.08  -0.27   0.06    -0.06  -0.02   0.00    -0.02  -0.01   0.00
   9   1     0.08  -0.11   0.02     0.12   0.08  -0.02    -0.00  -0.00   0.00
  10   1     0.20  -0.17   0.04     0.06   0.01  -0.00    -0.00  -0.00   0.00
  11   1     0.08  -0.05   0.01     0.08   0.02  -0.01    -0.03  -0.01   0.00
                     25                     26                     27
                        a                      a                      a 
 Frequencies --  3182.6333              3194.3296              3430.0568
 Red. masses --     1.8296                 1.9657                 1.8921
 Frc consts  --     0.0000                 0.0000                 0.0000
 IR Inten    --     0.1316                 2.4602                47.3161
 Raman Activ --     0.0000                 0.0000                 0.0000
 Depolar     --     0.0000                 0.0000                 0.0000
 Atom AN      X      Y      Z        X      Y      Z        X      Y      Z
   1   8    -0.00  -0.00   0.00    -0.00   0.00  -0.00    -0.00   0.00  -0.00
   2   7     0.00   0.00  -0.00    -0.00   0.00  -0.00     0.00  -0.00   0.00
   3   8    -0.00   0.00  -0.00    -0.00  -0.00   0.00    -0.00   0.00  -0.00
   4   6    -0.00  -0.00   0.00     0.00  -0.00   0.00    -0.01   0.00  -0.00
   5   7    -0.00   0.00  -0.00     0.00   0.01  -0.00     0.00  -0.00   0.00
   6   6    -0.13   0.11  -0.02    -0.16   0.15  -0.03     0.00  -0.00   0.00
   7   6     0.17   0.13  -0.03    -0.15  -0.12   0.03     0.01   0.01  -0.00
   8   7     0.00   0.00  -0.00     0.00  -0.00   0.00    -0.09   0.24  -0.05
   9   1     0.46  -0.40   0.09     0.55  -0.48   0.10    -0.00   0.00  -0.00
  10   1    -0.58  -0.45   0.10     0.48   0.37  -0.08    -0.01  -0.01   0.00
  11   1    -0.00   0.01  -0.00     0.00  -0.01   0.00     0.32  -0.89   0.19
