11
nIm_neutral charge=0 2-나이트로이미다졸 (전구체)
O       2.67269867     1.12529106    -0.25175695
N       2.00823604     0.10735341    -0.02764053
O       2.46361421    -1.02098544     0.21830896
C       0.58092453     0.21396830    -0.04800915
N      -0.11472279     1.30543975    -0.28540325
C      -1.42469478     0.90029378    -0.19404718
C      -1.50871194    -0.44399759     0.10028018
N      -0.21112088    -0.87219245     0.19128764
H      -2.23955454     1.59836377    -0.34513046
H      -2.34997461    -1.10739880     0.24718099
H       0.12330610    -1.80613579     0.39492973
