11
 energy: -24.752262792915 gnorm: 0.000393881393 xtb: 6.7.1 (edcfbbe)
O            2.65884193896635        1.08951198604631       -0.24390451278080
N            1.98658617511943        0.11204653735018       -0.02865582373535
O            2.41372909006196       -1.00742290112902        0.21545682758993
C            0.57810091022553        0.22235365719699       -0.04986281596853
N           -0.13891115219492        1.29567936029056       -0.28323796417055
C           -1.41909537795836        0.89972222290116       -0.19392384980949
C           -1.48349911540364       -0.44653135057635        0.10077583704653
N           -0.20288437073622       -0.86832184170014        0.19042382255224
H           -2.21958736693852        1.59455483669494       -0.34429500227844
H           -2.32059370632063       -1.09757995754502        0.24496734003986
H            0.14731298517894       -1.79401254952969        0.39225612151456
