# Co-MOF-9_1_a_sq
1.000000
 32.0880000000000010   0.0000000000000000         0.0000000000
  0.0000000000000016  26.1559999999999988         0.0000000000
 -8.0267436839527484   0.0000000000000020        23.5919008525
Co N O O O O C H C H C H C C H C C H C C H C C H C C 
12 12 12 12 12 12 12 12 12 12 12 12 12 12 12 12 12 12 12 12 12 12 12 12 12 12 
Direct
0.2961700000000000 0.2156050000000000 0.2301250000000000
0.2961700000000000 0.2156050000000000 0.7301250000000000
0.2961700000000000 0.7156050000000002 0.2301250000000000
0.2961700000000000 0.7156050000000000 0.7301250000000000
0.6295033333333334 0.2156050000000000 0.2301250000000000
0.6295033333333334 0.2156050000000000 0.7301250000000000
0.6295033333333334 0.7156050000000002 0.2301250000000000
0.6295033333333334 0.7156050000000000 0.7301250000000000
0.9628366666666667 0.2156050000000000 0.2301250000000000
0.9628366666666666 0.2156050000000000 0.7301250000000000
0.9628366666666667 0.7156050000000002 0.2301250000000000
0.9628366666666666 0.7156050000000000 0.7301250000000000
0.2600000000000000 0.1538500000000000 0.2417350000000000
0.2600000000000000 0.1538500000000000 0.7417350000000000
0.2600000000000001 0.6538500000000002 0.2417350000000000
0.2600000000000001 0.6538500000000000 0.7417350000000000
0.5933333333333334 0.1538500000000000 0.2417350000000000
0.5933333333333334 0.1538500000000000 0.7417350000000000
0.5933333333333334 0.6538500000000002 0.2417350000000000
0.5933333333333334 0.6538500000000000 0.7417350000000000
0.9266666666666666 0.1538500000000000 0.2417350000000000
0.9266666666666667 0.1538500000000000 0.7417350000000000
0.9266666666666666 0.6538500000000002 0.2417350000000000
0.9266666666666667 0.6538500000000000 0.7417350000000000
0.0748000000000000 0.4951850000000000 0.0944200000000000
0.0748000000000000 0.4951850000000001 0.5944199999999999
0.0748000000000000 0.9951850000000001 0.0944200000000000
0.0748000000000000 0.9951850000000001 0.5944199999999999
0.4081333333333333 0.4951850000000000 0.0944200000000000
0.4081333333333332 0.4951850000000001 0.5944199999999999
0.4081333333333332 0.9951850000000001 0.0944200000000000
0.4081333333333332 0.9951850000000001 0.5944199999999999
0.7414666666666666 0.4951850000000000 0.0944200000000000
0.7414666666666666 0.4951850000000001 0.5944199999999999
0.7414666666666666 0.9951850000000001 0.0944200000000000
0.7414666666666666 0.9951850000000001 0.5944199999999999
0.0153866666666667 0.0447350000000000 0.0634000000000000
0.0153866666666667 0.0447350000000000 0.5634000000000000
0.0153866666666667 0.5447350000000001 0.0634000000000000
0.0153866666666667 0.5447350000000001 0.5634000000000000
0.3487200000000000 0.0447350000000000 0.0634000000000000
0.3487200000000000 0.0447350000000000 0.5634000000000000
0.3487200000000000 0.5447350000000001 0.0634000000000000
0.3487199999999999 0.5447350000000001 0.5634000000000000
0.6820533333333332 0.0447350000000000 0.0634000000000000
0.6820533333333333 0.0447350000000000 0.5634000000000000
0.6820533333333332 0.5447350000000001 0.0634000000000000
0.6820533333333333 0.5447350000000001 0.5634000000000000
0.0045800000000000 0.1786050000000000 0.2001600000000000
0.0045800000000001 0.1786050000000000 0.7001600000000001
0.0045800000000000 0.6786050000000001 0.2001600000000000
0.0045800000000001 0.6786050000000001 0.7001600000000001
0.3379133333333333 0.1786050000000000 0.2001600000000000
0.3379133333333334 0.1786050000000000 0.7001600000000001
0.3379133333333333 0.6786050000000001 0.2001600000000000
0.3379133333333334 0.6786050000000001 0.7001600000000001
0.6712466666666665 0.1786050000000000 0.2001600000000000
0.6712466666666667 0.1786050000000000 0.7001600000000001
0.6712466666666665 0.6786050000000001 0.2001600000000000
0.6712466666666665 0.6786050000000001 0.7001600000000001
0.0623900000000000 0.2321400000000001 0.2290350000000000
0.0623900000000000 0.2321400000000001 0.7290350000000000
0.0623900000000000 0.7321400000000001 0.2290350000000000
0.0623900000000000 0.7321400000000000 0.7290350000000000
0.3957233333333334 0.2321400000000001 0.2290350000000000
0.3957233333333334 0.2321400000000001 0.7290350000000000
0.3957233333333333 0.7321400000000001 0.2290350000000000
0.3957233333333334 0.7321400000000000 0.7290350000000000
0.7290566666666666 0.2321400000000001 0.2290350000000000
0.7290566666666667 0.2321400000000001 0.7290350000000000
0.7290566666666666 0.7321400000000001 0.2290350000000000
0.7290566666666667 0.7321400000000000 0.7290350000000000
0.2795666666666666 0.1158500000000000 0.2768500000000000
0.2795666666666667 0.1158500000000000 0.7768500000000000
0.2795666666666666 0.6158500000000001 0.2768500000000000
0.2795666666666667 0.6158500000000000 0.7768500000000000
0.6129000000000000 0.1158500000000000 0.2768500000000000
0.6129000000000000 0.1158500000000000 0.7768500000000000
0.6129000000000000 0.6158500000000001 0.2768500000000000
0.6129000000000000 0.6158500000000000 0.7768500000000000
0.9462333333333333 0.1158500000000000 0.2768500000000000
0.9462333333333334 0.1158500000000000 0.7768500000000000
0.9462333333333333 0.6158500000000001 0.2768500000000000
0.9462333333333334 0.6158500000000000 0.7768500000000000
0.3107000000000000 0.1163000000000000 0.2933000000000000
0.3107000000000000 0.1163000000000000 0.7933000000000000
0.3107000000000000 0.6163000000000000 0.2933000000000000
0.3107000000000000 0.6162999999999998 0.7933000000000000
0.6440333333333333 0.1163000000000000 0.2933000000000000
0.6440333333333332 0.1163000000000000 0.7933000000000000
0.6440333333333333 0.6163000000000000 0.2933000000000000
0.6440333333333332 0.6162999999999998 0.7933000000000000
0.9773666666666667 0.1163000000000000 0.2933000000000000
0.9773666666666666 0.1163000000000000 0.7933000000000000
0.9773666666666667 0.6163000000000000 0.2933000000000000
0.9773666666666666 0.6162999999999998 0.7933000000000000
0.2564666666666667 0.0762500000000000 0.2901500000000000
0.2564666666666667 0.0762500000000000 0.7901500000000000
0.2564666666666667 0.5762500000000002 0.2901500000000000
0.2564666666666667 0.5762500000000000 0.7901500000000000
0.5897999999999999 0.0762500000000000 0.2901500000000000
0.5897999999999999 0.0762500000000000 0.7901500000000000
0.5897999999999999 0.5762500000000002 0.2901500000000000
0.5897999999999999 0.5762500000000000 0.7901500000000000
0.9231333333333333 0.0762500000000000 0.2901500000000000
0.9231333333333334 0.0762500000000000 0.7901500000000000
0.9231333333333333 0.5762500000000002 0.2901500000000000
0.9231333333333334 0.5762500000000000 0.7901500000000000
0.2713000000000000 0.0503000000000000 0.3159000000000000
0.2713000000000000 0.0503000000000000 0.8159000000000001
0.2713000000000000 0.5503000000000001 0.3159000000000000
0.2713000000000000 0.5503000000000000 0.8159000000000001
0.6046333333333332 0.0503000000000000 0.3159000000000000
0.6046333333333332 0.0503000000000000 0.8159000000000001
0.6046333333333332 0.5503000000000001 0.3159000000000000
0.6046333333333332 0.5503000000000000 0.8159000000000001
0.9379666666666666 0.0503000000000000 0.3159000000000000
0.9379666666666666 0.0503000000000000 0.8159000000000001
0.9379666666666666 0.5503000000000001 0.3159000000000000
0.9379666666666666 0.5503000000000000 0.8159000000000001
0.2114666666666667 0.0749000000000000 0.2652500000000000
0.2114666666666667 0.0749000000000000 0.7652500000000000
0.2114666666666667 0.5749000000000000 0.2652500000000000
0.2114666666666667 0.5749000000000000 0.7652500000000000
0.5448000000000000 0.0749000000000000 0.2652500000000000
0.5448000000000000 0.0749000000000000 0.7652500000000000
0.5447999999999998 0.5749000000000000 0.2652500000000000
0.5448000000000000 0.5749000000000000 0.7652500000000000
0.8781333333333332 0.0749000000000000 0.2652500000000000
0.8781333333333334 0.0749000000000000 0.7652500000000000
0.8781333333333332 0.5749000000000000 0.2652500000000000
0.8781333333333334 0.5749000000000000 0.7652500000000000
0.1948333333333333 0.0478500000000000 0.2737000000000000
0.1948333333333334 0.0478500000000000 0.7737000000000001
0.1948333333333333 0.5478500000000001 0.2737000000000000
0.1948333333333334 0.5478499999999999 0.7737000000000001
0.5281666666666666 0.0478500000000000 0.2737000000000000
0.5281666666666667 0.0478500000000000 0.7737000000000001
0.5281666666666666 0.5478500000000001 0.2737000000000000
0.5281666666666667 0.5478499999999999 0.7737000000000001
0.8614999999999999 0.0478500000000000 0.2737000000000000
0.8614999999999999 0.0478500000000000 0.7737000000000001
0.8614999999999999 0.5478500000000001 0.2737000000000000
0.8614999999999999 0.5478499999999999 0.7737000000000001
0.1906000000000000 0.1131000000000000 0.2281000000000000
0.1906000000000000 0.1131000000000000 0.7281000000000000
0.1906000000000000 0.6131000000000001 0.2281000000000000
0.1906000000000000 0.6131000000000000 0.7281000000000000
0.5239333333333334 0.1131000000000000 0.2281000000000000
0.5239333333333334 0.1131000000000000 0.7281000000000000
0.5239333333333334 0.6131000000000001 0.2281000000000000
0.5239333333333334 0.6131000000000000 0.7281000000000000
0.8572666666666668 0.1131000000000000 0.2281000000000000
0.8572666666666667 0.1131000000000000 0.7281000000000000
0.8572666666666668 0.6131000000000001 0.2281000000000000
0.8572666666666667 0.6131000000000000 0.7281000000000000
0.2163000000000000 0.1520500000000000 0.2177500000000000
0.2163000000000000 0.1520500000000000 0.7177500000000000
0.2163000000000000 0.6520500000000001 0.2177500000000000
0.2163000000000000 0.6520500000000001 0.7177500000000000
0.5496333333333332 0.1520500000000000 0.2177500000000000
0.5496333333333332 0.1520500000000000 0.7177500000000000
0.5496333333333332 0.6520500000000001 0.2177500000000000
0.5496333333333332 0.6520500000000001 0.7177500000000000
0.8829666666666668 0.1520500000000000 0.2177500000000000
0.8829666666666667 0.1520500000000000 0.7177500000000000
0.8829666666666668 0.6520500000000001 0.2177500000000000
0.8829666666666667 0.6520500000000001 0.7177500000000000
0.2022333333333333 0.1786500000000000 0.1924500000000000
0.2022333333333334 0.1786500000000000 0.6924500000000000
0.2022333333333333 0.6786500000000001 0.1924500000000000
0.2022333333333334 0.6786500000000001 0.6924500000000000
0.5355666666666665 0.1786500000000000 0.1924500000000000
0.5355666666666665 0.1786500000000000 0.6924500000000000
0.5355666666666665 0.6786500000000001 0.1924500000000000
0.5355666666666665 0.6786500000000001 0.6924500000000000
0.8689000000000000 0.1786500000000000 0.1924500000000000
0.8688999999999999 0.1786500000000000 0.6924500000000000
0.8689000000000000 0.6786500000000001 0.1924500000000000
0.8688999999999999 0.6786500000000001 0.6924500000000000
0.1418333333333333 0.1136000000000000 0.2011500000000000
0.1418333333333334 0.1136000000000000 0.7011499999999999
0.1418333333333333 0.6136000000000000 0.2011500000000000
0.1418333333333334 0.6136000000000000 0.7011499999999999
0.4751666666666667 0.1136000000000000 0.2011500000000000
0.4751666666666667 0.1136000000000000 0.7011499999999999
0.4751666666666667 0.6136000000000000 0.2011500000000000
0.4751666666666666 0.6136000000000000 0.7011499999999999
0.8085000000000001 0.1136000000000000 0.2011500000000000
0.8085000000000000 0.1136000000000000 0.7011499999999999
0.8085000000000001 0.6136000000000000 0.2011500000000000
0.8085000000000000 0.6136000000000000 0.7011499999999999
0.1208000000000000 0.0737000000000000 0.1655500000000000
0.1208000000000000 0.0737000000000000 0.6655500000000000
0.1208000000000000 0.5737000000000001 0.1655500000000000
0.1208000000000000 0.5737000000000001 0.6655500000000000
0.4541333333333333 0.0737000000000000 0.1655500000000000
0.4541333333333334 0.0737000000000000 0.6655500000000000
0.4541333333333333 0.5737000000000001 0.1655500000000000
0.4541333333333334 0.5737000000000001 0.6655500000000000
0.7874666666666666 0.0737000000000000 0.1655500000000000
0.7874666666666666 0.0737000000000000 0.6655500000000000
0.7874666666666666 0.5737000000000001 0.1655500000000000
0.7874666666666666 0.5737000000000001 0.6655500000000000
0.1374666666666666 0.0460000000000000 0.1585500000000000
0.1374666666666667 0.0460000000000000 0.6585500000000000
0.1374666666666666 0.5460000000000002 0.1585500000000000
0.1374666666666667 0.5460000000000002 0.6585500000000000
0.4707999999999999 0.0460000000000000 0.1585500000000000
0.4707999999999999 0.0460000000000000 0.6585500000000000
0.4707999999999999 0.5460000000000002 0.1585500000000000
0.4707999999999999 0.5460000000000002 0.6585500000000000
0.8041333333333333 0.0460000000000000 0.1585500000000000
0.8041333333333331 0.0460000000000000 0.6585500000000000
0.8041333333333333 0.5460000000000002 0.1585500000000000
0.8041333333333331 0.5460000000000002 0.6585500000000000
0.0753000000000000 0.0746500000000000 0.1402500000000000
0.0753000000000000 0.0746500000000000 0.6402500000000000
0.0753000000000000 0.5746500000000001 0.1402500000000000
0.0753000000000000 0.5746500000000001 0.6402500000000000
0.4086333333333333 0.0746500000000000 0.1402500000000000
0.4086333333333333 0.0746500000000000 0.6402500000000000
0.4086333333333333 0.5746500000000001 0.1402500000000000
0.4086333333333333 0.5746500000000001 0.6402500000000000
0.7419666666666668 0.0746500000000000 0.1402500000000000
0.7419666666666668 0.0746500000000000 0.6402500000000000
0.7419666666666668 0.5746500000000001 0.1402500000000000
0.7419666666666668 0.5746500000000001 0.6402500000000000
0.0507666666666667 0.1129000000000000 0.1536500000000000
0.0507666666666667 0.1129000000000000 0.6536500000000001
0.0507666666666667 0.6129000000000000 0.1536500000000000
0.0507666666666667 0.6129000000000000 0.6536500000000001
0.3840999999999999 0.1129000000000000 0.1536500000000000
0.3841000000000000 0.1129000000000000 0.6536500000000001
0.3840999999999999 0.6129000000000000 0.1536500000000000
0.3841000000000000 0.6129000000000000 0.6536500000000001
0.7174333333333331 0.1129000000000000 0.1536500000000000
0.7174333333333334 0.1129000000000000 0.6536500000000001
0.7174333333333331 0.6129000000000000 0.1536500000000000
0.7174333333333334 0.6129000000000000 0.6536500000000001
0.0195666666666667 0.1124000000000000 0.1379000000000000
0.0195666666666667 0.1124000000000000 0.6379000000000000
0.0195666666666667 0.6124000000000002 0.1379000000000000
0.0195666666666667 0.6124000000000002 0.6379000000000000
0.3529000000000000 0.1124000000000000 0.1379000000000000
0.3529000000000000 0.1124000000000000 0.6379000000000000
0.3529000000000000 0.6124000000000002 0.1379000000000000
0.3529000000000000 0.6124000000000002 0.6379000000000000
0.6862333333333334 0.1124000000000000 0.1379000000000000
0.6862333333333334 0.1124000000000000 0.6379000000000000
0.6862333333333334 0.6124000000000002 0.1379000000000000
0.6862333333333334 0.6124000000000002 0.6379000000000000
0.0714666666666667 0.1521500000000000 0.1900000000000000
0.0714666666666667 0.1521500000000000 0.6899999999999999
0.0714666666666667 0.6521500000000001 0.1900000000000000
0.0714666666666667 0.6521500000000001 0.6899999999999999
0.4048000000000000 0.1521500000000000 0.1900000000000000
0.4048000000000000 0.1521500000000000 0.6899999999999999
0.4048000000000000 0.6521500000000001 0.1900000000000000
0.4048000000000000 0.6521500000000001 0.6899999999999999
0.7381333333333333 0.1521500000000000 0.1900000000000000
0.7381333333333334 0.1521500000000000 0.6899999999999999
0.7381333333333333 0.6521500000000001 0.1900000000000000
0.7381333333333334 0.6521500000000001 0.6899999999999999
0.1167666666666667 0.1533000000000000 0.2122500000000000
0.1167666666666667 0.1533000000000000 0.7122500000000000
0.1167666666666667 0.6533000000000001 0.2122500000000000
0.1167666666666667 0.6533000000000001 0.7122500000000000
0.4500999999999999 0.1533000000000000 0.2122500000000000
0.4501000000000000 0.1533000000000000 0.7122500000000000
0.4500999999999999 0.6533000000000001 0.2122500000000000
0.4501000000000000 0.6533000000000001 0.7122500000000000
0.7834333333333332 0.1533000000000000 0.2122500000000000
0.7834333333333332 0.1533000000000000 0.7122500000000000
0.7834333333333332 0.6533000000000001 0.2122500000000000
0.7834333333333332 0.6533000000000001 0.7122500000000000
0.1309333333333333 0.1812500000000000 0.2352000000000000
0.1309333333333333 0.1812500000000000 0.7352000000000000
0.1309333333333333 0.6812500000000001 0.2352000000000000
0.1309333333333333 0.6812500000000000 0.7352000000000000
0.4642666666666667 0.1812500000000000 0.2352000000000000
0.4642666666666666 0.1812500000000000 0.7352000000000000
0.4642666666666666 0.6812500000000001 0.2352000000000000
0.4642666666666667 0.6812500000000000 0.7352000000000000
0.7976000000000000 0.1812500000000000 0.2352000000000000
0.7976000000000000 0.1812500000000000 0.7352000000000000
0.7976000000000000 0.6812500000000001 0.2352000000000000
0.7976000000000000 0.6812500000000000 0.7352000000000000
0.0536333333333333 0.0352500000000000 0.0968000000000000
0.0536333333333334 0.0352500000000000 0.5968000000000000
0.0536333333333333 0.5352500000000001 0.0968000000000000
0.0536333333333334 0.5352500000000001 0.5968000000000000
0.3869666666666666 0.0352500000000000 0.0968000000000000
0.3869666666666667 0.0352500000000000 0.5968000000000000
0.3869666666666666 0.5352500000000001 0.0968000000000000
0.3869666666666667 0.5352500000000001 0.5968000000000000
0.7202999999999999 0.0352500000000000 0.0968000000000000
0.7203000000000001 0.0352500000000000 0.5968000000000000
0.7202999999999999 0.5352500000000001 0.0968000000000000
0.7203000000000001 0.5352500000000001 0.5968000000000000
0.0441000000000000 0.1909000000000000 0.2075500000000000
0.0441000000000000 0.1909000000000000 0.7075500000000000
0.0441000000000000 0.6909000000000001 0.2075500000000000
0.0441000000000000 0.6909000000000001 0.7075500000000000
0.3774333333333333 0.1909000000000000 0.2075500000000000
0.3774333333333333 0.1909000000000000 0.7075500000000000
0.3774333333333333 0.6909000000000001 0.2075500000000000
0.3774333333333333 0.6909000000000001 0.7075500000000000
0.7107666666666667 0.1909000000000000 0.2075500000000000
0.7107666666666668 0.1909000000000000 0.7075500000000000
0.7107666666666667 0.6909000000000001 0.2075500000000000
0.7107666666666668 0.6909000000000001 0.7075500000000000
