# Co-MOF-10_CUK-1Co_300mpa
1.000000
 37.9480000000000004   0.0000000000000000         0.0000000000
  0.0000000000000020  33.1281000000000034         0.0000000000
 -6.1631697346261198   0.0000000000000024        32.3207259886
Co Co O O O O N O C C C C H C H C H C H 
18 18 18 18 18 18 18 18 18 18 18 18 18 18 18 18 18 18 18 
Direct
0.2500000000000000 0.0385966666666667 0.2500000000000000
0.2500000000000000 0.0385966666666667 0.5833333333333334
0.2500000000000000 0.0385966666666667 0.9166666666666665
0.2500000000000000 0.3719300000000000 0.2500000000000000
0.2500000000000000 0.3719300000000000 0.5833333333333334
0.2500000000000000 0.3719300000000000 0.9166666666666665
0.2500000000000000 0.7052633333333334 0.2500000000000000
0.2500000000000001 0.7052633333333334 0.5833333333333334
0.2500000000000000 0.7052633333333334 0.9166666666666665
0.7500000000000000 0.0385966666666667 0.2500000000000000
0.7500000000000000 0.0385966666666667 0.5833333333333334
0.7500000000000000 0.0385966666666667 0.9166666666666665
0.7500000000000000 0.3719300000000000 0.2500000000000000
0.7500000000000000 0.3719300000000000 0.5833333333333334
0.7500000000000000 0.3719300000000000 0.9166666666666665
0.7500000000000000 0.7052633333333334 0.2500000000000000
0.7500000000000000 0.7052633333333334 0.5833333333333334
0.7500000000000000 0.7052633333333334 0.9166666666666665
0.4591550000000000 0.1542700000000000 0.1546566666666666
0.4591550000000000 0.1542700000000000 0.4879899999999999
0.4591550000000000 0.1542700000000000 0.8213233333333332
0.4591550000000000 0.4876033333333334 0.1546566666666666
0.4591550000000000 0.4876033333333334 0.4879899999999999
0.4591550000000000 0.4876033333333335 0.8213233333333332
0.4591550000000000 0.8209366666666669 0.1546566666666666
0.4591549999999999 0.8209366666666669 0.4879899999999999
0.4591549999999999 0.8209366666666669 0.8213233333333332
0.9591550000000000 0.1542700000000000 0.1546566666666666
0.9591550000000000 0.1542700000000000 0.4879899999999999
0.9591550000000000 0.1542700000000000 0.8213233333333332
0.9591550000000000 0.4876033333333334 0.1546566666666666
0.9591550000000000 0.4876033333333334 0.4879899999999999
0.9591550000000000 0.4876033333333335 0.8213233333333332
0.9591550000000000 0.8209366666666669 0.1546566666666666
0.9591550000000000 0.8209366666666669 0.4879899999999999
0.9591550000000000 0.8209366666666669 0.8213233333333332
0.4651500000000001 0.1600333333333334 0.2619000000000000
0.4651500000000000 0.1600333333333334 0.5952333333333333
0.4651500000000000 0.1600333333333334 0.9285666666666667
0.4651500000000001 0.4933666666666667 0.2619000000000000
0.4651500000000000 0.4933666666666666 0.5952333333333333
0.4651500000000000 0.4933666666666667 0.9285666666666667
0.4651500000000000 0.8267000000000001 0.2619000000000000
0.4651500000000000 0.8267000000000001 0.5952333333333333
0.4651500000000000 0.8267000000000001 0.9285666666666667
0.9651500000000000 0.1600333333333334 0.2619000000000000
0.9651500000000000 0.1600333333333334 0.5952333333333333
0.9651500000000000 0.1600333333333334 0.9285666666666667
0.9651500000000000 0.4933666666666667 0.2619000000000000
0.9651500000000000 0.4933666666666666 0.5952333333333333
0.9651500000000000 0.4933666666666667 0.9285666666666667
0.9651500000000000 0.8267000000000001 0.2619000000000000
0.9651500000000000 0.8267000000000001 0.5952333333333333
0.9651500000000000 0.8267000000000001 0.9285666666666667
0.4901500000000000 0.2013666666666667 0.1852000000000000
0.4901500000000000 0.2013666666666667 0.5185333333333334
0.4901500000000000 0.2013666666666667 0.8518666666666667
0.4901500000000000 0.5347000000000000 0.1852000000000000
0.4901499999999999 0.5347000000000000 0.5185333333333334
0.4901500000000000 0.5347000000000000 0.8518666666666667
0.4901500000000000 0.8680333333333334 0.1852000000000000
0.4901499999999999 0.8680333333333334 0.5185333333333334
0.4901500000000000 0.8680333333333334 0.8518666666666667
0.9901499999999999 0.2013666666666667 0.1852000000000000
0.9901500000000000 0.2013666666666667 0.5185333333333334
0.9901500000000001 0.2013666666666667 0.8518666666666667
0.9901499999999999 0.5347000000000000 0.1852000000000000
0.9901500000000000 0.5347000000000000 0.5185333333333334
0.9901500000000001 0.5347000000000000 0.8518666666666667
0.9901499999999999 0.8680333333333334 0.1852000000000000
0.9901500000000000 0.8680333333333334 0.5185333333333334
0.9901500000000001 0.8680333333333334 0.8518666666666667
0.4375500000000001 0.1307666666666667 0.2032666666666667
0.4375500000000000 0.1307666666666667 0.5366000000000000
0.4375500000000000 0.1307666666666667 0.8699333333333333
0.4375500000000001 0.4641000000000000 0.2032666666666667
0.4375500000000000 0.4641000000000000 0.5366000000000000
0.4375500000000000 0.4641000000000000 0.8699333333333333
0.4375500000000000 0.7974333333333334 0.2032666666666667
0.4375499999999999 0.7974333333333334 0.5366000000000000
0.4375500000000000 0.7974333333333334 0.8699333333333333
0.9375500000000000 0.1307666666666667 0.2032666666666667
0.9375500000000001 0.1307666666666667 0.5366000000000000
0.9375500000000000 0.1307666666666667 0.8699333333333333
0.9375500000000000 0.4641000000000000 0.2032666666666667
0.9375500000000001 0.4641000000000000 0.5366000000000000
0.9375500000000000 0.4641000000000000 0.8699333333333333
0.9375500000000000 0.7974333333333334 0.2032666666666667
0.9375500000000001 0.7974333333333334 0.5366000000000000
0.9375500000000000 0.7974333333333334 0.8699333333333333
0.2903000000000001 0.0824333333333333 0.2574333333333333
0.2903000000000001 0.0824333333333333 0.5907666666666667
0.2903000000000001 0.0824333333333333 0.9241000000000000
0.2903000000000000 0.4157666666666667 0.2574333333333333
0.2903000000000000 0.4157666666666667 0.5907666666666667
0.2903000000000000 0.4157666666666667 0.9241000000000000
0.2903000000000001 0.7491000000000000 0.2574333333333333
0.2903000000000001 0.7491000000000000 0.5907666666666667
0.2903000000000001 0.7491000000000000 0.9241000000000000
0.7903000000000001 0.0824333333333333 0.2574333333333333
0.7903000000000000 0.0824333333333333 0.5907666666666667
0.7903000000000000 0.0824333333333333 0.9241000000000000
0.7903000000000001 0.4157666666666667 0.2574333333333333
0.7903000000000000 0.4157666666666667 0.5907666666666667
0.7903000000000000 0.4157666666666667 0.9241000000000000
0.7903000000000001 0.7491000000000000 0.2574333333333333
0.7903000000000000 0.7491000000000000 0.5907666666666667
0.7903000000000000 0.7491000000000000 0.9241000000000000
0.4108500000000000 0.1446333333333334 0.2998999999999999
0.4108500000000000 0.1446333333333334 0.6332333333333334
0.4108500000000000 0.1446333333333334 0.9665666666666667
0.4108500000000000 0.4779666666666667 0.2998999999999999
0.4108500000000001 0.4779666666666667 0.6332333333333334
0.4108500000000001 0.4779666666666667 0.9665666666666667
0.4108500000000000 0.8113000000000001 0.2998999999999999
0.4108500000000000 0.8113000000000001 0.6332333333333334
0.4108500000000000 0.8113000000000001 0.9665666666666667
0.9108500000000002 0.1446333333333334 0.2998999999999999
0.9108500000000000 0.1446333333333334 0.6332333333333334
0.9108500000000000 0.1446333333333334 0.9665666666666667
0.9108500000000002 0.4779666666666667 0.2998999999999999
0.9108500000000000 0.4779666666666667 0.6332333333333334
0.9108500000000000 0.4779666666666667 0.9665666666666667
0.9108500000000002 0.8113000000000001 0.2998999999999999
0.9108500000000000 0.8113000000000001 0.6332333333333334
0.9108500000000000 0.8113000000000001 0.9665666666666667
0.3196500000000000 0.0633000000000000 0.2073666666666666
0.3196500000000000 0.0633000000000000 0.5407000000000001
0.3196500000000000 0.0633000000000000 0.8740333333333333
0.3196500000000000 0.3966333333333334 0.2073666666666666
0.3196500000000000 0.3966333333333334 0.5407000000000001
0.3196500000000000 0.3966333333333334 0.8740333333333333
0.3196500000000000 0.7299666666666669 0.2073666666666666
0.3196500000000000 0.7299666666666669 0.5407000000000001
0.3196500000000000 0.7299666666666669 0.8740333333333333
0.8196500000000000 0.0633000000000000 0.2073666666666666
0.8196500000000001 0.0633000000000000 0.5407000000000001
0.8196500000000000 0.0633000000000000 0.8740333333333333
0.8196500000000000 0.3966333333333334 0.2073666666666666
0.8196500000000001 0.3966333333333334 0.5407000000000001
0.8196500000000000 0.3966333333333334 0.8740333333333333
0.8196500000000000 0.7299666666666669 0.2073666666666666
0.8196500000000001 0.7299666666666669 0.5407000000000001
0.8196500000000000 0.7299666666666669 0.8740333333333333
0.4383500000000000 0.1403333333333333 0.2404666666666667
0.4383500000000000 0.1403333333333334 0.5737999999999999
0.4383500000000000 0.1403333333333333 0.9071333333333332
0.4383500000000000 0.4736666666666667 0.2404666666666667
0.4383500000000000 0.4736666666666667 0.5737999999999999
0.4383500000000000 0.4736666666666667 0.9071333333333332
0.4383500000000000 0.8070000000000001 0.2404666666666667
0.4383500000000000 0.8070000000000001 0.5737999999999999
0.4383499999999999 0.8070000000000001 0.9071333333333332
0.9383500000000002 0.1403333333333333 0.2404666666666667
0.9383500000000001 0.1403333333333334 0.5737999999999999
0.9383500000000001 0.1403333333333333 0.9071333333333332
0.9383500000000002 0.4736666666666667 0.2404666666666667
0.9383500000000001 0.4736666666666667 0.5737999999999999
0.9383500000000001 0.4736666666666667 0.9071333333333332
0.9383500000000002 0.8070000000000001 0.2404666666666667
0.9383500000000001 0.8070000000000001 0.5737999999999999
0.9383500000000001 0.8070000000000001 0.9071333333333332
0.3487000000000000 0.1039000000000000 0.2605000000000000
0.3487000000000000 0.1039000000000000 0.5938333333333333
0.3487000000000000 0.1039000000000000 0.9271666666666666
0.3487000000000000 0.4372333333333334 0.2605000000000000
0.3487000000000000 0.4372333333333334 0.5938333333333333
0.3487000000000000 0.4372333333333334 0.9271666666666666
0.3487000000000000 0.7705666666666668 0.2605000000000000
0.3487000000000000 0.7705666666666668 0.5938333333333333
0.3487000000000000 0.7705666666666668 0.9271666666666666
0.8487000000000001 0.1039000000000000 0.2605000000000000
0.8487000000000001 0.1039000000000000 0.5938333333333333
0.8487000000000002 0.1039000000000000 0.9271666666666666
0.8487000000000001 0.4372333333333334 0.2605000000000000
0.8487000000000001 0.4372333333333334 0.5938333333333333
0.8487000000000002 0.4372333333333334 0.9271666666666666
0.8487000000000001 0.7705666666666668 0.2605000000000000
0.8487000000000001 0.7705666666666668 0.5938333333333333
0.8487000000000002 0.7705666666666668 0.9271666666666666
0.4087000000000001 0.1295333333333333 0.2604666666666667
0.4087000000000000 0.1295333333333333 0.5937999999999999
0.4087000000000001 0.1295333333333333 0.9271333333333333
0.4087000000000001 0.4628666666666667 0.2604666666666667
0.4087000000000001 0.4628666666666667 0.5937999999999999
0.4087000000000001 0.4628666666666667 0.9271333333333333
0.4087000000000001 0.7962000000000000 0.2604666666666667
0.4087000000000000 0.7962000000000000 0.5937999999999999
0.4087000000000000 0.7962000000000000 0.9271333333333333
0.9087000000000001 0.1295333333333333 0.2604666666666667
0.9087000000000002 0.1295333333333333 0.5937999999999999
0.9087000000000001 0.1295333333333333 0.9271333333333333
0.9087000000000001 0.4628666666666667 0.2604666666666667
0.9087000000000002 0.4628666666666667 0.5937999999999999
0.9087000000000001 0.4628666666666667 0.9271333333333333
0.9087000000000001 0.7962000000000000 0.2604666666666667
0.9087000000000002 0.7962000000000000 0.5937999999999999
0.9087000000000001 0.7962000000000000 0.9271333333333333
0.3788500000000000 0.1092333333333333 0.2401666666666667
0.3788500000000001 0.1092333333333333 0.5734999999999999
0.3788500000000000 0.1092333333333333 0.9068333333333332
0.3788500000000001 0.4425666666666667 0.2401666666666667
0.3788500000000001 0.4425666666666667 0.5734999999999999
0.3788500000000000 0.4425666666666667 0.9068333333333332
0.3788500000000000 0.7759000000000001 0.2401666666666667
0.3788500000000001 0.7759000000000001 0.5734999999999999
0.3788500000000000 0.7759000000000001 0.9068333333333332
0.8788499999999999 0.1092333333333333 0.2401666666666667
0.8788500000000000 0.1092333333333333 0.5734999999999999
0.8788500000000000 0.1092333333333333 0.9068333333333332
0.8788499999999999 0.4425666666666667 0.2401666666666667
0.8788500000000000 0.4425666666666667 0.5734999999999999
0.8788500000000000 0.4425666666666667 0.9068333333333332
0.8788499999999999 0.7759000000000001 0.2401666666666667
0.8788500000000000 0.7759000000000001 0.5734999999999999
0.8788500000000000 0.7759000000000001 0.9068333333333332
0.3781475000000000 0.0990863333333333 0.2136666666666666
0.3781475000000001 0.0990863333333333 0.5470000000000000
0.3781475000000001 0.0990863333333333 0.8803333333333333
0.3781475000000000 0.4324196666666667 0.2136666666666666
0.3781475000000001 0.4324196666666667 0.5470000000000000
0.3781475000000001 0.4324196666666667 0.8803333333333333
0.3781475000000000 0.7657530000000001 0.2136666666666666
0.3781475000000001 0.7657530000000001 0.5470000000000000
0.3781475000000001 0.7657530000000001 0.8803333333333333
0.8781475000000002 0.0990863333333333 0.2136666666666666
0.8781475000000001 0.0990863333333333 0.5470000000000000
0.8781475000000002 0.0990863333333333 0.8803333333333333
0.8781475000000002 0.4324196666666667 0.2136666666666666
0.8781475000000001 0.4324196666666667 0.5470000000000000
0.8781475000000002 0.4324196666666667 0.8803333333333333
0.8781475000000002 0.7657530000000001 0.2136666666666666
0.8781475000000001 0.7657530000000001 0.5470000000000000
0.8781475000000002 0.7657530000000001 0.8803333333333333
0.3512500000000001 0.1200000000000000 0.2993333333333333
0.3512500000000000 0.1200000000000000 0.6326666666666667
0.3512500000000001 0.1200000000000000 0.9660000000000001
0.3512500000000001 0.4533333333333333 0.2993333333333333
0.3512500000000001 0.4533333333333333 0.6326666666666667
0.3512500000000001 0.4533333333333333 0.9660000000000001
0.3512500000000000 0.7866666666666666 0.2993333333333333
0.3512500000000001 0.7866666666666666 0.6326666666666667
0.3512500000000001 0.7866666666666666 0.9660000000000001
0.8512500000000001 0.1200000000000000 0.2993333333333333
0.8512500000000001 0.1200000000000000 0.6326666666666667
0.8512500000000002 0.1200000000000000 0.9660000000000001
0.8512500000000001 0.4533333333333333 0.2993333333333333
0.8512500000000001 0.4533333333333333 0.6326666666666667
0.8512500000000002 0.4533333333333333 0.9660000000000001
0.8512500000000001 0.7866666666666666 0.2993333333333333
0.8512500000000001 0.7866666666666666 0.6326666666666667
0.8512500000000002 0.7866666666666666 0.9660000000000001
0.3323185000000001 0.1176433333333333 0.3134800000000000
0.3323185000000001 0.1176433333333333 0.6468133333333334
0.3323185000000001 0.1176433333333333 0.9801466666666666
0.3323185000000001 0.4509766666666666 0.3134800000000000
0.3323185000000001 0.4509766666666666 0.6468133333333334
0.3323185000000001 0.4509766666666666 0.9801466666666666
0.3323185000000001 0.7843100000000001 0.3134800000000000
0.3323185000000001 0.7843100000000001 0.6468133333333334
0.3323185000000001 0.7843100000000001 0.9801466666666666
0.8323185000000001 0.1176433333333333 0.3134800000000000
0.8323185000000001 0.1176433333333333 0.6468133333333334
0.8323185000000001 0.1176433333333333 0.9801466666666666
0.8323185000000001 0.4509766666666666 0.3134800000000000
0.8323185000000001 0.4509766666666666 0.6468133333333334
0.8323185000000001 0.4509766666666666 0.9801466666666666
0.8323185000000001 0.7843100000000001 0.3134800000000000
0.8323185000000001 0.7843100000000001 0.6468133333333334
0.8323185000000001 0.7843100000000001 0.9801466666666666
0.3832500000000000 0.1403333333333333 0.3177000000000000
0.3832500000000000 0.1403333333333333 0.6510333333333334
0.3832500000000001 0.1403333333333333 0.9843666666666667
0.3832500000000001 0.4736666666666667 0.3177000000000000
0.3832500000000001 0.4736666666666667 0.6510333333333334
0.3832500000000000 0.4736666666666667 0.9843666666666667
0.3832500000000000 0.8070000000000001 0.3177000000000000
0.3832500000000000 0.8070000000000001 0.6510333333333334
0.3832500000000000 0.8070000000000001 0.9843666666666667
0.8832500000000000 0.1403333333333333 0.3177000000000000
0.8832500000000000 0.1403333333333333 0.6510333333333334
0.8832500000000001 0.1403333333333333 0.9843666666666667
0.8832500000000000 0.4736666666666667 0.3177000000000000
0.8832500000000000 0.4736666666666667 0.6510333333333334
0.8832500000000001 0.4736666666666667 0.9843666666666667
0.8832500000000000 0.8070000000000001 0.3177000000000000
0.8832500000000000 0.8070000000000001 0.6510333333333334
0.8832500000000001 0.8070000000000001 0.9843666666666667
0.3844965000000000 0.1512106666666667 0.0106663333333334
0.3844965000000001 0.1512106666666667 0.3439996666666666
0.3844965000000001 0.1512106666666667 0.6773330000000000
0.3844965000000001 0.4845440000000000 0.0106663333333334
0.3844965000000001 0.4845440000000000 0.3439996666666666
0.3844965000000001 0.4845440000000000 0.6773330000000000
0.3844965000000000 0.8178773333333333 0.0106663333333334
0.3844965000000000 0.8178773333333333 0.3439996666666666
0.3844965000000001 0.8178773333333333 0.6773330000000000
0.8844965000000001 0.1512106666666667 0.0106663333333334
0.8844965000000000 0.1512106666666667 0.3439996666666666
0.8844965000000000 0.1512106666666667 0.6773330000000000
0.8844965000000001 0.4845440000000000 0.0106663333333334
0.8844965000000000 0.4845440000000000 0.3439996666666666
0.8844965000000000 0.4845440000000000 0.6773330000000000
0.8844965000000001 0.8178773333333333 0.0106663333333334
0.8844965000000000 0.8178773333333333 0.3439996666666666
0.8844965000000000 0.8178773333333333 0.6773330000000000
0.3166000000000000 0.0819000000000000 0.2394000000000000
0.3166000000000000 0.0819000000000000 0.5727333333333333
0.3166000000000000 0.0819000000000000 0.9060666666666666
0.3166000000000000 0.4152333333333334 0.2394000000000000
0.3166000000000000 0.4152333333333334 0.5727333333333333
0.3166000000000000 0.4152333333333334 0.9060666666666666
0.3166000000000000 0.7485666666666667 0.2394000000000000
0.3166000000000000 0.7485666666666667 0.5727333333333333
0.3166000000000000 0.7485666666666667 0.9060666666666666
0.8166000000000001 0.0819000000000000 0.2394000000000000
0.8166000000000000 0.0819000000000000 0.5727333333333333
0.8166000000000000 0.0819000000000000 0.9060666666666666
0.8166000000000001 0.4152333333333334 0.2394000000000000
0.8166000000000000 0.4152333333333334 0.5727333333333333
0.8166000000000000 0.4152333333333334 0.9060666666666666
0.8166000000000001 0.7485666666666667 0.2394000000000000
0.8166000000000000 0.7485666666666667 0.5727333333333333
0.8166000000000000 0.7485666666666667 0.9060666666666666
0.4805000000000000 0.2236666666666667 0.1680000000000000
0.4805000000000000 0.2236666666666667 0.5013333333333333
0.4804999999999999 0.2236666666666667 0.8346666666666666
0.4804999999999999 0.5570000000000002 0.1680000000000000
0.4804999999999999 0.5570000000000002 0.5013333333333333
0.4804999999999999 0.5570000000000002 0.8346666666666666
0.4805000000000000 0.8903333333333334 0.1680000000000000
0.4805000000000000 0.8903333333333334 0.5013333333333333
0.4805000000000000 0.8903333333333334 0.8346666666666666
0.9805000000000001 0.2236666666666667 0.1680000000000000
0.9804999999999999 0.2236666666666667 0.5013333333333333
0.9805000000000000 0.2236666666666667 0.8346666666666666
0.9805000000000001 0.5570000000000002 0.1680000000000000
0.9804999999999999 0.5570000000000002 0.5013333333333333
0.9805000000000000 0.5570000000000002 0.8346666666666666
0.9805000000000001 0.8903333333333334 0.1680000000000000
0.9804999999999999 0.8903333333333334 0.5013333333333333
0.9805000000000000 0.8903333333333334 0.8346666666666666
