# cnIm025_mIm075__open
1.000000
 34.1420000000000030   0.0000000000000000         0.0000000000
  0.0000000000000021  34.1420000000000030         0.0000000000
  0.0000000000000021   0.0000000000000021        34.1420000000
C C C C C C C C C C C C C C C C C C C C C C C C C C C C C C C C C C C C C C C C C C C C C C C C C C C C C C C C C C C C C C C C C C C C C C C C C C C C C C C C C C C C C C C C C C N N N N N N N N N N N N N N N N N N N N N N N N N N N N N N N N N N N N N N N N N N N N N N N N Zn Zn Zn Zn Zn Zn Zn Zn Zn Zn Zn Zn H H H H H H H H H H H H H H H H H H H H H H H H H H H H H H H H H H H H H H H H H H H H H H H H H H H H H H H H H H H H H H H H H H H H H H H H H H H H H H H H H H H H H H H H H H H H H H H H H H H H H H N C N C N C N C N C N C 
8 8 8 8 8 8 8 8 8 8 8 8 8 8 8 8 8 8 8 8 8 8 8 8 8 8 8 8 8 8 8 8 8 8 8 8 8 8 8 8 8 8 8 8 8 8 8 8 8 8 8 8 8 8 8 8 8 8 8 8 8 8 8 8 8 8 8 8 8 8 8 8 8 8 8 8 8 8 8 8 8 8 8 8 8 8 8 8 8 8 8 8 8 8 8 8 8 8 8 8 8 8 8 8 8 8 8 8 8 8 8 8 8 8 8 8 8 8 8 8 8 8 8 8 8 8 8 8 8 8 8 8 8 8 8 8 8 8 8 8 8 8 8 8 8 8 8 8 8 8 8 8 8 8 8 8 8 8 8 8 8 8 8 8 8 8 8 8 8 8 8 8 8 8 8 8 8 8 8 8 8 8 8 8 8 8 8 8 8 8 8 8 8 8 8 8 8 8 8 8 8 8 8 8 8 8 8 8 8 8 8 8 8 8 8 8 8 8 8 8 8 8 8 8 8 8 8 8 8 8 8 8 8 8 8 8 8 8 8 8 8 8 8 8 8 8 8 8 8 8 8 8 8 8 8 8 8 8 8 8 8 8 8 8 
Direct
0.1823500000000000 0.0055000000000000 0.3176500000000000
0.1823500000000000 0.0055000000000000 0.8176500000000000
0.1823500000000000 0.5054999999999999 0.3176500000000000
0.1823500000000000 0.5054999999999999 0.8176500000000000
0.6823500000000000 0.0055000000000000 0.3176500000000000
0.6823500000000000 0.0055000000000000 0.8176500000000000
0.6823500000000000 0.5054999999999999 0.3176500000000000
0.6823500000000000 0.5054999999999999 0.8176500000000000
0.4323500000000000 0.2555000000000000 0.0676500000000000
0.4323500000000000 0.2555000000000000 0.5676500000000000
0.4323500000000000 0.7555000000000002 0.0676500000000000
0.4323500000000000 0.7555000000000002 0.5676500000000000
0.9323500000000001 0.2555000000000000 0.0676500000000000
0.9323500000000001 0.2555000000000000 0.5676500000000000
0.9323500000000001 0.7555000000000002 0.0676500000000000
0.9323500000000001 0.7555000000000002 0.5676500000000000
0.0055000000000000 0.3176500000000000 0.1823500000000000
0.0055000000000000 0.3176500000000000 0.6823500000000000
0.0055000000000000 0.8176500000000000 0.1823500000000000
0.0055000000000000 0.8176500000000000 0.6823500000000000
0.5054999999999999 0.3176500000000000 0.1823500000000000
0.5054999999999999 0.3176500000000000 0.6823500000000000
0.5054999999999999 0.8176500000000000 0.1823500000000000
0.5054999999999999 0.8176500000000000 0.6823500000000000
0.2555000000000001 0.0676500000000000 0.4323500000000000
0.2555000000000000 0.0676500000000000 0.9323500000000001
0.2555000000000001 0.5676500000000000 0.4323500000000000
0.2555000000000000 0.5676500000000000 0.9323500000000001
0.7555000000000002 0.0676500000000000 0.4323500000000000
0.7555000000000001 0.0676500000000000 0.9323500000000001
0.7555000000000002 0.5676500000000000 0.4323500000000000
0.7555000000000001 0.5676500000000000 0.9323500000000001
0.3176500000000000 0.1823500000000000 0.0055000000000000
0.3176500000000000 0.1823500000000000 0.5054999999999999
0.3176500000000000 0.6823500000000000 0.0055000000000000
0.3176500000000000 0.6823500000000000 0.5054999999999999
0.8176500000000000 0.1823500000000000 0.0055000000000000
0.8176500000000000 0.1823500000000000 0.5054999999999999
0.8176500000000000 0.6823500000000000 0.0055000000000000
0.8176500000000000 0.6823500000000000 0.5054999999999999
0.0676500000000000 0.4323500000000000 0.2555000000000000
0.0676500000000000 0.4323500000000000 0.7555000000000002
0.0676500000000000 0.9323500000000001 0.2555000000000000
0.0676500000000000 0.9323500000000001 0.7555000000000002
0.5676500000000000 0.4323500000000000 0.2555000000000000
0.5676500000000000 0.4323500000000000 0.7555000000000002
0.5676500000000000 0.9323500000000001 0.2555000000000000
0.5676500000000000 0.9323500000000001 0.7555000000000002
0.3176500000000000 0.4945000000000000 0.3176500000000000
0.3176500000000000 0.4944999999999999 0.8176500000000000
0.3176500000000000 0.9945000000000001 0.3176500000000000
0.3176500000000000 0.9945000000000001 0.8176500000000000
0.8176500000000000 0.4945000000000000 0.3176500000000000
0.8176500000000000 0.4944999999999999 0.8176500000000000
0.8176500000000000 0.9945000000000001 0.3176500000000000
0.8176500000000000 0.9945000000000001 0.8176500000000000
0.0676500000000000 0.2445000000000000 0.0676500000000000
0.0676500000000000 0.2445000000000001 0.5676500000000000
0.0676500000000000 0.7445000000000001 0.0676500000000000
0.0676500000000000 0.7445000000000001 0.5676500000000000
0.5676500000000000 0.2445000000000000 0.0676500000000000
0.5676500000000000 0.2445000000000001 0.5676500000000000
0.5676500000000000 0.7445000000000001 0.0676500000000000
0.5676500000000000 0.7445000000000001 0.5676500000000000
0.1823500000000000 0.1823500000000000 0.4945000000000000
0.1823500000000000 0.1823500000000000 0.9945000000000001
0.1823500000000000 0.6823500000000000 0.4945000000000000
0.1823500000000000 0.6823500000000000 0.9945000000000001
0.6823500000000000 0.1823500000000000 0.4945000000000000
0.6823500000000000 0.1823500000000000 0.9945000000000001
0.6823500000000000 0.6823500000000000 0.4945000000000000
0.6823500000000000 0.6823500000000000 0.9945000000000001
0.4323500000000001 0.4323500000000000 0.2445000000000000
0.4323500000000001 0.4323500000000000 0.7445000000000001
0.4323500000000000 0.9323500000000001 0.2445000000000000
0.4323500000000000 0.9323500000000001 0.7445000000000001
0.9323500000000001 0.4323500000000000 0.2445000000000000
0.9323500000000001 0.4323500000000000 0.7445000000000001
0.9323500000000001 0.9323500000000001 0.2445000000000000
0.9323500000000001 0.9323500000000001 0.7445000000000001
0.3176500000000000 0.0055000000000000 0.1823500000000000
0.3176500000000000 0.0055000000000000 0.6823500000000000
0.3176500000000000 0.5054999999999999 0.1823500000000000
0.3176500000000000 0.5054999999999999 0.6823500000000000
0.8176500000000000 0.0055000000000000 0.1823500000000000
0.8176500000000000 0.0055000000000000 0.6823500000000000
0.8176500000000000 0.5054999999999999 0.1823500000000000
0.8176500000000000 0.5054999999999999 0.6823500000000000
0.0676500000000000 0.2555000000000001 0.4323500000000000
0.0676500000000000 0.2555000000000000 0.9323500000000001
0.0676500000000000 0.7555000000000002 0.4323500000000000
0.0676500000000000 0.7555000000000001 0.9323500000000001
0.5676500000000000 0.2555000000000001 0.4323500000000000
0.5676500000000000 0.2555000000000000 0.9323500000000001
0.5676500000000000 0.7555000000000002 0.4323500000000000
0.5676500000000000 0.7555000000000001 0.9323500000000001
0.4945000000000000 0.1823500000000000 0.1823500000000000
0.4944999999999999 0.1823500000000000 0.6823500000000000
0.4944999999999999 0.6823500000000000 0.1823500000000000
0.4944999999999999 0.6823500000000000 0.6823500000000000
0.9945000000000001 0.1823500000000000 0.1823500000000000
0.9945000000000001 0.1823500000000000 0.6823500000000000
0.9945000000000001 0.6823500000000000 0.1823500000000000
0.9945000000000001 0.6823500000000000 0.6823500000000000
0.2445000000000001 0.4323500000000001 0.4323500000000000
0.2445000000000001 0.4323500000000000 0.9323500000000001
0.2445000000000001 0.9323500000000001 0.4323500000000000
0.2445000000000000 0.9323500000000001 0.9323500000000001
0.7445000000000001 0.4323500000000001 0.4323500000000000
0.7445000000000001 0.4323500000000000 0.9323500000000001
0.7445000000000001 0.9323500000000001 0.4323500000000000
0.7445000000000001 0.9323500000000001 0.9323500000000001
0.1823500000000000 0.3176500000000000 0.0055000000000000
0.1823500000000000 0.3176500000000000 0.5054999999999999
0.1823500000000000 0.8176500000000000 0.0055000000000000
0.1823500000000000 0.8176500000000000 0.5054999999999999
0.6823500000000000 0.3176500000000000 0.0055000000000000
0.6823500000000000 0.3176500000000000 0.5054999999999999
0.6823500000000000 0.8176500000000000 0.0055000000000000
0.6823500000000000 0.8176500000000000 0.5054999999999999
0.4323500000000000 0.0676500000000000 0.2555000000000000
0.4323500000000000 0.0676500000000000 0.7555000000000002
0.4323500000000000 0.5676500000000000 0.2555000000000000
0.4323500000000000 0.5676500000000000 0.7555000000000002
0.9323500000000001 0.0676500000000000 0.2555000000000000
0.9323500000000001 0.0676500000000000 0.7555000000000002
0.9323500000000001 0.5676500000000000 0.2555000000000000
0.9323500000000001 0.5676500000000000 0.7555000000000002
0.3176500000000000 0.3176500000000000 0.4945000000000000
0.3176500000000000 0.3176500000000000 0.9945000000000001
0.3176500000000000 0.8176500000000000 0.4945000000000000
0.3176500000000000 0.8176500000000000 0.9945000000000001
0.8176500000000000 0.3176500000000000 0.4945000000000000
0.8176500000000000 0.3176500000000000 0.9945000000000001
0.8176500000000000 0.8176500000000000 0.4945000000000000
0.8176500000000000 0.8176500000000000 0.9945000000000001
0.0676500000000000 0.0676500000000000 0.2445000000000000
0.0676500000000000 0.0676500000000000 0.7445000000000001
0.0676500000000000 0.5676500000000000 0.2445000000000000
0.0676500000000000 0.5676500000000000 0.7445000000000001
0.5676500000000000 0.0676500000000000 0.2445000000000000
0.5676500000000000 0.0676500000000000 0.7445000000000001
0.5676500000000000 0.5676500000000000 0.2445000000000000
0.5676500000000000 0.5676500000000000 0.7445000000000001
0.4945000000000000 0.3176500000000000 0.3176500000000000
0.4944999999999999 0.3176500000000000 0.8176500000000000
0.4944999999999999 0.8176500000000000 0.3176500000000000
0.4944999999999999 0.8176500000000000 0.8176500000000000
0.9945000000000001 0.3176500000000000 0.3176500000000000
0.9945000000000001 0.3176500000000000 0.8176500000000000
0.9945000000000001 0.8176500000000000 0.3176500000000000
0.9945000000000001 0.8176500000000000 0.8176500000000000
0.2445000000000000 0.0676500000000000 0.0676500000000000
0.2445000000000001 0.0676500000000000 0.5676500000000000
0.2445000000000001 0.5676500000000000 0.0676500000000000
0.2445000000000001 0.5676500000000000 0.5676500000000000
0.7445000000000001 0.0676500000000000 0.0676500000000000
0.7445000000000001 0.0676500000000000 0.5676500000000000
0.7445000000000001 0.5676500000000000 0.0676500000000000
0.7445000000000001 0.5676500000000000 0.5676500000000000
0.0055000000000000 0.1823500000000000 0.3176500000000000
0.0055000000000000 0.1823500000000000 0.8176500000000000
0.0055000000000000 0.6823500000000000 0.3176500000000000
0.0055000000000000 0.6823500000000000 0.8176500000000000
0.5054999999999999 0.1823500000000000 0.3176500000000000
0.5054999999999999 0.1823500000000000 0.8176500000000000
0.5054999999999999 0.6823500000000000 0.3176500000000000
0.5054999999999999 0.6823500000000000 0.8176500000000000
0.2555000000000001 0.4323500000000000 0.0676500000000000
0.2555000000000001 0.4323500000000000 0.5676500000000000
0.2555000000000000 0.9323500000000001 0.0676500000000000
0.2555000000000000 0.9323500000000001 0.5676500000000000
0.7555000000000002 0.4323500000000000 0.0676500000000000
0.7555000000000002 0.4323500000000000 0.5676500000000000
0.7555000000000001 0.9323500000000001 0.0676500000000000
0.7555000000000001 0.9323500000000001 0.5676500000000000
0.1823500000000000 0.4945000000000000 0.1823500000000000
0.1823500000000000 0.4944999999999999 0.6823500000000000
0.1823500000000000 0.9945000000000001 0.1823500000000000
0.1823500000000000 0.9945000000000001 0.6823500000000000
0.6823500000000000 0.4945000000000000 0.1823500000000000
0.6823500000000000 0.4944999999999999 0.6823500000000000
0.6823500000000000 0.9945000000000001 0.1823500000000000
0.6823500000000000 0.9945000000000001 0.6823500000000000
0.4323500000000001 0.2445000000000001 0.4323500000000000
0.4323500000000000 0.2445000000000000 0.9323500000000001
0.4323500000000001 0.7445000000000001 0.4323500000000000
0.4323500000000000 0.7445000000000001 0.9323500000000001
0.9323500000000001 0.2445000000000001 0.4323500000000000
0.9323500000000001 0.2445000000000000 0.9323500000000001
0.9323500000000001 0.7445000000000001 0.4323500000000000
0.9323500000000001 0.7445000000000001 0.9323500000000001
0.1972000000000000 0.4457500000000000 0.3303500000000000
0.1972000000000000 0.4457500000000000 0.8303500000000000
0.1972000000000000 0.9457500000000000 0.3303500000000000
0.1972000000000000 0.9457500000000000 0.8303500000000000
0.6972000000000000 0.4457500000000000 0.3303500000000000
0.6972000000000000 0.4457500000000000 0.8303500000000000
0.6972000000000000 0.9457500000000000 0.3303500000000000
0.6972000000000000 0.9457500000000000 0.8303500000000000
0.4472000000000001 0.1957500000000000 0.0803499999999999
0.4472000000000001 0.1957500000000000 0.5803499999999999
0.4472000000000001 0.6957500000000001 0.0803499999999999
0.4472000000000001 0.6957500000000001 0.5803499999999999
0.9472000000000000 0.1957500000000000 0.0803499999999999
0.9472000000000000 0.1957500000000000 0.5803499999999999
0.9472000000000000 0.6957500000000001 0.0803499999999999
0.9472000000000000 0.6957500000000001 0.5803499999999999
0.4457500000000000 0.3303500000000000 0.1972000000000000
0.4457500000000000 0.3303500000000000 0.6972000000000000
0.4457500000000000 0.8303500000000000 0.1972000000000000
0.4457500000000000 0.8303500000000000 0.6972000000000000
0.9457500000000000 0.3303500000000000 0.1972000000000000
0.9457500000000000 0.3303500000000000 0.6972000000000000
0.9457500000000000 0.8303500000000000 0.1972000000000000
0.9457500000000000 0.8303500000000000 0.6972000000000000
0.1957500000000000 0.0803499999999999 0.4472000000000001
0.1957500000000000 0.0803499999999999 0.9472000000000000
0.1957500000000000 0.5803499999999999 0.4472000000000001
0.1957500000000000 0.5803499999999999 0.9472000000000000
0.6957500000000001 0.0803499999999999 0.4472000000000001
0.6957500000000000 0.0803499999999999 0.9472000000000000
0.6957500000000001 0.5803499999999999 0.4472000000000001
0.6957500000000000 0.5803499999999999 0.9472000000000000
0.3303500000000000 0.1972000000000000 0.4457500000000000
0.3303500000000000 0.1972000000000000 0.9457500000000000
0.3303500000000000 0.6972000000000000 0.4457500000000000
0.3303500000000000 0.6972000000000000 0.9457500000000000
0.8303500000000000 0.1972000000000000 0.4457500000000000
0.8303500000000000 0.1972000000000000 0.9457500000000000
0.8303500000000000 0.6972000000000000 0.4457500000000000
0.8303500000000000 0.6972000000000000 0.9457500000000000
0.0803499999999999 0.4472000000000001 0.1957500000000000
0.0803499999999999 0.4472000000000001 0.6957500000000001
0.0803499999999999 0.9472000000000000 0.1957500000000000
0.0803499999999999 0.9472000000000000 0.6957500000000001
0.5803499999999999 0.4472000000000001 0.1957500000000000
0.5803499999999999 0.4472000000000001 0.6957500000000001
0.5803499999999999 0.9472000000000000 0.1957500000000000
0.5803499999999999 0.9472000000000000 0.6957500000000001
0.4457500000000000 0.3028000000000000 0.1696500000000000
0.4457500000000000 0.3028000000000000 0.6696500000000001
0.4457500000000000 0.8028000000000001 0.1696500000000000
0.4457500000000000 0.8028000000000001 0.6696500000000001
0.9457500000000000 0.3028000000000000 0.1696500000000000
0.9457500000000000 0.3028000000000000 0.6696500000000001
0.9457500000000000 0.8028000000000001 0.1696500000000000
0.9457500000000000 0.8028000000000001 0.6696500000000001
0.1957500000000000 0.0528000000000000 0.4196500000000000
0.1957500000000000 0.0528000000000000 0.9196500000000001
0.1957500000000000 0.5528000000000000 0.4196500000000000
0.1957500000000000 0.5528000000000000 0.9196500000000001
0.6957500000000001 0.0528000000000000 0.4196500000000000
0.6957500000000000 0.0528000000000000 0.9196500000000001
0.6957500000000001 0.5528000000000000 0.4196500000000000
0.6957500000000000 0.5528000000000000 0.9196500000000001
0.3303500000000000 0.0542500000000000 0.3028000000000000
0.3303500000000000 0.0542500000000000 0.8028000000000001
0.3303500000000000 0.5542500000000000 0.3028000000000000
0.3303500000000000 0.5542500000000000 0.8028000000000001
0.8303500000000000 0.0542500000000000 0.3028000000000000
0.8303500000000000 0.0542500000000000 0.8028000000000001
0.8303500000000000 0.5542500000000000 0.3028000000000000
0.8303500000000000 0.5542500000000000 0.8028000000000001
0.0803499999999999 0.3042500000000002 0.0528000000000000
0.0803499999999999 0.3042500000000002 0.5528000000000000
0.0803499999999999 0.8042500000000001 0.0528000000000000
0.0803499999999999 0.8042500000000001 0.5528000000000000
0.5803499999999999 0.3042500000000002 0.0528000000000000
0.5803499999999999 0.3042500000000002 0.5528000000000000
0.5803499999999999 0.8042500000000001 0.0528000000000000
0.5803499999999999 0.8042500000000001 0.5528000000000000
0.1972000000000000 0.1696500000000000 0.0542500000000000
0.1972000000000000 0.1696500000000000 0.5542500000000000
0.1972000000000000 0.6696500000000001 0.0542500000000000
0.1972000000000000 0.6696500000000001 0.5542500000000000
0.6972000000000000 0.1696500000000000 0.0542500000000000
0.6972000000000000 0.1696500000000000 0.5542500000000000
0.6972000000000000 0.6696500000000001 0.0542500000000000
0.6972000000000000 0.6696500000000001 0.5542500000000000
0.4472000000000001 0.4196500000000000 0.3042500000000002
0.4472000000000001 0.4196500000000000 0.8042500000000001
0.4472000000000001 0.9196500000000001 0.3042500000000002
0.4472000000000001 0.9196500000000001 0.8042500000000001
0.9472000000000000 0.4196500000000000 0.3042500000000002
0.9472000000000000 0.4196500000000000 0.8042500000000001
0.9471999999999999 0.9196500000000001 0.3042500000000002
0.9471999999999999 0.9196500000000001 0.8042500000000001
0.3028000000000000 0.0542500000000000 0.3303500000000000
0.3028000000000000 0.0542500000000000 0.8303500000000000
0.3028000000000000 0.5542500000000000 0.3303500000000000
0.3028000000000000 0.5542500000000000 0.8303500000000000
0.8028000000000001 0.0542500000000000 0.3303500000000000
0.8028000000000001 0.0542500000000000 0.8303500000000000
0.8028000000000001 0.5542500000000000 0.3303500000000000
0.8028000000000001 0.5542500000000000 0.8303500000000000
0.0528000000000000 0.3042500000000002 0.0803499999999999
0.0528000000000000 0.3042500000000002 0.5803499999999999
0.0528000000000000 0.8042500000000001 0.0803499999999999
0.0528000000000000 0.8042500000000001 0.5803499999999999
0.5528000000000000 0.3042500000000002 0.0803499999999999
0.5528000000000000 0.3042500000000002 0.5803499999999999
0.5528000000000000 0.8042500000000001 0.0803499999999999
0.5528000000000000 0.8042500000000001 0.5803499999999999
0.1696500000000000 0.1972000000000000 0.0542500000000000
0.1696500000000000 0.1972000000000000 0.5542500000000000
0.1696500000000000 0.6972000000000000 0.0542500000000000
0.1696500000000000 0.6972000000000000 0.5542500000000000
0.6696500000000001 0.1972000000000000 0.0542500000000000
0.6696500000000001 0.1972000000000000 0.5542500000000000
0.6696500000000001 0.6972000000000000 0.0542500000000000
0.6696500000000001 0.6972000000000000 0.5542500000000000
0.4196500000000001 0.4472000000000001 0.3042500000000002
0.4196500000000001 0.4472000000000001 0.8042500000000001
0.4196500000000000 0.9472000000000000 0.3042500000000002
0.4196500000000000 0.9472000000000000 0.8042500000000001
0.9196500000000001 0.4472000000000001 0.3042500000000002
0.9196500000000001 0.4472000000000001 0.8042500000000001
0.9196500000000001 0.9472000000000000 0.3042500000000002
0.9196500000000001 0.9472000000000000 0.8042500000000001
0.3028000000000001 0.4457500000000000 0.1696500000000000
0.3028000000000001 0.4457500000000000 0.6696500000000001
0.3028000000000000 0.9457500000000000 0.1696500000000000
0.3028000000000000 0.9457500000000000 0.6696500000000001
0.8028000000000001 0.4457500000000000 0.1696500000000000
0.8028000000000001 0.4457500000000000 0.6696500000000001
0.8028000000000001 0.9457500000000000 0.1696500000000000
0.8028000000000001 0.9457500000000000 0.6696500000000001
0.0528000000000000 0.1957500000000000 0.4196500000000000
0.0528000000000000 0.1957500000000000 0.9196500000000001
0.0528000000000000 0.6957500000000001 0.4196500000000000
0.0528000000000000 0.6957500000000000 0.9196500000000001
0.5528000000000000 0.1957500000000000 0.4196500000000000
0.5528000000000000 0.1957500000000000 0.9196500000000001
0.5528000000000000 0.6957500000000001 0.4196500000000000
0.5528000000000000 0.6957500000000000 0.9196500000000001
0.0542500000000000 0.1696500000000000 0.1972000000000000
0.0542500000000000 0.1696500000000000 0.6972000000000000
0.0542500000000000 0.6696500000000001 0.1972000000000000
0.0542500000000000 0.6696500000000001 0.6972000000000000
0.5542500000000000 0.1696500000000000 0.1972000000000000
0.5542500000000000 0.1696500000000000 0.6972000000000000
0.5542500000000000 0.6696500000000001 0.1972000000000000
0.5542500000000000 0.6696500000000001 0.6972000000000000
0.3042500000000002 0.4196500000000001 0.4472000000000001
0.3042500000000002 0.4196500000000000 0.9472000000000000
0.3042500000000002 0.9196500000000001 0.4472000000000001
0.3042500000000002 0.9196500000000001 0.9472000000000000
0.8042500000000001 0.4196500000000001 0.4472000000000001
0.8042500000000001 0.4196500000000000 0.9472000000000000
0.8042500000000001 0.9196500000000001 0.4472000000000001
0.8042500000000001 0.9196500000000001 0.9472000000000000
0.1696500000000000 0.3028000000000001 0.4457500000000000
0.1696500000000000 0.3028000000000000 0.9457500000000000
0.1696500000000000 0.8028000000000001 0.4457500000000000
0.1696500000000000 0.8028000000000001 0.9457500000000000
0.6696500000000001 0.3028000000000001 0.4457500000000000
0.6696500000000001 0.3028000000000000 0.9457500000000000
0.6696500000000001 0.8028000000000001 0.4457500000000000
0.6696500000000001 0.8028000000000001 0.9457500000000000
0.4196500000000000 0.0528000000000000 0.1957500000000000
0.4196500000000000 0.0528000000000000 0.6957500000000001
0.4196500000000000 0.5528000000000000 0.1957500000000000
0.4196500000000000 0.5528000000000000 0.6957500000000001
0.9196500000000001 0.0528000000000000 0.1957500000000000
0.9196500000000001 0.0528000000000000 0.6957500000000001
0.9196500000000001 0.5528000000000000 0.1957500000000000
0.9196500000000001 0.5528000000000000 0.6957500000000001
0.0542500000000000 0.1972000000000000 0.1696500000000000
0.0542500000000000 0.1972000000000000 0.6696500000000001
0.0542500000000000 0.6972000000000000 0.1696500000000000
0.0542500000000000 0.6972000000000000 0.6696500000000001
0.5542500000000000 0.1972000000000000 0.1696500000000000
0.5542500000000000 0.1972000000000000 0.6696500000000001
0.5542500000000000 0.6972000000000000 0.1696500000000000
0.5542500000000000 0.6972000000000000 0.6696500000000001
0.3042500000000002 0.4472000000000001 0.4196500000000000
0.3042500000000002 0.4472000000000001 0.9196500000000001
0.3042500000000002 0.9472000000000000 0.4196500000000000
0.3042500000000002 0.9471999999999999 0.9196500000000001
0.8042500000000001 0.4472000000000001 0.4196500000000000
0.8042500000000001 0.4472000000000001 0.9196500000000001
0.8042500000000001 0.9472000000000000 0.4196500000000000
0.8042500000000001 0.9471999999999999 0.9196500000000001
0.1696500000000000 0.4457500000000000 0.3028000000000000
0.1696500000000000 0.4457500000000000 0.8028000000000001
0.1696500000000000 0.9457500000000000 0.3028000000000000
0.1696500000000000 0.9457500000000000 0.8028000000000001
0.6696500000000001 0.4457500000000000 0.3028000000000000
0.6696500000000001 0.4457500000000000 0.8028000000000001
0.6696500000000001 0.9457500000000000 0.3028000000000000
0.6696500000000001 0.9457500000000000 0.8028000000000001
0.4196500000000000 0.1957500000000000 0.0528000000000000
0.4196500000000000 0.1957500000000000 0.5528000000000000
0.4196500000000000 0.6957500000000001 0.0528000000000000
0.4196500000000000 0.6957500000000001 0.5528000000000000
0.9196500000000001 0.1957500000000000 0.0528000000000000
0.9196500000000001 0.1957500000000000 0.5528000000000000
0.9196500000000001 0.6957500000000001 0.0528000000000000
0.9196500000000001 0.6957500000000001 0.5528000000000000
0.3028000000000000 0.3303500000000000 0.0542500000000000
0.3028000000000000 0.3303500000000000 0.5542500000000000
0.3028000000000000 0.8303500000000000 0.0542500000000000
0.3028000000000000 0.8303500000000000 0.5542500000000000
0.8028000000000001 0.3303500000000000 0.0542500000000000
0.8028000000000001 0.3303500000000000 0.5542500000000000
0.8028000000000001 0.8303500000000000 0.0542500000000000
0.8028000000000001 0.8303500000000000 0.5542500000000000
0.0528000000000000 0.0803499999999999 0.3042500000000002
0.0528000000000000 0.0803499999999999 0.8042500000000001
0.0528000000000000 0.5803499999999999 0.3042500000000002
0.0528000000000000 0.5803499999999999 0.8042500000000001
0.5528000000000000 0.0803499999999999 0.3042500000000002
0.5528000000000000 0.0803499999999999 0.8042500000000001
0.5528000000000000 0.5803499999999999 0.3042500000000002
0.5528000000000000 0.5803499999999999 0.8042500000000001
0.0542500000000000 0.3303500000000000 0.3028000000000000
0.0542500000000000 0.3303500000000000 0.8028000000000001
0.0542500000000000 0.8303500000000000 0.3028000000000000
0.0542500000000000 0.8303500000000000 0.8028000000000001
0.5542500000000000 0.3303500000000000 0.3028000000000000
0.5542500000000000 0.3303500000000000 0.8028000000000001
0.5542500000000000 0.8303500000000000 0.3028000000000000
0.5542500000000000 0.8303500000000000 0.8028000000000001
0.3042500000000002 0.0803499999999999 0.0528000000000000
0.3042500000000002 0.0803499999999999 0.5528000000000000
0.3042500000000002 0.5803499999999999 0.0528000000000000
0.3042500000000002 0.5803499999999999 0.5528000000000000
0.8042500000000001 0.0803499999999999 0.0528000000000000
0.8042500000000001 0.0803499999999999 0.5528000000000000
0.8042500000000001 0.5803499999999999 0.0528000000000000
0.8042500000000001 0.5803499999999999 0.5528000000000000
0.3303500000000000 0.4457500000000000 0.1972000000000000
0.3303500000000000 0.4457500000000000 0.6972000000000000
0.3303500000000000 0.9457500000000000 0.1972000000000000
0.3303500000000000 0.9457500000000000 0.6972000000000000
0.8303500000000000 0.4457500000000000 0.1972000000000000
0.8303500000000000 0.4457500000000000 0.6972000000000000
0.8303500000000000 0.9457500000000000 0.1972000000000000
0.8303500000000000 0.9457500000000000 0.6972000000000000
0.0803499999999999 0.1957500000000000 0.4472000000000001
0.0803499999999999 0.1957500000000000 0.9472000000000000
0.0803499999999999 0.6957500000000001 0.4472000000000001
0.0803499999999999 0.6957500000000000 0.9472000000000000
0.5803499999999999 0.1957500000000000 0.4472000000000001
0.5803499999999999 0.1957500000000000 0.9472000000000000
0.5803499999999999 0.6957500000000001 0.4472000000000001
0.5803499999999999 0.6957500000000000 0.9472000000000000
0.1972000000000000 0.3303500000000000 0.4457500000000000
0.1972000000000000 0.3303500000000000 0.9457500000000000
0.1972000000000000 0.8303500000000000 0.4457500000000000
0.1972000000000000 0.8303500000000000 0.9457500000000000
0.6972000000000000 0.3303500000000000 0.4457500000000000
0.6972000000000000 0.3303500000000000 0.9457500000000000
0.6972000000000000 0.8303500000000000 0.4457500000000000
0.6972000000000000 0.8303500000000000 0.9457500000000000
0.4472000000000001 0.0803499999999999 0.1957500000000000
0.4472000000000001 0.0803499999999999 0.6957500000000001
0.4472000000000001 0.5803499999999999 0.1957500000000000
0.4472000000000001 0.5803499999999999 0.6957500000000001
0.9472000000000000 0.0803499999999999 0.1957500000000000
0.9472000000000000 0.0803499999999999 0.6957500000000001
0.9472000000000000 0.5803499999999999 0.1957500000000000
0.9472000000000000 0.5803499999999999 0.6957500000000001
0.4457500000000000 0.1972000000000000 0.3303500000000000
0.4457500000000000 0.1972000000000000 0.8303500000000000
0.4457500000000000 0.6972000000000000 0.3303500000000000
0.4457500000000000 0.6972000000000000 0.8303500000000000
0.9457500000000000 0.1972000000000000 0.3303500000000000
0.9457500000000000 0.1972000000000000 0.8303500000000000
0.9457500000000000 0.6972000000000000 0.3303500000000000
0.9457500000000000 0.6972000000000000 0.8303500000000000
0.1957500000000000 0.4472000000000001 0.0803499999999999
0.1957500000000000 0.4472000000000001 0.5803499999999999
0.1957500000000000 0.9472000000000000 0.0803499999999999
0.1957500000000000 0.9472000000000000 0.5803499999999999
0.6957500000000001 0.4472000000000001 0.0803499999999999
0.6957500000000001 0.4472000000000001 0.5803499999999999
0.6957500000000000 0.9472000000000000 0.0803499999999999
0.6957500000000000 0.9472000000000000 0.5803499999999999
0.4457500000000000 0.1696500000000000 0.3028000000000000
0.4457500000000000 0.1696500000000000 0.8028000000000001
0.4457500000000000 0.6696500000000001 0.3028000000000000
0.4457500000000000 0.6696500000000001 0.8028000000000001
0.9457500000000000 0.1696500000000000 0.3028000000000000
0.9457500000000000 0.1696500000000000 0.8028000000000001
0.9457500000000000 0.6696500000000001 0.3028000000000000
0.9457500000000000 0.6696500000000001 0.8028000000000001
0.1957500000000000 0.4196500000000000 0.0528000000000000
0.1957500000000000 0.4196500000000000 0.5528000000000000
0.1957500000000000 0.9196500000000001 0.0528000000000000
0.1957500000000000 0.9196500000000001 0.5528000000000000
0.6957500000000001 0.4196500000000000 0.0528000000000000
0.6957500000000001 0.4196500000000000 0.5528000000000000
0.6957500000000000 0.9196500000000001 0.0528000000000000
0.6957500000000000 0.9196500000000001 0.5528000000000000
0.0542500000000000 0.3028000000000000 0.3303500000000000
0.0542500000000000 0.3028000000000000 0.8303500000000000
0.0542500000000000 0.8028000000000001 0.3303500000000000
0.0542500000000000 0.8028000000000001 0.8303500000000000
0.5542500000000000 0.3028000000000000 0.3303500000000000
0.5542500000000000 0.3028000000000000 0.8303500000000000
0.5542500000000000 0.8028000000000001 0.3303500000000000
0.5542500000000000 0.8028000000000001 0.8303500000000000
0.3042500000000002 0.0528000000000000 0.0803499999999999
0.3042500000000002 0.0528000000000000 0.5803499999999999
0.3042500000000002 0.5528000000000000 0.0803499999999999
0.3042500000000002 0.5528000000000000 0.5803499999999999
0.8042500000000001 0.0528000000000000 0.0803499999999999
0.8042500000000001 0.0528000000000000 0.5803499999999999
0.8042500000000001 0.5528000000000000 0.0803499999999999
0.8042500000000001 0.5528000000000000 0.5803499999999999
0.1696500000000000 0.0542500000000000 0.1972000000000000
0.1696500000000000 0.0542500000000000 0.6972000000000000
0.1696500000000000 0.5542500000000000 0.1972000000000000
0.1696500000000000 0.5542500000000000 0.6972000000000000
0.6696500000000001 0.0542500000000000 0.1972000000000000
0.6696500000000001 0.0542500000000000 0.6972000000000000
0.6696500000000001 0.5542500000000000 0.1972000000000000
0.6696500000000001 0.5542500000000000 0.6972000000000000
0.4196500000000001 0.3042500000000002 0.4472000000000001
0.4196500000000000 0.3042500000000002 0.9472000000000000
0.4196500000000001 0.8042500000000001 0.4472000000000001
0.4196500000000000 0.8042500000000001 0.9472000000000000
0.9196500000000001 0.3042500000000002 0.4472000000000001
0.9196500000000001 0.3042500000000002 0.9472000000000000
0.9196500000000001 0.8042500000000001 0.4472000000000001
0.9196500000000001 0.8042500000000001 0.9472000000000000
0.3028000000000001 0.1696500000000000 0.4457500000000000
0.3028000000000000 0.1696500000000000 0.9457500000000000
0.3028000000000001 0.6696500000000001 0.4457500000000000
0.3028000000000000 0.6696500000000001 0.9457500000000000
0.8028000000000001 0.1696500000000000 0.4457500000000000
0.8028000000000001 0.1696500000000000 0.9457500000000000
0.8028000000000001 0.6696500000000001 0.4457500000000000
0.8028000000000001 0.6696500000000001 0.9457500000000000
0.0528000000000000 0.4196500000000000 0.1957500000000000
0.0528000000000000 0.4196500000000000 0.6957500000000001
0.0528000000000000 0.9196500000000001 0.1957500000000000
0.0528000000000000 0.9196500000000001 0.6957500000000001
0.5528000000000000 0.4196500000000000 0.1957500000000000
0.5528000000000000 0.4196500000000000 0.6957500000000001
0.5528000000000000 0.9196500000000001 0.1957500000000000
0.5528000000000000 0.9196500000000001 0.6957500000000001
0.1972000000000000 0.0542500000000000 0.1696500000000000
0.1972000000000000 0.0542500000000000 0.6696500000000001
0.1972000000000000 0.5542500000000000 0.1696500000000000
0.1972000000000000 0.5542500000000000 0.6696500000000001
0.6972000000000000 0.0542500000000000 0.1696500000000000
0.6972000000000000 0.0542500000000000 0.6696500000000001
0.6972000000000000 0.5542500000000000 0.1696500000000000
0.6972000000000000 0.5542500000000000 0.6696500000000001
0.4472000000000001 0.3042500000000002 0.4196500000000000
0.4472000000000001 0.3042500000000002 0.9196500000000001
0.4472000000000001 0.8042500000000001 0.4196500000000000
0.4472000000000001 0.8042500000000001 0.9196500000000001
0.9472000000000000 0.3042500000000002 0.4196500000000000
0.9471999999999999 0.3042500000000002 0.9196500000000001
0.9472000000000000 0.8042500000000001 0.4196500000000000
0.9471999999999999 0.8042500000000001 0.9196500000000001
0.3303500000000000 0.3028000000000000 0.0542500000000000
0.3303500000000000 0.3028000000000000 0.5542500000000000
0.3303500000000000 0.8028000000000001 0.0542500000000000
0.3303500000000000 0.8028000000000001 0.5542500000000000
0.8303500000000000 0.3028000000000000 0.0542500000000000
0.8303500000000000 0.3028000000000000 0.5542500000000000
0.8303500000000000 0.8028000000000001 0.0542500000000000
0.8303500000000000 0.8028000000000001 0.5542500000000000
0.0803499999999999 0.0528000000000000 0.3042500000000002
0.0803499999999999 0.0528000000000000 0.8042500000000001
0.0803499999999999 0.5528000000000000 0.3042500000000002
0.0803499999999999 0.5528000000000000 0.8042500000000001
0.5803499999999999 0.0528000000000000 0.3042500000000002
0.5803499999999999 0.0528000000000000 0.8042500000000001
0.5803499999999999 0.5528000000000000 0.3042500000000002
0.5803499999999999 0.5528000000000000 0.8042500000000001
0.1833000000000000 0.0494500000000000 0.3167000000000000
0.1833000000000000 0.0494500000000000 0.8167000000000000
0.1833000000000000 0.5494500000000000 0.3167000000000000
0.1833000000000000 0.5494500000000000 0.8167000000000000
0.6833000000000001 0.0494500000000000 0.3167000000000000
0.6833000000000001 0.0494500000000000 0.8167000000000000
0.6833000000000001 0.5494500000000000 0.3167000000000000
0.6833000000000001 0.5494500000000000 0.8167000000000000
0.4333000000000000 0.2994500000000000 0.0667000000000000
0.4333000000000000 0.2994500000000000 0.5667000000000000
0.4333000000000000 0.7994500000000000 0.0667000000000000
0.4333000000000000 0.7994500000000000 0.5667000000000000
0.9333000000000000 0.2994500000000000 0.0667000000000000
0.9333000000000000 0.2994500000000000 0.5667000000000000
0.9333000000000000 0.7994500000000000 0.0667000000000000
0.9333000000000000 0.7994500000000000 0.5667000000000000
0.0494500000000000 0.3167000000000000 0.1833000000000000
0.0494500000000000 0.3167000000000000 0.6833000000000001
0.0494500000000000 0.8167000000000000 0.1833000000000000
0.0494500000000000 0.8167000000000000 0.6833000000000001
0.5494500000000000 0.3167000000000000 0.1833000000000000
0.5494500000000000 0.3167000000000000 0.6833000000000001
0.5494500000000000 0.8167000000000000 0.1833000000000000
0.5494500000000000 0.8167000000000000 0.6833000000000001
0.2994500000000000 0.0667000000000000 0.4333000000000000
0.2994500000000000 0.0667000000000000 0.9333000000000000
0.2994500000000000 0.5667000000000000 0.4333000000000000
0.2994500000000000 0.5667000000000000 0.9333000000000000
0.7994500000000000 0.0667000000000000 0.4333000000000000
0.7994500000000000 0.0667000000000000 0.9333000000000000
0.7994500000000000 0.5667000000000000 0.4333000000000000
0.7994500000000000 0.5667000000000000 0.9333000000000000
0.3167000000000001 0.4505500000000000 0.3167000000000000
0.3167000000000001 0.4505500000000000 0.8167000000000000
0.3167000000000000 0.9505500000000001 0.3167000000000000
0.3167000000000000 0.9505500000000001 0.8167000000000000
0.8167000000000000 0.4505500000000000 0.3167000000000000
0.8167000000000000 0.4505500000000000 0.8167000000000000
0.8167000000000000 0.9505500000000001 0.3167000000000000
0.8167000000000000 0.9505500000000001 0.8167000000000000
0.0667000000000000 0.2005500000000000 0.0667000000000000
0.0667000000000000 0.2005500000000000 0.5667000000000000
0.0667000000000000 0.7005500000000000 0.0667000000000000
0.0667000000000000 0.7005500000000000 0.5667000000000000
0.5667000000000000 0.2005500000000000 0.0667000000000000
0.5667000000000000 0.2005500000000000 0.5667000000000000
0.5667000000000000 0.7005500000000000 0.0667000000000000
0.5667000000000000 0.7005500000000000 0.5667000000000000
0.1833000000000000 0.1833000000000000 0.4505500000000000
0.1833000000000000 0.1833000000000000 0.9505500000000001
0.1833000000000000 0.6833000000000001 0.4505500000000000
0.1833000000000000 0.6833000000000001 0.9505500000000001
0.6833000000000001 0.1833000000000000 0.4505500000000000
0.6833000000000001 0.1833000000000000 0.9505500000000001
0.6833000000000001 0.6833000000000001 0.4505500000000000
0.6833000000000001 0.6833000000000001 0.9505500000000001
0.4333000000000001 0.4333000000000000 0.2005500000000000
0.4333000000000001 0.4333000000000000 0.7005500000000000
0.4333000000000000 0.9333000000000000 0.2005500000000000
0.4333000000000000 0.9333000000000000 0.7005500000000000
0.9333000000000000 0.4333000000000000 0.2005500000000000
0.9333000000000000 0.4333000000000000 0.7005500000000000
0.9333000000000000 0.9333000000000000 0.2005500000000000
0.9333000000000000 0.9333000000000000 0.7005500000000000
0.3167000000000000 0.0494500000000000 0.1833000000000000
0.3167000000000000 0.0494500000000000 0.6833000000000001
0.3167000000000000 0.5494500000000000 0.1833000000000000
0.3167000000000000 0.5494500000000000 0.6833000000000001
0.8167000000000000 0.0494500000000000 0.1833000000000000
0.8167000000000000 0.0494500000000000 0.6833000000000001
0.8167000000000000 0.5494500000000000 0.1833000000000000
0.8167000000000000 0.5494500000000000 0.6833000000000001
0.4505500000000000 0.1833000000000000 0.1833000000000000
0.4505500000000000 0.1833000000000000 0.6833000000000001
0.4505500000000000 0.6833000000000001 0.1833000000000000
0.4505500000000000 0.6833000000000001 0.6833000000000001
0.9505500000000001 0.1833000000000000 0.1833000000000000
0.9505500000000001 0.1833000000000000 0.6833000000000001
0.9505500000000001 0.6833000000000001 0.1833000000000000
0.9505500000000001 0.6833000000000001 0.6833000000000001
0.1833000000000000 0.3167000000000000 0.0494500000000000
0.1833000000000000 0.3167000000000000 0.5494500000000000
0.1833000000000000 0.8167000000000000 0.0494500000000000
0.1833000000000000 0.8167000000000000 0.5494500000000000
0.6833000000000001 0.3167000000000000 0.0494500000000000
0.6833000000000001 0.3167000000000000 0.5494500000000000
0.6833000000000001 0.8167000000000000 0.0494500000000000
0.6833000000000001 0.8167000000000000 0.5494500000000000
0.3167000000000001 0.3167000000000001 0.4505500000000000
0.3167000000000000 0.3167000000000000 0.9505500000000001
0.3167000000000001 0.8167000000000000 0.4505500000000000
0.3167000000000000 0.8167000000000000 0.9505500000000001
0.8167000000000000 0.3167000000000001 0.4505500000000000
0.8167000000000000 0.3167000000000000 0.9505500000000001
0.8167000000000000 0.8167000000000000 0.4505500000000000
0.8167000000000000 0.8167000000000000 0.9505500000000001
0.0667000000000000 0.0667000000000000 0.2005500000000000
0.0667000000000000 0.0667000000000000 0.7005500000000000
0.0667000000000000 0.5667000000000000 0.2005500000000000
0.0667000000000000 0.5667000000000000 0.7005500000000000
0.5667000000000000 0.0667000000000000 0.2005500000000000
0.5667000000000000 0.0667000000000000 0.7005500000000000
0.5667000000000000 0.5667000000000000 0.2005500000000000
0.5667000000000000 0.5667000000000000 0.7005500000000000
0.4505500000000000 0.3167000000000000 0.3167000000000000
0.4505500000000000 0.3167000000000000 0.8167000000000000
0.4505500000000000 0.8167000000000000 0.3167000000000000
0.4505500000000000 0.8167000000000000 0.8167000000000000
0.9505500000000001 0.3167000000000000 0.3167000000000000
0.9505500000000001 0.3167000000000000 0.8167000000000000
0.9505500000000001 0.8167000000000000 0.3167000000000000
0.9505500000000001 0.8167000000000000 0.8167000000000000
0.2005500000000000 0.0667000000000000 0.0667000000000000
0.2005500000000000 0.0667000000000000 0.5667000000000000
0.2005500000000000 0.5667000000000000 0.0667000000000000
0.2005500000000000 0.5667000000000000 0.5667000000000000
0.7005500000000000 0.0667000000000000 0.0667000000000000
0.7005500000000000 0.0667000000000000 0.5667000000000000
0.7005500000000000 0.5667000000000000 0.0667000000000000
0.7005500000000000 0.5667000000000000 0.5667000000000000
0.2994500000000000 0.4333000000000000 0.0667000000000000
0.2994500000000000 0.4333000000000000 0.5667000000000000
0.2994500000000000 0.9333000000000000 0.0667000000000000
0.2994500000000000 0.9333000000000000 0.5667000000000000
0.7994500000000000 0.4333000000000000 0.0667000000000000
0.7994500000000000 0.4333000000000000 0.5667000000000000
0.7994500000000000 0.9333000000000000 0.0667000000000000
0.7994500000000000 0.9333000000000000 0.5667000000000000
0.1833000000000000 0.4505500000000000 0.1833000000000000
0.1833000000000000 0.4505500000000000 0.6833000000000001
0.1833000000000000 0.9505500000000001 0.1833000000000000
0.1833000000000000 0.9505500000000001 0.6833000000000001
0.6833000000000001 0.4505500000000000 0.1833000000000000
0.6833000000000001 0.4505500000000000 0.6833000000000001
0.6833000000000001 0.9505500000000001 0.1833000000000000
0.6833000000000001 0.9505500000000001 0.6833000000000001
0.4333000000000000 0.2005500000000000 0.4333000000000000
0.4333000000000000 0.2005500000000000 0.9333000000000000
0.4333000000000000 0.7005500000000000 0.4333000000000000
0.4333000000000000 0.7005500000000000 0.9333000000000000
0.9333000000000000 0.2005500000000000 0.4333000000000000
0.9333000000000000 0.2005500000000000 0.9333000000000000
0.9333000000000000 0.7005500000000000 0.4333000000000000
0.9333000000000000 0.7005500000000000 0.9333000000000000
0.2054500000000000 0.4840500000000000 0.3408000000000000
0.2054500000000000 0.4840499999999999 0.8408000000000000
0.2054500000000000 0.9840500000000001 0.3408000000000000
0.2054500000000000 0.9840500000000001 0.8408000000000000
0.7054500000000001 0.4840500000000000 0.3408000000000000
0.7054500000000001 0.4840499999999999 0.8408000000000000
0.7054500000000000 0.9840500000000001 0.3408000000000000
0.7054500000000000 0.9840500000000001 0.8408000000000000
0.4554500000000000 0.2340500000000000 0.0908000000000000
0.4554500000000000 0.2340500000000000 0.5908000000000001
0.4554500000000000 0.7340500000000001 0.0908000000000000
0.4554500000000000 0.7340500000000001 0.5908000000000001
0.9554500000000000 0.2340500000000000 0.0908000000000000
0.9554500000000000 0.2340500000000000 0.5908000000000001
0.9554500000000000 0.7340500000000001 0.0908000000000000
0.9554500000000000 0.7340500000000001 0.5908000000000001
0.4840500000000000 0.3408000000000000 0.2054500000000000
0.4840499999999999 0.3408000000000000 0.7054500000000001
0.4840499999999999 0.8408000000000000 0.2054500000000000
0.4840499999999999 0.8408000000000000 0.7054500000000001
0.9840500000000001 0.3408000000000000 0.2054500000000000
0.9840500000000001 0.3408000000000000 0.7054500000000001
0.9840500000000001 0.8408000000000000 0.2054500000000000
0.9840500000000001 0.8408000000000000 0.7054500000000001
0.2340500000000000 0.0908000000000000 0.4554500000000000
0.2340500000000000 0.0908000000000000 0.9554500000000000
0.2340500000000000 0.5908000000000001 0.4554500000000000
0.2340500000000000 0.5908000000000000 0.9554500000000000
0.7340500000000001 0.0908000000000000 0.4554500000000000
0.7340500000000001 0.0908000000000000 0.9554500000000000
0.7340500000000001 0.5908000000000001 0.4554500000000000
0.7340500000000001 0.5908000000000000 0.9554500000000000
0.3408000000000000 0.2054500000000000 0.4840500000000000
0.3408000000000000 0.2054500000000000 0.9840500000000001
0.3408000000000000 0.7054500000000001 0.4840500000000000
0.3408000000000000 0.7054500000000000 0.9840500000000001
0.8408000000000000 0.2054500000000000 0.4840500000000000
0.8408000000000000 0.2054500000000000 0.9840500000000001
0.8408000000000000 0.7054500000000001 0.4840500000000000
0.8408000000000000 0.7054500000000000 0.9840500000000001
0.0908000000000000 0.4554500000000000 0.2340500000000000
0.0908000000000000 0.4554500000000000 0.7340500000000001
0.0908000000000000 0.9554500000000000 0.2340500000000000
0.0908000000000000 0.9554500000000000 0.7340500000000001
0.5908000000000001 0.4554500000000000 0.2340500000000000
0.5908000000000001 0.4554500000000000 0.7340500000000001
0.5908000000000000 0.9554500000000000 0.2340500000000000
0.5908000000000000 0.9554500000000000 0.7340500000000001
0.4840500000000000 0.2945500000000002 0.1592000000000000
0.4840499999999999 0.2945500000000001 0.6592000000000000
0.4840499999999999 0.7945500000000001 0.1592000000000000
0.4840499999999999 0.7945500000000001 0.6592000000000000
0.9840500000000001 0.2945500000000002 0.1592000000000000
0.9840500000000001 0.2945500000000001 0.6592000000000000
0.9840500000000001 0.7945500000000001 0.1592000000000000
0.9840500000000001 0.7945500000000001 0.6592000000000000
0.2340500000000000 0.0445500000000000 0.4092000000000002
0.2340500000000000 0.0445500000000000 0.9092000000000002
0.2340500000000000 0.5445500000000000 0.4092000000000002
0.2340500000000000 0.5445500000000000 0.9092000000000002
0.7340500000000001 0.0445500000000000 0.4092000000000002
0.7340500000000001 0.0445500000000000 0.9092000000000002
0.7340500000000001 0.5445500000000000 0.4092000000000002
0.7340500000000001 0.5445500000000000 0.9092000000000002
0.3408000000000000 0.0159500000000000 0.2945500000000002
0.3408000000000000 0.0159500000000000 0.7945500000000001
0.3408000000000000 0.5159500000000000 0.2945500000000002
0.3408000000000000 0.5159500000000000 0.7945500000000001
0.8408000000000000 0.0159500000000000 0.2945500000000002
0.8408000000000000 0.0159500000000000 0.7945500000000001
0.8408000000000000 0.5159500000000000 0.2945500000000002
0.8408000000000000 0.5159500000000000 0.7945500000000001
0.0908000000000000 0.2659500000000000 0.0445500000000000
0.0908000000000000 0.2659500000000000 0.5445500000000000
0.0908000000000000 0.7659500000000000 0.0445500000000000
0.0908000000000000 0.7659500000000000 0.5445500000000000
0.5908000000000001 0.2659500000000000 0.0445500000000000
0.5908000000000001 0.2659500000000000 0.5445500000000000
0.5908000000000001 0.7659500000000000 0.0445500000000000
0.5908000000000001 0.7659500000000000 0.5445500000000000
0.2054500000000000 0.1592000000000000 0.0159500000000000
0.2054500000000000 0.1592000000000000 0.5159500000000000
0.2054500000000000 0.6592000000000000 0.0159500000000000
0.2054500000000000 0.6592000000000000 0.5159500000000000
0.7054500000000001 0.1592000000000000 0.0159500000000000
0.7054500000000001 0.1592000000000000 0.5159500000000000
0.7054500000000001 0.6592000000000000 0.0159500000000000
0.7054500000000001 0.6592000000000000 0.5159500000000000
0.4554500000000000 0.4092000000000002 0.2659500000000000
0.4554500000000000 0.4092000000000002 0.7659500000000000
0.4554500000000000 0.9092000000000002 0.2659500000000000
0.4554500000000000 0.9092000000000002 0.7659500000000000
0.9554500000000000 0.4092000000000002 0.2659500000000000
0.9554500000000000 0.4092000000000002 0.7659500000000000
0.9554499999999999 0.9092000000000002 0.2659500000000000
0.9554499999999999 0.9092000000000002 0.7659500000000000
0.2945500000000002 0.0159500000000000 0.3408000000000000
0.2945500000000001 0.0159500000000000 0.8408000000000000
0.2945500000000001 0.5159500000000000 0.3408000000000000
0.2945500000000001 0.5159500000000000 0.8408000000000000
0.7945500000000001 0.0159500000000000 0.3408000000000000
0.7945500000000001 0.0159500000000000 0.8408000000000000
0.7945500000000001 0.5159500000000000 0.3408000000000000
0.7945500000000001 0.5159500000000000 0.8408000000000000
0.0445500000000000 0.2659500000000000 0.0908000000000000
0.0445500000000000 0.2659500000000000 0.5908000000000001
0.0445500000000000 0.7659500000000000 0.0908000000000000
0.0445500000000000 0.7659500000000000 0.5908000000000001
0.5445500000000000 0.2659500000000000 0.0908000000000000
0.5445500000000000 0.2659500000000000 0.5908000000000001
0.5445500000000000 0.7659500000000000 0.0908000000000000
0.5445500000000000 0.7659500000000000 0.5908000000000001
0.1592000000000000 0.2054500000000000 0.0159500000000000
0.1592000000000000 0.2054500000000000 0.5159500000000000
0.1592000000000000 0.7054500000000001 0.0159500000000000
0.1592000000000000 0.7054500000000001 0.5159500000000000
0.6592000000000000 0.2054500000000000 0.0159500000000000
0.6592000000000000 0.2054500000000000 0.5159500000000000
0.6592000000000000 0.7054500000000001 0.0159500000000000
0.6592000000000000 0.7054500000000001 0.5159500000000000
0.4092000000000002 0.4554500000000000 0.2659500000000000
0.4092000000000002 0.4554500000000000 0.7659500000000000
0.4092000000000002 0.9554500000000000 0.2659500000000000
0.4092000000000002 0.9554500000000000 0.7659500000000000
0.9092000000000002 0.4554500000000000 0.2659500000000000
0.9092000000000002 0.4554500000000000 0.7659500000000000
0.9092000000000002 0.9554500000000000 0.2659500000000000
0.9092000000000002 0.9554500000000000 0.7659500000000000
0.2945500000000001 0.4840500000000000 0.1592000000000000
0.2945500000000001 0.4840499999999999 0.6592000000000000
0.2945500000000001 0.9840500000000001 0.1592000000000000
0.2945500000000001 0.9840500000000001 0.6592000000000000
0.7945500000000001 0.4840500000000000 0.1592000000000000
0.7945500000000001 0.4840499999999999 0.6592000000000000
0.7945500000000001 0.9840500000000001 0.1592000000000000
0.7945500000000001 0.9840500000000001 0.6592000000000000
0.0445500000000000 0.2340500000000000 0.4092000000000002
0.0445500000000000 0.2340500000000000 0.9092000000000002
0.0445500000000000 0.7340500000000001 0.4092000000000002
0.0445500000000000 0.7340500000000001 0.9092000000000002
0.5445500000000000 0.2340500000000000 0.4092000000000002
0.5445500000000000 0.2340500000000000 0.9092000000000002
0.5445500000000000 0.7340500000000001 0.4092000000000002
0.5445500000000000 0.7340500000000001 0.9092000000000002
0.0159500000000000 0.1592000000000000 0.2054500000000000
0.0159500000000000 0.1592000000000000 0.7054500000000001
0.0159500000000000 0.6592000000000000 0.2054500000000000
0.0159500000000000 0.6592000000000000 0.7054500000000001
0.5159500000000000 0.1592000000000000 0.2054500000000000
0.5159500000000000 0.1592000000000000 0.7054500000000001
0.5159500000000000 0.6592000000000000 0.2054500000000000
0.5159500000000000 0.6592000000000000 0.7054500000000001
0.2659500000000000 0.4092000000000002 0.4554500000000000
0.2659500000000000 0.4092000000000002 0.9554500000000000
0.2659500000000000 0.9092000000000002 0.4554500000000000
0.2659500000000000 0.9092000000000002 0.9554500000000000
0.7659500000000000 0.4092000000000002 0.4554500000000000
0.7659500000000000 0.4092000000000002 0.9554500000000000
0.7659500000000000 0.9092000000000002 0.4554500000000000
0.7659500000000000 0.9092000000000002 0.9554500000000000
0.1592000000000000 0.2945500000000001 0.4840500000000000
0.1592000000000000 0.2945500000000001 0.9840500000000001
0.1592000000000000 0.7945500000000001 0.4840500000000000
0.1592000000000000 0.7945500000000001 0.9840500000000001
0.6592000000000000 0.2945500000000001 0.4840500000000000
0.6592000000000000 0.2945500000000001 0.9840500000000001
0.6592000000000000 0.7945500000000001 0.4840500000000000
0.6592000000000000 0.7945500000000001 0.9840500000000001
0.4092000000000002 0.0445500000000000 0.2340500000000000
0.4092000000000002 0.0445500000000000 0.7340500000000001
0.4092000000000002 0.5445500000000000 0.2340500000000000
0.4092000000000002 0.5445500000000000 0.7340500000000001
0.9092000000000002 0.0445500000000000 0.2340500000000000
0.9092000000000002 0.0445500000000000 0.7340500000000001
0.9092000000000002 0.5445500000000000 0.2340500000000000
0.9092000000000002 0.5445500000000000 0.7340500000000001
0.0159500000000000 0.2054500000000000 0.1592000000000000
0.0159500000000000 0.2054500000000000 0.6592000000000000
0.0159500000000000 0.7054500000000001 0.1592000000000000
0.0159500000000000 0.7054500000000001 0.6592000000000000
0.5159500000000000 0.2054500000000000 0.1592000000000000
0.5159500000000000 0.2054500000000000 0.6592000000000000
0.5159500000000000 0.7054500000000001 0.1592000000000000
0.5159500000000000 0.7054500000000001 0.6592000000000000
0.2659500000000000 0.4554500000000000 0.4092000000000002
0.2659500000000000 0.4554500000000000 0.9092000000000002
0.2659500000000000 0.9554500000000000 0.4092000000000002
0.2659500000000000 0.9554499999999999 0.9092000000000002
0.7659500000000000 0.4554500000000000 0.4092000000000002
0.7659500000000000 0.4554500000000000 0.9092000000000002
0.7659500000000000 0.9554500000000000 0.4092000000000002
0.7659500000000000 0.9554499999999999 0.9092000000000002
0.1592000000000000 0.4840500000000000 0.2945500000000002
0.1592000000000000 0.4840499999999999 0.7945500000000001
0.1592000000000000 0.9840500000000001 0.2945500000000002
0.1592000000000000 0.9840500000000001 0.7945500000000001
0.6592000000000000 0.4840500000000000 0.2945500000000002
0.6592000000000000 0.4840499999999999 0.7945500000000001
0.6592000000000000 0.9840500000000001 0.2945500000000002
0.6592000000000000 0.9840500000000001 0.7945500000000001
0.4092000000000002 0.2340500000000000 0.0445500000000000
0.4092000000000002 0.2340500000000000 0.5445500000000000
0.4092000000000002 0.7340500000000001 0.0445500000000000
0.4092000000000002 0.7340500000000001 0.5445500000000000
0.9092000000000002 0.2340500000000000 0.0445500000000000
0.9092000000000002 0.2340500000000000 0.5445500000000000
0.9092000000000002 0.7340500000000001 0.0445500000000000
0.9092000000000002 0.7340500000000001 0.5445500000000000
0.2945500000000002 0.3408000000000000 0.0159500000000000
0.2945500000000001 0.3408000000000000 0.5159500000000000
0.2945500000000001 0.8408000000000000 0.0159500000000000
0.2945500000000001 0.8408000000000000 0.5159500000000000
0.7945500000000001 0.3408000000000000 0.0159500000000000
0.7945500000000001 0.3408000000000000 0.5159500000000000
0.7945500000000001 0.8408000000000000 0.0159500000000000
0.7945500000000001 0.8408000000000000 0.5159500000000000
0.0445500000000000 0.0908000000000000 0.2659500000000000
0.0445500000000000 0.0908000000000000 0.7659500000000000
0.0445500000000000 0.5908000000000001 0.2659500000000000
0.0445500000000000 0.5908000000000001 0.7659500000000000
0.5445500000000000 0.0908000000000000 0.2659500000000000
0.5445500000000000 0.0908000000000000 0.7659500000000000
0.5445500000000000 0.5908000000000001 0.2659500000000000
0.5445500000000000 0.5908000000000001 0.7659500000000000
0.0159500000000000 0.3408000000000000 0.2945500000000002
0.0159500000000000 0.3408000000000000 0.7945500000000001
0.0159500000000000 0.8408000000000000 0.2945500000000002
0.0159500000000000 0.8408000000000000 0.7945500000000001
0.5159500000000000 0.3408000000000000 0.2945500000000002
0.5159500000000000 0.3408000000000000 0.7945500000000001
0.5159500000000000 0.8408000000000000 0.2945500000000002
0.5159500000000000 0.8408000000000000 0.7945500000000001
0.2659500000000000 0.0908000000000000 0.0445500000000000
0.2659500000000000 0.0908000000000000 0.5445500000000000
0.2659500000000000 0.5908000000000001 0.0445500000000000
0.2659500000000000 0.5908000000000001 0.5445500000000000
0.7659500000000000 0.0908000000000000 0.0445500000000000
0.7659500000000000 0.0908000000000000 0.5445500000000000
0.7659500000000000 0.5908000000000001 0.0445500000000000
0.7659500000000000 0.5908000000000001 0.5445500000000000
0.3408000000000000 0.4840500000000000 0.2054500000000000
0.3408000000000000 0.4840499999999999 0.7054500000000001
0.3408000000000000 0.9840500000000001 0.2054500000000000
0.3408000000000000 0.9840500000000001 0.7054500000000001
0.8408000000000000 0.4840500000000000 0.2054500000000000
0.8408000000000000 0.4840499999999999 0.7054500000000001
0.8408000000000000 0.9840500000000001 0.2054500000000000
0.8408000000000000 0.9840500000000001 0.7054500000000001
0.0908000000000000 0.2340500000000000 0.4554500000000000
0.0908000000000000 0.2340500000000000 0.9554500000000000
0.0908000000000000 0.7340500000000001 0.4554500000000000
0.0908000000000000 0.7340500000000001 0.9554500000000000
0.5908000000000001 0.2340500000000000 0.4554500000000000
0.5908000000000000 0.2340500000000000 0.9554500000000000
0.5908000000000001 0.7340500000000001 0.4554500000000000
0.5908000000000000 0.7340500000000001 0.9554500000000000
0.2054500000000000 0.3408000000000000 0.4840500000000000
0.2054500000000000 0.3408000000000000 0.9840500000000001
0.2054500000000000 0.8408000000000000 0.4840500000000000
0.2054500000000000 0.8408000000000000 0.9840500000000001
0.7054500000000001 0.3408000000000000 0.4840500000000000
0.7054500000000000 0.3408000000000000 0.9840500000000001
0.7054500000000001 0.8408000000000000 0.4840500000000000
0.7054500000000000 0.8408000000000000 0.9840500000000001
0.4554500000000000 0.0908000000000000 0.2340500000000000
0.4554500000000000 0.0908000000000000 0.7340500000000001
0.4554500000000000 0.5908000000000001 0.2340500000000000
0.4554500000000000 0.5908000000000001 0.7340500000000001
0.9554500000000000 0.0908000000000000 0.2340500000000000
0.9554500000000000 0.0908000000000000 0.7340500000000001
0.9554500000000000 0.5908000000000001 0.2340500000000000
0.9554500000000000 0.5908000000000001 0.7340500000000001
0.4840500000000000 0.2054500000000000 0.3408000000000000
0.4840499999999999 0.2054500000000000 0.8408000000000000
0.4840499999999999 0.7054500000000001 0.3408000000000000
0.4840499999999999 0.7054500000000001 0.8408000000000000
0.9840500000000001 0.2054500000000000 0.3408000000000000
0.9840500000000001 0.2054500000000000 0.8408000000000000
0.9840500000000001 0.7054500000000001 0.3408000000000000
0.9840500000000001 0.7054500000000001 0.8408000000000000
0.2340500000000000 0.4554500000000000 0.0908000000000000
0.2340500000000000 0.4554500000000000 0.5908000000000001
0.2340500000000000 0.9554500000000000 0.0908000000000000
0.2340500000000000 0.9554500000000000 0.5908000000000001
0.7340500000000001 0.4554500000000000 0.0908000000000000
0.7340500000000001 0.4554500000000000 0.5908000000000001
0.7340500000000001 0.9554500000000000 0.0908000000000000
0.7340500000000001 0.9554500000000000 0.5908000000000001
0.4840500000000000 0.1592000000000000 0.2945500000000002
0.4840499999999999 0.1592000000000000 0.7945500000000001
0.4840499999999999 0.6592000000000000 0.2945500000000002
0.4840499999999999 0.6592000000000000 0.7945500000000001
0.9840500000000001 0.1592000000000000 0.2945500000000002
0.9840500000000001 0.1592000000000000 0.7945500000000001
0.9840500000000001 0.6592000000000000 0.2945500000000002
0.9840500000000001 0.6592000000000000 0.7945500000000001
0.2340500000000000 0.4092000000000002 0.0445500000000000
0.2340500000000000 0.4092000000000002 0.5445500000000000
0.2340500000000000 0.9092000000000002 0.0445500000000000
0.2340500000000000 0.9092000000000002 0.5445500000000000
0.7340500000000001 0.4092000000000002 0.0445500000000000
0.7340500000000001 0.4092000000000002 0.5445500000000000
0.7340500000000001 0.9092000000000002 0.0445500000000000
0.7340500000000001 0.9092000000000002 0.5445500000000000
0.0159500000000000 0.2945500000000002 0.3408000000000000
0.0159500000000000 0.2945500000000001 0.8408000000000000
0.0159500000000000 0.7945500000000001 0.3408000000000000
0.0159500000000000 0.7945500000000001 0.8408000000000000
0.5159500000000000 0.2945500000000002 0.3408000000000000
0.5159500000000000 0.2945500000000001 0.8408000000000000
0.5159500000000000 0.7945500000000001 0.3408000000000000
0.5159500000000000 0.7945500000000001 0.8408000000000000
0.2659500000000000 0.0445500000000000 0.0908000000000000
0.2659500000000000 0.0445500000000000 0.5908000000000001
0.2659500000000000 0.5445500000000000 0.0908000000000000
0.2659500000000000 0.5445500000000000 0.5908000000000001
0.7659500000000000 0.0445500000000000 0.0908000000000000
0.7659500000000000 0.0445500000000000 0.5908000000000001
0.7659500000000000 0.5445500000000000 0.0908000000000000
0.7659500000000000 0.5445500000000000 0.5908000000000001
0.1592000000000000 0.0159500000000000 0.2054500000000000
0.1592000000000000 0.0159500000000000 0.7054500000000001
0.1592000000000000 0.5159500000000000 0.2054500000000000
0.1592000000000000 0.5159500000000000 0.7054500000000001
0.6592000000000000 0.0159500000000000 0.2054500000000000
0.6592000000000000 0.0159500000000000 0.7054500000000001
0.6592000000000000 0.5159500000000000 0.2054500000000000
0.6592000000000000 0.5159500000000000 0.7054500000000001
0.4092000000000002 0.2659500000000000 0.4554500000000000
0.4092000000000002 0.2659500000000000 0.9554500000000000
0.4092000000000002 0.7659500000000000 0.4554500000000000
0.4092000000000002 0.7659500000000000 0.9554500000000000
0.9092000000000002 0.2659500000000000 0.4554500000000000
0.9092000000000002 0.2659500000000000 0.9554500000000000
0.9092000000000002 0.7659500000000000 0.4554500000000000
0.9092000000000002 0.7659500000000000 0.9554500000000000
0.2945500000000001 0.1592000000000000 0.4840500000000000
0.2945500000000001 0.1592000000000000 0.9840500000000001
0.2945500000000001 0.6592000000000000 0.4840500000000000
0.2945500000000001 0.6592000000000000 0.9840500000000001
0.7945500000000001 0.1592000000000000 0.4840500000000000
0.7945500000000001 0.1592000000000000 0.9840500000000001
0.7945500000000001 0.6592000000000000 0.4840500000000000
0.7945500000000001 0.6592000000000000 0.9840500000000001
0.0445500000000000 0.4092000000000002 0.2340500000000000
0.0445500000000000 0.4092000000000002 0.7340500000000001
0.0445500000000000 0.9092000000000002 0.2340500000000000
0.0445500000000000 0.9092000000000002 0.7340500000000001
0.5445500000000000 0.4092000000000002 0.2340500000000000
0.5445500000000000 0.4092000000000002 0.7340500000000001
0.5445500000000000 0.9092000000000002 0.2340500000000000
0.5445500000000000 0.9092000000000002 0.7340500000000001
0.2054500000000000 0.0159500000000000 0.1592000000000000
0.2054500000000000 0.0159500000000000 0.6592000000000000
0.2054500000000000 0.5159500000000000 0.1592000000000000
0.2054500000000000 0.5159500000000000 0.6592000000000000
0.7054500000000001 0.0159500000000000 0.1592000000000000
0.7054500000000001 0.0159500000000000 0.6592000000000000
0.7054500000000001 0.5159500000000000 0.1592000000000000
0.7054500000000001 0.5159500000000000 0.6592000000000000
0.4554500000000000 0.2659500000000000 0.4092000000000002
0.4554500000000000 0.2659500000000000 0.9092000000000002
0.4554500000000000 0.7659500000000000 0.4092000000000002
0.4554500000000000 0.7659500000000000 0.9092000000000002
0.9554500000000000 0.2659500000000000 0.4092000000000002
0.9554499999999999 0.2659500000000000 0.9092000000000002
0.9554500000000000 0.7659500000000000 0.4092000000000002
0.9554499999999999 0.7659500000000000 0.9092000000000002
0.3408000000000000 0.2945500000000002 0.0159500000000000
0.3408000000000000 0.2945500000000001 0.5159500000000000
0.3408000000000000 0.7945500000000001 0.0159500000000000
0.3408000000000000 0.7945500000000001 0.5159500000000000
0.8408000000000000 0.2945500000000002 0.0159500000000000
0.8408000000000000 0.2945500000000001 0.5159500000000000
0.8408000000000000 0.7945500000000001 0.0159500000000000
0.8408000000000000 0.7945500000000001 0.5159500000000000
0.0908000000000000 0.0445500000000000 0.2659500000000000
0.0908000000000000 0.0445500000000000 0.7659500000000000
0.0908000000000000 0.5445500000000000 0.2659500000000000
0.0908000000000000 0.5445500000000000 0.7659500000000000
0.5908000000000001 0.0445500000000000 0.2659500000000000
0.5908000000000001 0.0445500000000000 0.7659500000000000
0.5908000000000001 0.5445500000000000 0.2659500000000000
0.5908000000000001 0.5445500000000000 0.7659500000000000
0.2500000000000000 0.0000000000000000 0.3750000000000003
0.2500000000000000 0.0000000000000000 0.8750000000000002
0.2500000000000000 0.5000000000000000 0.3750000000000003
0.2500000000000000 0.5000000000000001 0.8750000000000002
0.7500000000000001 0.0000000000000000 0.3750000000000003
0.7500000000000002 0.0000000000000000 0.8750000000000002
0.7500000000000001 0.5000000000000000 0.3750000000000003
0.7500000000000002 0.5000000000000001 0.8750000000000002
0.0000000000000000 0.2500000000000000 0.1250000000000000
0.0000000000000000 0.2500000000000000 0.6250000000000000
0.0000000000000000 0.7500000000000001 0.1250000000000000
0.0000000000000000 0.7500000000000001 0.6250000000000000
0.5000000000000000 0.2500000000000000 0.1250000000000000
0.4999999999999999 0.2500000000000000 0.6250000000000000
0.4999999999999999 0.7500000000000001 0.1250000000000000
0.4999999999999999 0.7500000000000001 0.6250000000000000
0.0000000000000000 0.3750000000000003 0.2500000000000000
0.0000000000000000 0.3750000000000002 0.7500000000000001
0.0000000000000000 0.8750000000000002 0.2500000000000000
0.0000000000000000 0.8750000000000002 0.7500000000000001
0.5000000000000000 0.3750000000000003 0.2500000000000000
0.4999999999999999 0.3750000000000002 0.7500000000000001
0.5000000000000001 0.8750000000000002 0.2500000000000000
0.5000000000000001 0.8750000000000002 0.7500000000000001
0.2500000000000000 0.1250000000000000 0.0000000000000000
0.2500000000000000 0.1250000000000000 0.5000000000000000
0.2500000000000000 0.6250000000000000 0.0000000000000000
0.2500000000000000 0.6250000000000000 0.5000000000000000
0.7500000000000001 0.1250000000000000 0.0000000000000000
0.7500000000000001 0.1250000000000000 0.5000000000000000
0.7500000000000001 0.6250000000000000 0.0000000000000000
0.7500000000000001 0.6250000000000000 0.5000000000000000
0.3750000000000003 0.2500000000000000 0.0000000000000000
0.3750000000000002 0.2500000000000000 0.5000000000000000
0.3750000000000002 0.7500000000000001 0.0000000000000000
0.3750000000000002 0.7500000000000001 0.5000000000000000
0.8750000000000002 0.2500000000000000 0.0000000000000000
0.8750000000000002 0.2500000000000000 0.5000000000000000
0.8750000000000002 0.7500000000000001 0.0000000000000000
0.8750000000000002 0.7500000000000001 0.5000000000000000
0.1250000000000000 0.0000000000000000 0.2500000000000000
0.1250000000000000 0.0000000000000000 0.7500000000000001
0.1250000000000000 0.5000000000000000 0.2500000000000000
0.1250000000000000 0.4999999999999999 0.7500000000000001
0.6250000000000000 0.0000000000000000 0.2500000000000000
0.6250000000000000 0.0000000000000000 0.7500000000000001
0.6250000000000000 0.5000000000000000 0.2500000000000000
0.6250000000000000 0.4999999999999999 0.7500000000000001
0.3750000000000003 0.0000000000000000 0.2500000000000000
0.3750000000000002 0.0000000000000000 0.7500000000000001
0.3750000000000002 0.5000000000000000 0.2500000000000000
0.3750000000000002 0.4999999999999999 0.7500000000000001
0.8750000000000002 0.0000000000000000 0.2500000000000000
0.8750000000000002 0.0000000000000000 0.7500000000000001
0.8750000000000002 0.5000000000000000 0.2500000000000000
0.8750000000000002 0.4999999999999999 0.7500000000000001
0.1250000000000000 0.2500000000000000 0.0000000000000000
0.1250000000000000 0.2500000000000000 0.5000000000000000
0.1250000000000000 0.7500000000000001 0.0000000000000000
0.1250000000000000 0.7500000000000001 0.5000000000000000
0.6250000000000000 0.2500000000000000 0.0000000000000000
0.6250000000000000 0.2500000000000000 0.5000000000000000
0.6250000000000000 0.7500000000000001 0.0000000000000000
0.6250000000000000 0.7500000000000001 0.5000000000000000
0.2500000000000000 0.0000000000000000 0.1250000000000000
0.2500000000000000 0.0000000000000000 0.6250000000000000
0.2500000000000000 0.5000000000000000 0.1250000000000000
0.2500000000000000 0.4999999999999999 0.6250000000000000
0.7500000000000001 0.0000000000000000 0.1250000000000000
0.7500000000000001 0.0000000000000000 0.6250000000000000
0.7500000000000001 0.5000000000000000 0.1250000000000000
0.7500000000000001 0.4999999999999999 0.6250000000000000
0.0000000000000000 0.2500000000000000 0.3749999999999999
0.0000000000000000 0.2500000000000000 0.8750000000000001
0.0000000000000000 0.7500000000000001 0.3749999999999999
0.0000000000000000 0.7500000000000002 0.8750000000000001
0.5000000000000000 0.2500000000000000 0.3749999999999999
0.5000000000000001 0.2500000000000000 0.8750000000000001
0.4999999999999999 0.7500000000000001 0.3749999999999999
0.5000000000000001 0.7500000000000002 0.8750000000000001
0.0000000000000000 0.1250000000000000 0.2500000000000000
0.0000000000000000 0.1250000000000000 0.7500000000000001
0.0000000000000000 0.6250000000000000 0.2500000000000000
0.0000000000000000 0.6250000000000000 0.7500000000000001
0.5000000000000000 0.1250000000000000 0.2500000000000000
0.4999999999999999 0.1250000000000000 0.7500000000000001
0.4999999999999999 0.6250000000000000 0.2500000000000000
0.4999999999999999 0.6250000000000000 0.7500000000000001
0.2500000000000000 0.3749999999999999 0.0000000000000000
0.2500000000000000 0.3749999999999999 0.5000000000000000
0.2500000000000000 0.8750000000000001 0.0000000000000000
0.2500000000000000 0.8750000000000001 0.5000000000000000
0.7500000000000001 0.3749999999999999 0.0000000000000000
0.7500000000000001 0.3749999999999999 0.5000000000000000
0.7500000000000002 0.8750000000000001 0.0000000000000000
0.7500000000000002 0.8750000000000001 0.5000000000000000
0.2090500000000000 0.4236000000000000 0.3408500000000000
0.2090500000000000 0.4236000000000000 0.8408500000000000
0.2090500000000000 0.9236000000000000 0.3408500000000000
0.2090500000000000 0.9236000000000000 0.8408500000000000
0.7090500000000001 0.4236000000000000 0.3408500000000000
0.7090500000000001 0.4236000000000000 0.8408500000000000
0.7090500000000001 0.9236000000000000 0.3408500000000000
0.7090500000000001 0.9236000000000000 0.8408500000000000
0.4590500000000001 0.1736000000000001 0.0908500000000000
0.4590500000000001 0.1736000000000001 0.5908500000000000
0.4590500000000001 0.6736000000000002 0.0908500000000000
0.4590500000000001 0.6736000000000002 0.5908500000000000
0.9590500000000002 0.1736000000000001 0.0908500000000000
0.9590500000000002 0.1736000000000001 0.5908500000000000
0.9590500000000002 0.6736000000000002 0.0908500000000000
0.9590500000000002 0.6736000000000002 0.5908500000000000
0.4236000000000000 0.3408500000000000 0.2090500000000000
0.4236000000000000 0.3408500000000000 0.7090500000000001
0.4236000000000000 0.8408500000000000 0.2090500000000000
0.4236000000000000 0.8408500000000000 0.7090500000000001
0.9236000000000000 0.3408500000000000 0.2090500000000000
0.9236000000000000 0.3408500000000000 0.7090500000000001
0.9236000000000000 0.8408500000000000 0.2090500000000000
0.9236000000000000 0.8408500000000000 0.7090500000000001
0.1736000000000001 0.0908500000000000 0.4590500000000001
0.1736000000000001 0.0908500000000000 0.9590500000000002
0.1736000000000001 0.5908500000000000 0.4590500000000001
0.1736000000000001 0.5908500000000000 0.9590500000000002
0.6736000000000002 0.0908500000000000 0.4590500000000001
0.6736000000000002 0.0908500000000000 0.9590500000000002
0.6736000000000002 0.5908500000000000 0.4590500000000001
0.6736000000000002 0.5908500000000000 0.9590500000000002
0.3408500000000000 0.2090500000000000 0.4236000000000000
0.3408500000000000 0.2090500000000000 0.9236000000000000
0.3408500000000000 0.7090500000000001 0.4236000000000000
0.3408500000000000 0.7090500000000001 0.9236000000000000
0.8408500000000000 0.2090500000000000 0.4236000000000000
0.8408500000000000 0.2090500000000000 0.9236000000000000
0.8408500000000000 0.7090500000000001 0.4236000000000000
0.8408500000000000 0.7090500000000001 0.9236000000000000
0.0908500000000000 0.4590500000000001 0.1736000000000001
0.0908500000000000 0.4590500000000001 0.6736000000000002
0.0908500000000000 0.9590500000000002 0.1736000000000001
0.0908500000000000 0.9590500000000002 0.6736000000000002
0.5908500000000000 0.4590500000000001 0.1736000000000001
0.5908500000000000 0.4590500000000001 0.6736000000000002
0.5908500000000000 0.9590500000000002 0.1736000000000001
0.5908500000000000 0.9590500000000002 0.6736000000000002
0.4236000000000000 0.2909499999999999 0.1591500000000000
0.4236000000000000 0.2909499999999999 0.6591500000000000
0.4236000000000000 0.7909499999999999 0.1591500000000000
0.4236000000000000 0.7909499999999999 0.6591500000000000
0.9236000000000000 0.2909499999999999 0.1591500000000000
0.9236000000000000 0.2909499999999999 0.6591500000000000
0.9236000000000000 0.7909499999999999 0.1591500000000000
0.9236000000000000 0.7909499999999999 0.6591500000000000
0.1736000000000001 0.0409500000000000 0.4091500000000000
0.1736000000000001 0.0409500000000000 0.9091500000000001
0.1736000000000001 0.5409500000000000 0.4091500000000000
0.1736000000000001 0.5409500000000000 0.9091500000000001
0.6736000000000002 0.0409500000000000 0.4091500000000000
0.6736000000000002 0.0409500000000000 0.9091500000000001
0.6736000000000002 0.5409500000000000 0.4091500000000000
0.6736000000000002 0.5409500000000000 0.9091500000000001
0.3408500000000000 0.0764000000000000 0.2909499999999999
0.3408500000000000 0.0764000000000000 0.7909499999999999
0.3408500000000000 0.5764000000000000 0.2909499999999999
0.3408500000000000 0.5764000000000000 0.7909499999999999
0.8408500000000000 0.0764000000000000 0.2909499999999999
0.8408500000000000 0.0764000000000000 0.7909499999999999
0.8408500000000000 0.5764000000000000 0.2909499999999999
0.8408500000000000 0.5764000000000000 0.7909499999999999
0.0908500000000000 0.3264000000000000 0.0409500000000000
0.0908500000000000 0.3264000000000000 0.5409500000000000
0.0908500000000000 0.8264000000000000 0.0409500000000000
0.0908500000000000 0.8264000000000000 0.5409500000000000
0.5908500000000000 0.3264000000000000 0.0409500000000000
0.5908500000000000 0.3264000000000000 0.5409500000000000
0.5908500000000000 0.8264000000000000 0.0409500000000000
0.5908500000000000 0.8264000000000000 0.5409500000000000
0.2090500000000000 0.1591500000000000 0.0764000000000000
0.2090500000000000 0.1591500000000000 0.5764000000000000
0.2090500000000001 0.6591500000000000 0.0764000000000000
0.2090500000000001 0.6591500000000000 0.5764000000000000
0.7090500000000001 0.1591500000000000 0.0764000000000000
0.7090500000000001 0.1591500000000000 0.5764000000000000
0.7090500000000001 0.6591500000000000 0.0764000000000000
0.7090500000000001 0.6591500000000000 0.5764000000000000
0.4590500000000001 0.4091500000000000 0.3264000000000000
0.4590500000000001 0.4091500000000000 0.8264000000000000
0.4590500000000001 0.9091500000000001 0.3264000000000000
0.4590500000000001 0.9091500000000001 0.8264000000000000
0.9590500000000002 0.4091500000000000 0.3264000000000000
0.9590500000000002 0.4091500000000000 0.8264000000000000
0.9590500000000001 0.9091500000000001 0.3264000000000000
0.9590500000000001 0.9091500000000001 0.8264000000000000
0.2909499999999999 0.0764000000000000 0.3408500000000000
0.2909499999999999 0.0764000000000000 0.8408500000000000
0.2909499999999999 0.5764000000000000 0.3408500000000000
0.2909499999999999 0.5764000000000000 0.8408500000000000
0.7909499999999999 0.0764000000000000 0.3408500000000000
0.7909499999999999 0.0764000000000000 0.8408500000000000
0.7909499999999999 0.5764000000000000 0.3408500000000000
0.7909499999999999 0.5764000000000000 0.8408500000000000
0.0409500000000000 0.3264000000000000 0.0908500000000000
0.0409500000000000 0.3264000000000000 0.5908500000000000
0.0409500000000000 0.8264000000000000 0.0908500000000000
0.0409500000000000 0.8264000000000000 0.5908500000000000
0.5409500000000000 0.3264000000000000 0.0908500000000000
0.5409500000000000 0.3264000000000000 0.5908500000000000
0.5409500000000000 0.8264000000000000 0.0908500000000000
0.5409500000000000 0.8264000000000000 0.5908500000000000
0.1591500000000000 0.2090500000000000 0.0764000000000000
0.1591500000000000 0.2090500000000000 0.5764000000000000
0.1591500000000000 0.7090500000000001 0.0764000000000000
0.1591500000000000 0.7090500000000001 0.5764000000000000
0.6591500000000000 0.2090500000000000 0.0764000000000000
0.6591500000000000 0.2090500000000000 0.5764000000000000
0.6591500000000000 0.7090500000000001 0.0764000000000000
0.6591500000000000 0.7090500000000001 0.5764000000000000
0.4091500000000000 0.4590500000000001 0.3264000000000000
0.4091500000000000 0.4590500000000001 0.8264000000000000
0.4091500000000000 0.9590500000000002 0.3264000000000000
0.4091500000000000 0.9590500000000002 0.8264000000000000
0.9091500000000001 0.4590500000000001 0.3264000000000000
0.9091500000000001 0.4590500000000001 0.8264000000000000
0.9091500000000001 0.9590500000000002 0.3264000000000000
0.9091500000000001 0.9590500000000002 0.8264000000000000
0.2909499999999999 0.4236000000000000 0.1591500000000000
0.2909499999999999 0.4236000000000000 0.6591500000000000
0.2909499999999999 0.9236000000000000 0.1591500000000000
0.2909499999999999 0.9236000000000000 0.6591500000000000
0.7909499999999999 0.4236000000000000 0.1591500000000000
0.7909499999999999 0.4236000000000000 0.6591500000000000
0.7909499999999999 0.9236000000000000 0.1591500000000000
0.7909499999999999 0.9236000000000000 0.6591500000000000
0.0409500000000000 0.1736000000000001 0.4091500000000000
0.0409500000000000 0.1736000000000001 0.9091500000000001
0.0409500000000000 0.6736000000000002 0.4091500000000000
0.0409500000000000 0.6736000000000002 0.9091500000000001
0.5409500000000000 0.1736000000000001 0.4091500000000000
0.5409500000000000 0.1736000000000001 0.9091500000000001
0.5409500000000000 0.6736000000000002 0.4091500000000000
0.5409500000000000 0.6736000000000002 0.9091500000000001
0.0764000000000000 0.1591500000000000 0.2090500000000000
0.0764000000000000 0.1591500000000000 0.7090500000000001
0.0764000000000000 0.6591500000000000 0.2090500000000000
0.0764000000000000 0.6591500000000000 0.7090500000000001
0.5764000000000000 0.1591500000000000 0.2090500000000000
0.5764000000000000 0.1591500000000000 0.7090500000000001
0.5764000000000000 0.6591500000000000 0.2090500000000000
0.5764000000000000 0.6591500000000000 0.7090500000000001
0.3264000000000000 0.4091500000000000 0.4590500000000001
0.3264000000000000 0.4091500000000000 0.9590500000000002
0.3264000000000000 0.9091500000000001 0.4590500000000001
0.3264000000000000 0.9091500000000001 0.9590500000000002
0.8264000000000000 0.4091500000000000 0.4590500000000001
0.8264000000000000 0.4091500000000000 0.9590500000000002
0.8264000000000000 0.9091500000000001 0.4590500000000001
0.8264000000000000 0.9091500000000001 0.9590500000000002
0.1591500000000000 0.2909499999999999 0.4236000000000000
0.1591500000000000 0.2909499999999999 0.9236000000000000
0.1591500000000000 0.7909499999999999 0.4236000000000000
0.1591500000000000 0.7909499999999999 0.9236000000000000
0.6591500000000000 0.2909499999999999 0.4236000000000000
0.6591500000000000 0.2909499999999999 0.9236000000000000
0.6591500000000000 0.7909499999999999 0.4236000000000000
0.6591500000000000 0.7909499999999999 0.9236000000000000
0.4091500000000000 0.0409500000000000 0.1736000000000001
0.4091500000000000 0.0409500000000000 0.6736000000000002
0.4091500000000000 0.5409500000000000 0.1736000000000001
0.4091500000000000 0.5409500000000000 0.6736000000000002
0.9091500000000001 0.0409500000000000 0.1736000000000001
0.9091500000000001 0.0409500000000000 0.6736000000000002
0.9091500000000001 0.5409500000000000 0.1736000000000001
0.9091500000000001 0.5409500000000000 0.6736000000000002
0.0764000000000000 0.2090500000000000 0.1591500000000000
0.0764000000000000 0.2090500000000001 0.6591500000000000
0.0764000000000000 0.7090500000000001 0.1591500000000000
0.0764000000000000 0.7090500000000001 0.6591500000000000
0.5764000000000000 0.2090500000000000 0.1591500000000000
0.5764000000000000 0.2090500000000001 0.6591500000000000
0.5764000000000000 0.7090500000000001 0.1591500000000000
0.5764000000000000 0.7090500000000001 0.6591500000000000
0.3264000000000000 0.4590500000000001 0.4091500000000000
0.3264000000000000 0.4590500000000001 0.9091500000000001
0.3264000000000000 0.9590500000000002 0.4091500000000000
0.3264000000000000 0.9590500000000001 0.9091500000000001
0.8264000000000000 0.4590500000000001 0.4091500000000000
0.8264000000000000 0.4590500000000001 0.9091500000000001
0.8264000000000000 0.9590500000000002 0.4091500000000000
0.8264000000000000 0.9590500000000001 0.9091500000000001
0.1591500000000000 0.4236000000000000 0.2909499999999999
0.1591500000000000 0.4236000000000000 0.7909499999999999
0.1591500000000000 0.9236000000000000 0.2909499999999999
0.1591500000000000 0.9236000000000000 0.7909499999999999
0.6591500000000000 0.4236000000000000 0.2909499999999999
0.6591500000000000 0.4236000000000000 0.7909499999999999
0.6591500000000000 0.9236000000000000 0.2909499999999999
0.6591500000000000 0.9236000000000000 0.7909499999999999
0.4091500000000000 0.1736000000000001 0.0409500000000000
0.4091500000000000 0.1736000000000001 0.5409500000000000
0.4091500000000000 0.6736000000000002 0.0409500000000000
0.4091500000000000 0.6736000000000002 0.5409500000000000
0.9091500000000001 0.1736000000000001 0.0409500000000000
0.9091500000000001 0.1736000000000001 0.5409500000000000
0.9091500000000001 0.6736000000000002 0.0409500000000000
0.9091500000000001 0.6736000000000002 0.5409500000000000
0.2909499999999999 0.3408500000000000 0.0764000000000000
0.2909499999999999 0.3408500000000000 0.5764000000000000
0.2909499999999999 0.8408500000000000 0.0764000000000000
0.2909499999999999 0.8408500000000000 0.5764000000000000
0.7909499999999999 0.3408500000000000 0.0764000000000000
0.7909499999999999 0.3408500000000000 0.5764000000000000
0.7909499999999999 0.8408500000000000 0.0764000000000000
0.7909499999999999 0.8408500000000000 0.5764000000000000
0.0409500000000000 0.0908500000000000 0.3264000000000000
0.0409500000000000 0.0908500000000000 0.8264000000000000
0.0409500000000000 0.5908500000000000 0.3264000000000000
0.0409500000000000 0.5908500000000000 0.8264000000000000
0.5409500000000000 0.0908500000000000 0.3264000000000000
0.5409500000000000 0.0908500000000000 0.8264000000000000
0.5409500000000000 0.5908500000000000 0.3264000000000000
0.5409500000000000 0.5908500000000000 0.8264000000000000
0.0764000000000000 0.3408500000000000 0.2909499999999999
0.0764000000000000 0.3408500000000000 0.7909499999999999
0.0764000000000000 0.8408500000000000 0.2909499999999999
0.0764000000000000 0.8408500000000000 0.7909499999999999
0.5764000000000000 0.3408500000000000 0.2909499999999999
0.5764000000000000 0.3408500000000000 0.7909499999999999
0.5764000000000000 0.8408500000000000 0.2909499999999999
0.5764000000000000 0.8408500000000000 0.7909499999999999
0.3264000000000000 0.0908500000000000 0.0409500000000000
0.3264000000000000 0.0908500000000000 0.5409500000000000
0.3264000000000000 0.5908500000000000 0.0409500000000000
0.3264000000000000 0.5908500000000000 0.5409500000000000
0.8264000000000000 0.0908500000000000 0.0409500000000000
0.8264000000000000 0.0908500000000000 0.5409500000000000
0.8264000000000000 0.5908500000000000 0.0409500000000000
0.8264000000000000 0.5908500000000000 0.5409500000000000
0.3408500000000000 0.4236000000000000 0.2090500000000000
0.3408500000000000 0.4236000000000000 0.7090500000000001
0.3408500000000000 0.9236000000000000 0.2090500000000000
0.3408500000000000 0.9236000000000000 0.7090500000000001
0.8408500000000000 0.4236000000000000 0.2090500000000000
0.8408500000000000 0.4236000000000000 0.7090500000000001
0.8408500000000000 0.9236000000000000 0.2090500000000000
0.8408500000000000 0.9236000000000000 0.7090500000000001
0.0908500000000000 0.1736000000000001 0.4590500000000001
0.0908500000000000 0.1736000000000001 0.9590500000000002
0.0908500000000000 0.6736000000000002 0.4590500000000001
0.0908500000000000 0.6736000000000002 0.9590500000000002
0.5908500000000000 0.1736000000000001 0.4590500000000001
0.5908500000000000 0.1736000000000001 0.9590500000000002
0.5908500000000000 0.6736000000000002 0.4590500000000001
0.5908500000000000 0.6736000000000002 0.9590500000000002
0.2090500000000000 0.3408500000000000 0.4236000000000000
0.2090500000000000 0.3408500000000000 0.9236000000000000
0.2090500000000000 0.8408500000000000 0.4236000000000000
0.2090500000000000 0.8408500000000000 0.9236000000000000
0.7090500000000001 0.3408500000000000 0.4236000000000000
0.7090500000000001 0.3408500000000000 0.9236000000000000
0.7090500000000001 0.8408500000000000 0.4236000000000000
0.7090500000000001 0.8408500000000000 0.9236000000000000
0.4590500000000001 0.0908500000000000 0.1736000000000001
0.4590500000000001 0.0908500000000000 0.6736000000000002
0.4590500000000001 0.5908500000000000 0.1736000000000001
0.4590500000000001 0.5908500000000000 0.6736000000000002
0.9590500000000002 0.0908500000000000 0.1736000000000001
0.9590500000000002 0.0908500000000000 0.6736000000000002
0.9590500000000002 0.5908500000000000 0.1736000000000001
0.9590500000000002 0.5908500000000000 0.6736000000000002
0.4236000000000000 0.2090500000000000 0.3408500000000000
0.4236000000000000 0.2090500000000000 0.8408500000000000
0.4236000000000000 0.7090500000000001 0.3408500000000000
0.4236000000000000 0.7090500000000001 0.8408500000000000
0.9236000000000000 0.2090500000000000 0.3408500000000000
0.9236000000000000 0.2090500000000000 0.8408500000000000
0.9236000000000000 0.7090500000000001 0.3408500000000000
0.9236000000000000 0.7090500000000001 0.8408500000000000
0.1736000000000001 0.4590500000000001 0.0908500000000000
0.1736000000000001 0.4590500000000001 0.5908500000000000
0.1736000000000001 0.9590500000000002 0.0908500000000000
0.1736000000000001 0.9590500000000002 0.5908500000000000
0.6736000000000002 0.4590500000000001 0.0908500000000000
0.6736000000000002 0.4590500000000001 0.5908500000000000
0.6736000000000002 0.9590500000000002 0.0908500000000000
0.6736000000000002 0.9590500000000002 0.5908500000000000
0.4236000000000000 0.1591500000000000 0.2909499999999999
0.4236000000000000 0.1591500000000000 0.7909499999999999
0.4236000000000000 0.6591500000000000 0.2909499999999999
0.4236000000000000 0.6591500000000000 0.7909499999999999
0.9236000000000000 0.1591500000000000 0.2909499999999999
0.9236000000000000 0.1591500000000000 0.7909499999999999
0.9236000000000000 0.6591500000000000 0.2909499999999999
0.9236000000000000 0.6591500000000000 0.7909499999999999
0.1736000000000001 0.4091500000000000 0.0409500000000000
0.1736000000000001 0.4091500000000000 0.5409500000000000
0.1736000000000001 0.9091500000000001 0.0409500000000000
0.1736000000000001 0.9091500000000001 0.5409500000000000
0.6736000000000002 0.4091500000000000 0.0409500000000000
0.6736000000000002 0.4091500000000000 0.5409500000000000
0.6736000000000002 0.9091500000000001 0.0409500000000000
0.6736000000000002 0.9091500000000001 0.5409500000000000
0.0764000000000000 0.2909499999999999 0.3408500000000000
0.0764000000000000 0.2909499999999999 0.8408500000000000
0.0764000000000000 0.7909499999999999 0.3408500000000000
0.0764000000000000 0.7909499999999999 0.8408500000000000
0.5764000000000000 0.2909499999999999 0.3408500000000000
0.5764000000000000 0.2909499999999999 0.8408500000000000
0.5764000000000000 0.7909499999999999 0.3408500000000000
0.5764000000000000 0.7909499999999999 0.8408500000000000
0.3264000000000000 0.0409500000000000 0.0908500000000000
0.3264000000000000 0.0409500000000000 0.5908500000000000
0.3264000000000000 0.5409500000000000 0.0908500000000000
0.3264000000000000 0.5409500000000000 0.5908500000000000
0.8264000000000000 0.0409500000000000 0.0908500000000000
0.8264000000000000 0.0409500000000000 0.5908500000000000
0.8264000000000000 0.5409500000000000 0.0908500000000000
0.8264000000000000 0.5409500000000000 0.5908500000000000
0.1591500000000000 0.0764000000000000 0.2090500000000000
0.1591500000000000 0.0764000000000000 0.7090500000000001
0.1591500000000000 0.5764000000000000 0.2090500000000000
0.1591500000000000 0.5764000000000000 0.7090500000000001
0.6591500000000000 0.0764000000000000 0.2090500000000000
0.6591500000000000 0.0764000000000000 0.7090500000000001
0.6591500000000000 0.5764000000000000 0.2090500000000000
0.6591500000000000 0.5764000000000000 0.7090500000000001
0.4091500000000000 0.3264000000000000 0.4590500000000001
0.4091500000000000 0.3264000000000000 0.9590500000000002
0.4091500000000000 0.8264000000000000 0.4590500000000001
0.4091500000000000 0.8264000000000000 0.9590500000000002
0.9091500000000001 0.3264000000000000 0.4590500000000001
0.9091500000000001 0.3264000000000000 0.9590500000000002
0.9091500000000001 0.8264000000000000 0.4590500000000001
0.9091500000000001 0.8264000000000000 0.9590500000000002
0.2909499999999999 0.1591500000000000 0.4236000000000000
0.2909499999999999 0.1591500000000000 0.9236000000000000
0.2909499999999999 0.6591500000000000 0.4236000000000000
0.2909499999999999 0.6591500000000000 0.9236000000000000
0.7909499999999999 0.1591500000000000 0.4236000000000000
0.7909499999999999 0.1591500000000000 0.9236000000000000
0.7909499999999999 0.6591500000000000 0.4236000000000000
0.7909499999999999 0.6591500000000000 0.9236000000000000
0.0409500000000000 0.4091500000000000 0.1736000000000001
0.0409500000000000 0.4091500000000000 0.6736000000000002
0.0409500000000000 0.9091500000000001 0.1736000000000001
0.0409500000000000 0.9091500000000001 0.6736000000000002
0.5409500000000000 0.4091500000000000 0.1736000000000001
0.5409500000000000 0.4091500000000000 0.6736000000000002
0.5409500000000000 0.9091500000000001 0.1736000000000001
0.5409500000000000 0.9091500000000001 0.6736000000000002
0.2090500000000000 0.0764000000000000 0.1591500000000000
0.2090500000000001 0.0764000000000000 0.6591500000000000
0.2090500000000000 0.5764000000000000 0.1591500000000000
0.2090500000000001 0.5764000000000000 0.6591500000000000
0.7090500000000001 0.0764000000000000 0.1591500000000000
0.7090500000000001 0.0764000000000000 0.6591500000000000
0.7090500000000001 0.5764000000000000 0.1591500000000000
0.7090500000000001 0.5764000000000000 0.6591500000000000
0.4590500000000001 0.3264000000000000 0.4091500000000000
0.4590500000000001 0.3264000000000000 0.9091500000000001
0.4590500000000001 0.8264000000000000 0.4091500000000000
0.4590500000000001 0.8264000000000000 0.9091500000000001
0.9590500000000002 0.3264000000000000 0.4091500000000000
0.9590500000000001 0.3264000000000000 0.9091500000000001
0.9590500000000002 0.8264000000000000 0.4091500000000000
0.9590500000000001 0.8264000000000000 0.9091500000000001
0.3408500000000000 0.2909499999999999 0.0764000000000000
0.3408500000000000 0.2909499999999999 0.5764000000000000
0.3408500000000000 0.7909499999999999 0.0764000000000000
0.3408500000000000 0.7909499999999999 0.5764000000000000
0.8408500000000000 0.2909499999999999 0.0764000000000000
0.8408500000000000 0.2909499999999999 0.5764000000000000
0.8408500000000000 0.7909499999999999 0.0764000000000000
0.8408500000000000 0.7909499999999999 0.5764000000000000
0.0908500000000000 0.0409500000000000 0.3264000000000000
0.0908500000000000 0.0409500000000000 0.8264000000000000
0.0908500000000000 0.5409500000000000 0.3264000000000000
0.0908500000000000 0.5409500000000000 0.8264000000000000
0.5908500000000000 0.0409500000000000 0.3264000000000000
0.5908500000000000 0.0409500000000000 0.8264000000000000
0.5908500000000000 0.5409500000000000 0.3264000000000000
0.5908500000000000 0.5409500000000000 0.8264000000000000
0.2021500000000000 0.0584000000000000 0.2978500000000000
0.2021500000000000 0.0584000000000000 0.7978499999999999
0.2021500000000000 0.5584000000000000 0.2978500000000000
0.2021500000000000 0.5584000000000000 0.7978499999999999
0.7021500000000001 0.0584000000000000 0.2978500000000000
0.7021500000000001 0.0584000000000000 0.7978499999999999
0.7021500000000001 0.5584000000000000 0.2978500000000000
0.7021500000000001 0.5584000000000000 0.7978499999999999
0.4521500000000002 0.3084000000000001 0.0478499999999999
0.4521500000000002 0.3084000000000001 0.5478500000000001
0.4521500000000002 0.8084000000000001 0.0478499999999999
0.4521500000000002 0.8084000000000001 0.5478500000000001
0.9521500000000003 0.3084000000000001 0.0478499999999999
0.9521500000000003 0.3084000000000001 0.5478500000000001
0.9521500000000003 0.8084000000000001 0.0478499999999999
0.9521500000000003 0.8084000000000001 0.5478500000000001
0.0584000000000000 0.2978500000000000 0.2021500000000000
0.0584000000000000 0.2978500000000000 0.7021500000000001
0.0584000000000000 0.7978499999999999 0.2021500000000000
0.0584000000000000 0.7978499999999999 0.7021500000000001
0.5584000000000000 0.2978500000000000 0.2021500000000000
0.5584000000000000 0.2978500000000000 0.7021500000000001
0.5584000000000000 0.7978499999999999 0.2021500000000000
0.5584000000000000 0.7978499999999999 0.7021500000000001
0.3084000000000002 0.0478499999999999 0.4521500000000002
0.3084000000000001 0.0478500000000000 0.9521500000000003
0.3084000000000002 0.5478500000000001 0.4521500000000002
0.3084000000000001 0.5478499999999999 0.9521500000000003
0.8084000000000001 0.0478499999999999 0.4521500000000002
0.8084000000000001 0.0478500000000000 0.9521500000000003
0.8084000000000001 0.5478500000000001 0.4521500000000002
0.8084000000000001 0.5478499999999999 0.9521500000000003
0.2978500000000001 0.4416000000000000 0.2978500000000000
0.2978500000000001 0.4416000000000000 0.7978499999999999
0.2978500000000000 0.9416000000000001 0.2978500000000000
0.2978500000000000 0.9416000000000001 0.7978499999999999
0.7978499999999999 0.4416000000000000 0.2978500000000000
0.7978499999999999 0.4416000000000000 0.7978499999999999
0.7978499999999999 0.9416000000000001 0.2978500000000000
0.7978499999999999 0.9416000000000001 0.7978499999999999
0.0478499999999999 0.1916000000000000 0.0478500000000000
0.0478499999999999 0.1916000000000000 0.5478500000000001
0.0478500000000000 0.6916000000000001 0.0478500000000000
0.0478500000000000 0.6916000000000001 0.5478500000000001
0.5478500000000001 0.1916000000000000 0.0478500000000000
0.5478500000000001 0.1916000000000000 0.5478500000000001
0.5478500000000001 0.6916000000000001 0.0478500000000000
0.5478500000000001 0.6916000000000001 0.5478500000000001
0.2021500000000000 0.2021500000000000 0.4416000000000000
0.2021500000000000 0.2021500000000000 0.9416000000000001
0.2021500000000000 0.7021500000000001 0.4416000000000000
0.2021500000000000 0.7021500000000001 0.9416000000000001
0.7021500000000001 0.2021500000000000 0.4416000000000000
0.7021500000000001 0.2021500000000000 0.9416000000000001
0.7021500000000001 0.7021500000000001 0.4416000000000000
0.7021500000000001 0.7021500000000001 0.9416000000000001
0.4521500000000003 0.4521500000000002 0.1916000000000000
0.4521500000000002 0.4521500000000002 0.6916000000000001
0.4521500000000002 0.9521500000000003 0.1916000000000000
0.4521500000000002 0.9521500000000003 0.6916000000000001
0.9521500000000003 0.4521500000000002 0.1916000000000000
0.9521500000000003 0.4521500000000002 0.6916000000000001
0.9521500000000002 0.9521500000000003 0.1916000000000000
0.9521500000000002 0.9521500000000003 0.6916000000000001
0.2978500000000000 0.0584000000000000 0.2021500000000000
0.2978500000000000 0.0584000000000000 0.7021500000000001
0.2978500000000000 0.5584000000000000 0.2021500000000000
0.2978500000000000 0.5584000000000000 0.7021500000000001
0.7978499999999999 0.0584000000000000 0.2021500000000000
0.7978499999999999 0.0584000000000000 0.7021500000000001
0.7978499999999999 0.5584000000000000 0.2021500000000000
0.7978499999999999 0.5584000000000000 0.7021500000000001
0.4416000000000000 0.2021500000000000 0.2021500000000000
0.4416000000000000 0.2021500000000000 0.7021500000000001
0.4416000000000000 0.7021500000000001 0.2021500000000000
0.4416000000000000 0.7021500000000001 0.7021500000000001
0.9416000000000001 0.2021500000000000 0.2021500000000000
0.9416000000000001 0.2021500000000000 0.7021500000000001
0.9416000000000001 0.7021500000000001 0.2021500000000000
0.9416000000000001 0.7021500000000001 0.7021500000000001
0.2021500000000000 0.2978500000000000 0.0584000000000000
0.2021500000000000 0.2978500000000000 0.5584000000000000
0.2021500000000000 0.7978499999999999 0.0584000000000000
0.2021500000000000 0.7978499999999999 0.5584000000000000
0.7021500000000001 0.2978500000000000 0.0584000000000000
0.7021500000000001 0.2978500000000000 0.5584000000000000
0.7021500000000001 0.7978499999999999 0.0584000000000000
0.7021500000000001 0.7978499999999999 0.5584000000000000
0.2978500000000001 0.2978500000000001 0.4416000000000000
0.2978500000000000 0.2978500000000000 0.9416000000000001
0.2978500000000001 0.7978499999999999 0.4416000000000000
0.2978500000000000 0.7978499999999999 0.9416000000000001
0.7978499999999999 0.2978500000000001 0.4416000000000000
0.7978499999999999 0.2978500000000000 0.9416000000000001
0.7978499999999999 0.7978499999999999 0.4416000000000000
0.7978499999999999 0.7978499999999999 0.9416000000000001
0.0478500000000000 0.0478499999999999 0.1916000000000000
0.0478500000000000 0.0478500000000000 0.6916000000000001
0.0478500000000000 0.5478500000000001 0.1916000000000000
0.0478500000000000 0.5478500000000001 0.6916000000000001
0.5478500000000001 0.0478499999999999 0.1916000000000000
0.5478500000000001 0.0478500000000000 0.6916000000000001
0.5478500000000001 0.5478500000000001 0.1916000000000000
0.5478500000000001 0.5478500000000001 0.6916000000000001
0.4416000000000000 0.2978500000000000 0.2978500000000000
0.4416000000000000 0.2978500000000000 0.7978499999999999
0.4416000000000000 0.7978499999999999 0.2978500000000000
0.4416000000000000 0.7978499999999999 0.7978499999999999
0.9416000000000001 0.2978500000000000 0.2978500000000000
0.9416000000000001 0.2978500000000000 0.7978499999999999
0.9416000000000001 0.7978499999999999 0.2978500000000000
0.9416000000000001 0.7978499999999999 0.7978499999999999
0.1916000000000000 0.0478499999999999 0.0478500000000000
0.1916000000000000 0.0478499999999999 0.5478500000000001
0.1916000000000000 0.5478500000000001 0.0478500000000000
0.1916000000000000 0.5478500000000001 0.5478500000000001
0.6916000000000001 0.0478499999999999 0.0478500000000000
0.6916000000000001 0.0478499999999999 0.5478500000000001
0.6916000000000001 0.5478500000000001 0.0478500000000000
0.6916000000000001 0.5478500000000001 0.5478500000000001
0.3084000000000002 0.4521500000000002 0.0478499999999999
0.3084000000000002 0.4521500000000002 0.5478500000000001
0.3084000000000001 0.9521500000000003 0.0478499999999999
0.3084000000000001 0.9521500000000003 0.5478500000000001
0.8084000000000001 0.4521500000000002 0.0478499999999999
0.8084000000000001 0.4521500000000002 0.5478500000000001
0.8084000000000001 0.9521500000000003 0.0478499999999999
0.8084000000000001 0.9521500000000003 0.5478500000000001
0.2021500000000000 0.4416000000000000 0.2021500000000000
0.2021500000000000 0.4416000000000000 0.7021500000000001
0.2021500000000000 0.9416000000000001 0.2021500000000000
0.2021500000000000 0.9416000000000001 0.7021500000000001
0.7021500000000001 0.4416000000000000 0.2021500000000000
0.7021500000000001 0.4416000000000000 0.7021500000000001
0.7021500000000001 0.9416000000000001 0.2021500000000000
0.7021500000000001 0.9416000000000001 0.7021500000000001
0.4521500000000003 0.1916000000000000 0.4521500000000002
0.4521500000000002 0.1916000000000000 0.9521500000000003
0.4521500000000002 0.6916000000000001 0.4521500000000002
0.4521500000000002 0.6916000000000001 0.9521500000000003
0.9521500000000003 0.1916000000000000 0.4521500000000002
0.9521500000000002 0.1916000000000000 0.9521500000000003
0.9521500000000003 0.6916000000000001 0.4521500000000002
0.9521500000000002 0.6916000000000001 0.9521500000000003
0.1579000000000000 0.0593000000000000 0.3098000000000000
0.1579000000000000 0.0593000000000000 0.8098000000000001
0.1579000000000000 0.5593000000000001 0.3098000000000000
0.1579000000000000 0.5593000000000001 0.8098000000000001
0.6579000000000000 0.0593000000000000 0.3098000000000000
0.6579000000000000 0.0593000000000000 0.8098000000000001
0.6579000000000000 0.5593000000000001 0.3098000000000000
0.6579000000000000 0.5593000000000001 0.8098000000000001
0.4079000000000002 0.3093000000000000 0.0598000000000001
0.4079000000000002 0.3093000000000000 0.5598000000000001
0.4079000000000002 0.8093000000000000 0.0598000000000001
0.4079000000000002 0.8093000000000000 0.5598000000000001
0.9079000000000002 0.3093000000000000 0.0598000000000001
0.9079000000000002 0.3093000000000000 0.5598000000000001
0.9079000000000002 0.8093000000000000 0.0598000000000001
0.9079000000000002 0.8093000000000000 0.5598000000000001
0.0593000000000000 0.3098000000000000 0.1579000000000000
0.0593000000000000 0.3098000000000000 0.6579000000000000
0.0593000000000000 0.8098000000000001 0.1579000000000000
0.0593000000000000 0.8098000000000001 0.6579000000000000
0.5593000000000001 0.3098000000000000 0.1579000000000000
0.5593000000000001 0.3098000000000000 0.6579000000000000
0.5593000000000001 0.8098000000000001 0.1579000000000000
0.5593000000000001 0.8098000000000001 0.6579000000000000
0.3093000000000000 0.0598000000000001 0.4079000000000002
0.3093000000000000 0.0598000000000001 0.9079000000000002
0.3093000000000000 0.5598000000000001 0.4079000000000002
0.3093000000000000 0.5598000000000001 0.9079000000000002
0.8093000000000000 0.0598000000000001 0.4079000000000002
0.8093000000000000 0.0598000000000001 0.9079000000000002
0.8093000000000000 0.5598000000000001 0.4079000000000002
0.8093000000000000 0.5598000000000001 0.9079000000000002
0.0593000000000000 0.3421000000000000 0.1902000000000000
0.0593000000000000 0.3421000000000000 0.6902000000000000
0.0593000000000000 0.8421000000000001 0.1902000000000000
0.0593000000000000 0.8421000000000001 0.6902000000000000
0.5593000000000001 0.3421000000000000 0.1902000000000000
0.5593000000000001 0.3421000000000000 0.6902000000000000
0.5593000000000001 0.8421000000000001 0.1902000000000000
0.5593000000000001 0.8421000000000001 0.6902000000000000
0.3093000000000001 0.0921000000000000 0.4402000000000002
0.3093000000000000 0.0921000000000000 0.9402000000000003
0.3093000000000001 0.5921000000000001 0.4402000000000002
0.3093000000000000 0.5921000000000001 0.9402000000000003
0.8093000000000000 0.0921000000000000 0.4402000000000002
0.8093000000000000 0.0921000000000000 0.9402000000000003
0.8093000000000000 0.5921000000000001 0.4402000000000002
0.8093000000000000 0.5921000000000001 0.9402000000000003
0.3098000000000001 0.4407000000000001 0.3421000000000000
0.3098000000000001 0.4407000000000001 0.8421000000000001
0.3098000000000000 0.9407000000000001 0.3421000000000000
0.3098000000000000 0.9407000000000001 0.8421000000000001
0.8098000000000001 0.4407000000000001 0.3421000000000000
0.8098000000000001 0.4407000000000001 0.8421000000000001
0.8098000000000001 0.9407000000000001 0.3421000000000000
0.8098000000000001 0.9407000000000001 0.8421000000000001
0.0598000000000001 0.1907000000000001 0.0921000000000000
0.0598000000000001 0.1907000000000001 0.5921000000000001
0.0598000000000001 0.6907000000000001 0.0921000000000000
0.0598000000000001 0.6907000000000001 0.5921000000000001
0.5598000000000001 0.1907000000000001 0.0921000000000000
0.5598000000000001 0.1907000000000001 0.5921000000000001
0.5598000000000001 0.6907000000000001 0.0921000000000000
0.5598000000000001 0.6907000000000001 0.5921000000000001
0.1579000000000000 0.1902000000000000 0.4407000000000001
0.1579000000000000 0.1902000000000000 0.9407000000000001
0.1579000000000000 0.6902000000000000 0.4407000000000001
0.1579000000000000 0.6901999999999999 0.9407000000000001
0.6579000000000000 0.1902000000000000 0.4407000000000001
0.6579000000000000 0.1902000000000000 0.9407000000000001
0.6579000000000000 0.6902000000000000 0.4407000000000001
0.6579000000000000 0.6901999999999999 0.9407000000000001
0.4079000000000003 0.4402000000000002 0.1907000000000001
0.4079000000000003 0.4402000000000002 0.6907000000000001
0.4079000000000002 0.9402000000000003 0.1907000000000001
0.4079000000000002 0.9402000000000003 0.6907000000000001
0.9079000000000002 0.4402000000000002 0.1907000000000001
0.9079000000000002 0.4402000000000002 0.6907000000000001
0.9079000000000002 0.9402000000000003 0.1907000000000001
0.9079000000000002 0.9402000000000003 0.6907000000000001
0.3421000000000000 0.4407000000000001 0.3098000000000000
0.3421000000000000 0.4407000000000001 0.8098000000000001
0.3421000000000000 0.9407000000000001 0.3098000000000000
0.3421000000000000 0.9407000000000001 0.8098000000000001
0.8421000000000001 0.4407000000000001 0.3098000000000000
0.8421000000000001 0.4407000000000001 0.8098000000000001
0.8421000000000001 0.9407000000000001 0.3098000000000000
0.8421000000000001 0.9407000000000001 0.8098000000000001
0.0921000000000000 0.1907000000000001 0.0598000000000001
0.0921000000000000 0.1907000000000001 0.5598000000000001
0.0921000000000000 0.6907000000000001 0.0598000000000001
0.0921000000000000 0.6907000000000001 0.5598000000000001
0.5921000000000001 0.1907000000000001 0.0598000000000001
0.5921000000000001 0.1907000000000001 0.5598000000000001
0.5921000000000001 0.6907000000000001 0.0598000000000001
0.5921000000000001 0.6907000000000001 0.5598000000000001
0.1902000000000000 0.1579000000000000 0.4407000000000001
0.1902000000000000 0.1579000000000000 0.9407000000000001
0.1902000000000000 0.6579000000000000 0.4407000000000001
0.1902000000000000 0.6579000000000000 0.9407000000000001
0.6902000000000000 0.1579000000000000 0.4407000000000001
0.6901999999999999 0.1579000000000000 0.9407000000000001
0.6902000000000000 0.6579000000000000 0.4407000000000001
0.6901999999999999 0.6579000000000000 0.9407000000000001
0.4402000000000002 0.4079000000000002 0.1907000000000001
0.4402000000000002 0.4079000000000002 0.6907000000000001
0.4402000000000002 0.9079000000000002 0.1907000000000001
0.4402000000000001 0.9079000000000002 0.6907000000000001
0.9402000000000003 0.4079000000000002 0.1907000000000001
0.9402000000000003 0.4079000000000002 0.6907000000000001
0.9402000000000001 0.9079000000000002 0.1907000000000001
0.9402000000000001 0.9079000000000002 0.6907000000000001
0.3421000000000000 0.0593000000000000 0.1902000000000000
0.3421000000000000 0.0593000000000000 0.6902000000000000
0.3421000000000000 0.5593000000000001 0.1902000000000000
0.3421000000000000 0.5593000000000001 0.6902000000000000
0.8421000000000001 0.0593000000000000 0.1902000000000000
0.8421000000000001 0.0593000000000000 0.6902000000000000
0.8421000000000001 0.5593000000000001 0.1902000000000000
0.8421000000000001 0.5593000000000001 0.6902000000000000
0.4407000000000001 0.1902000000000000 0.1579000000000000
0.4407000000000001 0.1902000000000000 0.6579000000000000
0.4407000000000001 0.6902000000000000 0.1579000000000000
0.4407000000000001 0.6902000000000000 0.6579000000000000
0.9407000000000001 0.1902000000000000 0.1579000000000000
0.9407000000000001 0.1902000000000000 0.6579000000000000
0.9407000000000001 0.6902000000000000 0.1579000000000000
0.9407000000000001 0.6902000000000000 0.6579000000000000
0.1902000000000000 0.3421000000000000 0.0593000000000000
0.1902000000000000 0.3421000000000000 0.5593000000000001
0.1902000000000000 0.8421000000000001 0.0593000000000000
0.1902000000000000 0.8421000000000001 0.5593000000000001
0.6902000000000000 0.3421000000000000 0.0593000000000000
0.6902000000000000 0.3421000000000000 0.5593000000000001
0.6902000000000000 0.8421000000000001 0.0593000000000000
0.6902000000000000 0.8421000000000001 0.5593000000000001
0.4407000000000001 0.1579000000000000 0.1902000000000000
0.4407000000000001 0.1579000000000000 0.6902000000000000
0.4407000000000001 0.6579000000000000 0.1902000000000000
0.4407000000000001 0.6579000000000000 0.6902000000000000
0.9407000000000001 0.1579000000000000 0.1902000000000000
0.9407000000000001 0.1579000000000000 0.6902000000000000
0.9407000000000001 0.6579000000000000 0.1902000000000000
0.9407000000000001 0.6579000000000000 0.6902000000000000
0.1902000000000000 0.0593000000000000 0.3421000000000000
0.1902000000000000 0.0593000000000000 0.8421000000000001
0.1902000000000000 0.5593000000000001 0.3421000000000000
0.1902000000000000 0.5593000000000001 0.8421000000000001
0.6902000000000000 0.0593000000000000 0.3421000000000000
0.6902000000000000 0.0593000000000000 0.8421000000000001
0.6902000000000000 0.5593000000000001 0.3421000000000000
0.6902000000000000 0.5593000000000001 0.8421000000000001
0.4402000000000002 0.3093000000000000 0.0921000000000000
0.4402000000000002 0.3093000000000000 0.5921000000000001
0.4402000000000002 0.8093000000000000 0.0921000000000000
0.4402000000000001 0.8093000000000000 0.5921000000000001
0.9402000000000003 0.3093000000000000 0.0921000000000000
0.9402000000000003 0.3093000000000000 0.5921000000000001
0.9402000000000003 0.8093000000000000 0.0921000000000000
0.9402000000000003 0.8093000000000000 0.5921000000000001
0.3421000000000000 0.3098000000000001 0.4407000000000001
0.3421000000000000 0.3098000000000000 0.9407000000000001
0.3421000000000000 0.8098000000000001 0.4407000000000001
0.3421000000000000 0.8098000000000001 0.9407000000000001
0.8421000000000001 0.3098000000000001 0.4407000000000001
0.8421000000000001 0.3098000000000000 0.9407000000000001
0.8421000000000001 0.8098000000000001 0.4407000000000001
0.8421000000000001 0.8098000000000001 0.9407000000000001
0.0921000000000000 0.0598000000000001 0.1907000000000001
0.0921000000000000 0.0598000000000001 0.6907000000000001
0.0921000000000000 0.5598000000000001 0.1907000000000001
0.0921000000000000 0.5598000000000001 0.6907000000000001
0.5921000000000001 0.0598000000000001 0.1907000000000001
0.5921000000000001 0.0598000000000001 0.6907000000000001
0.5921000000000001 0.5598000000000001 0.1907000000000001
0.5921000000000001 0.5598000000000001 0.6907000000000001
0.4407000000000001 0.3098000000000000 0.3421000000000000
0.4407000000000001 0.3098000000000000 0.8421000000000001
0.4407000000000001 0.8098000000000001 0.3421000000000000
0.4407000000000001 0.8098000000000001 0.8421000000000001
0.9407000000000001 0.3098000000000000 0.3421000000000000
0.9407000000000001 0.3098000000000000 0.8421000000000001
0.9407000000000001 0.8098000000000001 0.3421000000000000
0.9407000000000001 0.8098000000000001 0.8421000000000001
0.1907000000000001 0.0598000000000001 0.0921000000000000
0.1907000000000001 0.0598000000000001 0.5921000000000001
0.1907000000000001 0.5598000000000001 0.0921000000000000
0.1907000000000001 0.5598000000000001 0.5921000000000001
0.6907000000000001 0.0598000000000001 0.0921000000000000
0.6907000000000001 0.0598000000000001 0.5921000000000001
0.6907000000000001 0.5598000000000001 0.0921000000000000
0.6907000000000001 0.5598000000000001 0.5921000000000001
0.3098000000000000 0.0593000000000000 0.1579000000000000
0.3098000000000000 0.0593000000000000 0.6579000000000000
0.3098000000000000 0.5593000000000001 0.1579000000000000
0.3098000000000000 0.5593000000000001 0.6579000000000000
0.8098000000000001 0.0593000000000000 0.1579000000000000
0.8098000000000001 0.0593000000000000 0.6579000000000000
0.8098000000000001 0.5593000000000001 0.1579000000000000
0.8098000000000001 0.5593000000000001 0.6579000000000000
0.1579000000000000 0.3098000000000000 0.0593000000000000
0.1579000000000000 0.3098000000000000 0.5593000000000001
0.1579000000000000 0.8098000000000001 0.0593000000000000
0.1579000000000000 0.8098000000000001 0.5593000000000001
0.6579000000000000 0.3098000000000000 0.0593000000000000
0.6579000000000000 0.3098000000000000 0.5593000000000001
0.6579000000000000 0.8098000000000001 0.0593000000000000
0.6579000000000000 0.8098000000000001 0.5593000000000001
0.3093000000000000 0.4079000000000002 0.0598000000000001
0.3093000000000000 0.4079000000000002 0.5598000000000001
0.3093000000000000 0.9079000000000002 0.0598000000000001
0.3093000000000000 0.9079000000000002 0.5598000000000001
0.8093000000000000 0.4079000000000002 0.0598000000000001
0.8093000000000000 0.4079000000000002 0.5598000000000001
0.8093000000000000 0.9079000000000002 0.0598000000000001
0.8093000000000000 0.9079000000000002 0.5598000000000001
0.3093000000000001 0.4402000000000002 0.0921000000000000
0.3093000000000001 0.4402000000000002 0.5921000000000001
0.3093000000000000 0.9402000000000003 0.0921000000000000
0.3093000000000000 0.9402000000000003 0.5921000000000001
0.8093000000000000 0.4402000000000002 0.0921000000000000
0.8093000000000000 0.4402000000000002 0.5921000000000001
0.8093000000000000 0.9402000000000003 0.0921000000000000
0.8093000000000000 0.9402000000000003 0.5921000000000001
0.4407000000000001 0.3421000000000000 0.3098000000000000
0.4407000000000001 0.3421000000000000 0.8098000000000001
0.4407000000000001 0.8421000000000001 0.3098000000000000
0.4407000000000001 0.8421000000000001 0.8098000000000001
0.9407000000000001 0.3421000000000000 0.3098000000000000
0.9407000000000001 0.3421000000000000 0.8098000000000001
0.9407000000000001 0.8421000000000001 0.3098000000000000
0.9407000000000001 0.8421000000000001 0.8098000000000001
0.1907000000000001 0.0921000000000000 0.0598000000000001
0.1907000000000001 0.0921000000000000 0.5598000000000001
0.1907000000000001 0.5921000000000001 0.0598000000000001
0.1907000000000001 0.5921000000000001 0.5598000000000001
0.6907000000000001 0.0921000000000000 0.0598000000000001
0.6907000000000001 0.0921000000000000 0.5598000000000001
0.6907000000000001 0.5921000000000001 0.0598000000000001
0.6907000000000001 0.5921000000000001 0.5598000000000001
0.1902000000000000 0.4407000000000001 0.1579000000000000
0.1902000000000000 0.4407000000000001 0.6579000000000000
0.1902000000000000 0.9407000000000001 0.1579000000000000
0.1902000000000000 0.9407000000000001 0.6579000000000000
0.6902000000000000 0.4407000000000001 0.1579000000000000
0.6902000000000000 0.4407000000000001 0.6579000000000000
0.6901999999999999 0.9407000000000001 0.1579000000000000
0.6901999999999999 0.9407000000000001 0.6579000000000000
0.4402000000000002 0.1907000000000001 0.4079000000000002
0.4402000000000002 0.1907000000000001 0.9079000000000002
0.4402000000000002 0.6907000000000001 0.4079000000000002
0.4402000000000001 0.6907000000000001 0.9079000000000002
0.9402000000000003 0.1907000000000001 0.4079000000000002
0.9402000000000001 0.1907000000000001 0.9079000000000002
0.9402000000000003 0.6907000000000001 0.4079000000000002
0.9402000000000001 0.6907000000000001 0.9079000000000002
0.1579000000000000 0.4407000000000001 0.1902000000000000
0.1579000000000000 0.4407000000000001 0.6902000000000000
0.1579000000000000 0.9407000000000001 0.1902000000000000
0.1579000000000000 0.9407000000000001 0.6902000000000000
0.6579000000000000 0.4407000000000001 0.1902000000000000
0.6579000000000000 0.4407000000000001 0.6902000000000000
0.6579000000000000 0.9407000000000001 0.1902000000000000
0.6579000000000000 0.9407000000000001 0.6902000000000000
0.4079000000000003 0.1907000000000001 0.4402000000000002
0.4079000000000002 0.1907000000000001 0.9402000000000003
0.4079000000000003 0.6907000000000001 0.4402000000000002
0.4079000000000002 0.6907000000000001 0.9402000000000003
0.9079000000000002 0.1907000000000001 0.4402000000000002
0.9079000000000002 0.1907000000000001 0.9402000000000003
0.9079000000000002 0.6907000000000001 0.4402000000000002
0.9079000000000002 0.6907000000000001 0.9402000000000003
0.3098000000000001 0.3421000000000000 0.4407000000000001
0.3098000000000000 0.3421000000000000 0.9407000000000001
0.3098000000000001 0.8421000000000001 0.4407000000000001
0.3098000000000000 0.8421000000000001 0.9407000000000001
0.8098000000000001 0.3421000000000000 0.4407000000000001
0.8098000000000001 0.3421000000000000 0.9407000000000001
0.8098000000000001 0.8421000000000001 0.4407000000000001
0.8098000000000001 0.8421000000000001 0.9407000000000001
0.0598000000000001 0.0921000000000000 0.1907000000000001
0.0598000000000001 0.0921000000000000 0.6907000000000001
0.0598000000000001 0.5921000000000001 0.1907000000000001
0.0598000000000001 0.5921000000000001 0.6907000000000001
0.5598000000000001 0.0921000000000000 0.1907000000000001
0.5598000000000001 0.0921000000000000 0.6907000000000001
0.5598000000000001 0.5921000000000001 0.1907000000000001
0.5598000000000001 0.5921000000000001 0.6907000000000001
0.0676690778556395 0.4286064188693649 0.3318487459673651
0.0676690778556395 0.4286064188693649 0.8318487459673651
0.0676690778556395 0.9286064188693649 0.3318487459673651
0.0676690778556395 0.9286064188693649 0.8318487459673651
0.5676690778556395 0.4286064188693649 0.3318487459673651
0.5676690778556395 0.4286064188693649 0.8318487459673651
0.5676690778556395 0.9286064188693649 0.3318487459673651
0.5676690778556395 0.9286064188693649 0.8318487459673651
0.0688076486138151 0.4311786462139020 0.2979508013992245
0.0688076486138151 0.4311786462139020 0.7979508013992245
0.0688076486138151 0.9311786462139020 0.2979508013992245
0.0688076486138151 0.9311786462139020 0.7979508013992245
0.5688076486138151 0.4311786462139020 0.2979508013992245
0.5688076486138151 0.4311786462139020 0.7979508013992245
0.5688076486138151 0.9311786462139020 0.2979508013992245
0.5688076486138151 0.9311786462139020 0.7979508013992245
0.3157513842695266 0.1867421919137578 0.2641932591090504
0.3157513842695266 0.1867421919137578 0.7641932591090503
0.3157513842695266 0.6867421919137580 0.2641932591090504
0.3157513842695266 0.6867421919137580 0.7641932591090503
0.8157513842695266 0.1867421919137578 0.2641932591090504
0.8157513842695266 0.1867421919137578 0.7641932591090503
0.8157513842695266 0.6867421919137580 0.2641932591090504
0.8157513842695266 0.6867421919137580 0.7641932591090503
0.3166788392984927 0.1837630020616151 0.2980643027573089
0.3166788392984927 0.1837630020616151 0.7980643027573090
0.3166788392984927 0.6837630020616150 0.2980643027573089
0.3166788392984927 0.6837630020616150 0.7980643027573090
0.8166788392984928 0.1837630020616151 0.2980643027573089
0.8166788392984928 0.1837630020616151 0.7980643027573090
0.8166788392984928 0.6837630020616150 0.2980643027573089
0.8166788392984928 0.6837630020616150 0.7980643027573090
0.2642054959163650 0.1819852869210515 0.3217034854912374
0.2642054959163650 0.1819852869210515 0.8217034854912374
0.2642054959163650 0.6819852869210515 0.3217034854912374
0.2642054959163650 0.6819852869210515 0.8217034854912374
0.7642054959163650 0.1819852869210515 0.3217034854912374
0.7642054959163650 0.1819852869210515 0.8217034854912374
0.7642054959163650 0.6819852869210515 0.3217034854912374
0.7642054959163650 0.6819852869210515 0.8217034854912374
0.2980676801621278 0.1826963739060005 0.3185681743050955
0.2980676801621278 0.1826963739060005 0.8185681743050955
0.2980676801621278 0.6826963739060005 0.3185681743050955
0.2980676801621278 0.6826963739060005 0.8185681743050955
0.7980676801621278 0.1826963739060005 0.3185681743050955
0.7980676801621278 0.1826963739060005 0.8185681743050955
0.7980676801621278 0.6826963739060005 0.3185681743050955
0.7980676801621278 0.6826963739060005 0.8185681743050955
0.4323309221443605 0.0713935811306352 0.3318487459673652
0.4323309221443605 0.0713935811306352 0.8318487459673651
0.4323309221443605 0.5713935811306352 0.3318487459673652
0.4323309221443605 0.5713935811306352 0.8318487459673651
0.9323309221443605 0.0713935811306352 0.3318487459673652
0.9323309221443605 0.0713935811306352 0.8318487459673651
0.9323309221443605 0.5713935811306352 0.3318487459673652
0.9323309221443605 0.5713935811306352 0.8318487459673651
0.4311923513861850 0.0688213537860981 0.2979508013992245
0.4311923513861850 0.0688213537860981 0.7979508013992245
0.4311923513861850 0.5688213537860981 0.2979508013992245
0.4311923513861850 0.5688213537860981 0.7979508013992245
0.9311923513861851 0.0688213537860981 0.2979508013992245
0.9311923513861851 0.0688213537860981 0.7979508013992245
0.9311923513861851 0.5688213537860981 0.2979508013992245
0.9311923513861851 0.5688213537860981 0.7979508013992245
0.0713935811306356 0.3318487459673653 0.4323309221443602
0.0713935811306356 0.3318487459673652 0.9323309221443602
0.0713935811306355 0.8318487459673652 0.4323309221443602
0.0713935811306355 0.8318487459673652 0.9323309221443602
0.5713935811306355 0.3318487459673653 0.4323309221443602
0.5713935811306355 0.3318487459673652 0.9323309221443602
0.5713935811306355 0.8318487459673652 0.4323309221443602
0.5713935811306355 0.8318487459673652 0.9323309221443602
0.0688213537860984 0.2979508013992246 0.4311923513861847
0.0688213537860984 0.2979508013992245 0.9311923513861846
0.0688213537860984 0.7979508013992245 0.4311923513861847
0.0688213537860984 0.7979508013992245 0.9311923513861846
0.5688213537860984 0.2979508013992246 0.4311923513861847
0.5688213537860984 0.2979508013992245 0.9311923513861846
0.5688213537860984 0.7979508013992245 0.4311923513861847
0.5688213537860984 0.7979508013992245 0.9311923513861846
0.1681512540326349 0.4323309221443605 0.4286064188693647
0.1681512540326349 0.4323309221443604 0.9286064188693647
0.1681512540326349 0.9323309221443604 0.4286064188693647
0.1681512540326349 0.9323309221443604 0.9286064188693647
0.6681512540326349 0.4323309221443605 0.4286064188693647
0.6681512540326349 0.4323309221443604 0.9286064188693647
0.6681512540326349 0.9323309221443604 0.4286064188693647
0.6681512540326349 0.9323309221443604 0.9286064188693647
0.2020491986007756 0.4311923513861849 0.4311786462139018
0.2020491986007756 0.4311923513861848 0.9311786462139019
0.2020491986007756 0.9311923513861848 0.4311786462139018
0.2020491986007756 0.9311923513861848 0.9311786462139019
0.7020491986007756 0.4311923513861849 0.4311786462139018
0.7020491986007756 0.4311923513861848 0.9311786462139019
0.7020491986007756 0.9311923513861848 0.4311786462139018
0.7020491986007755 0.9311923513861848 0.9311786462139019
