# Co-dmd_mkt004s_sq
1.000000
 26.6200000000000010   0.0000000000000000         0.0000000000
  0.0000000000000016  26.6200000000000010         0.0000000000
  0.0000000000000017   0.0000000000000017        27.9138000000
Co N N C H C C C H C C C H C H F F 
8 8 8 8 8 8 8 8 8 8 8 8 8 8 8 8 8 
Direct
0.4901400000000000 0.4901400000000000 0.3125000000000000
0.4901400000000000 0.4901400000000000 0.8125000000000000
0.4901400000000000 0.9901400000000000 0.3125000000000000
0.4901400000000001 0.9901400000000000 0.8125000000000000
0.9901400000000000 0.4901400000000000 0.3125000000000000
0.9901400000000000 0.4901400000000000 0.8125000000000000
0.9901399999999999 0.9901400000000000 0.3125000000000000
0.9901399999999999 0.9901400000000000 0.8125000000000000
0.4906000000000000 0.4291450000000000 0.2728850000000000
0.4906000000000000 0.4291450000000000 0.7728850000000000
0.4906000000000000 0.9291449999999999 0.2728850000000000
0.4906000000000000 0.9291449999999999 0.7728850000000000
0.9905999999999998 0.4291450000000000 0.2728850000000000
0.9905999999999998 0.4291450000000000 0.7728850000000000
0.9905999999999997 0.9291449999999999 0.2728850000000000
0.9905999999999997 0.9291449999999999 0.7728850000000000
0.0087500000000000 0.0514000000000000 0.2273150000000000
0.0087500000000000 0.0514000000000000 0.7273149999999999
0.0087500000000000 0.5514000000000000 0.2273150000000000
0.0087500000000000 0.5514000000000001 0.7273149999999999
0.5087500000000000 0.0514000000000000 0.2273150000000000
0.5087500000000001 0.0514000000000000 0.7273149999999999
0.5087500000000001 0.5514000000000000 0.2273150000000000
0.5087500000000001 0.5514000000000001 0.7273149999999999
0.4850000000000000 0.3812500000000000 0.2863000000000000
0.4850000000000000 0.3812500000000000 0.7863000000000000
0.4850000000000000 0.8812499999999999 0.2863000000000000
0.4850000000000000 0.8812499999999999 0.7863000000000000
0.9850000000000000 0.3812500000000000 0.2863000000000000
0.9850000000000000 0.3812500000000000 0.7863000000000000
0.9850000000000000 0.8812499999999999 0.2863000000000000
0.9850000000000000 0.8812499999999999 0.7863000000000000
0.4724000000000000 0.3708500000000000 0.3165500000000000
0.4724000000000000 0.3708500000000000 0.8165500000000000
0.4724000000000000 0.8708500000000000 0.3165500000000000
0.4724000000000000 0.8708500000000000 0.8165500000000000
0.9723999999999999 0.3708500000000000 0.3165500000000000
0.9723999999999999 0.3708500000000000 0.8165500000000000
0.9723999999999999 0.8708500000000000 0.3165500000000000
0.9723999999999999 0.8708500000000000 0.8165500000000000
0.0000000000000000 0.1313000000000000 0.2500000000000000
0.0000000000000000 0.1313000000000000 0.7500000000000000
0.0000000000000000 0.6312999999999999 0.2500000000000000
0.0000000000000000 0.6312999999999999 0.7500000000000000
0.5000000000000000 0.1313000000000000 0.2500000000000000
0.4999999999999999 0.1313000000000000 0.7500000000000000
0.4999999999999999 0.6312999999999999 0.2500000000000000
0.5000000000000001 0.6312999999999999 0.7500000000000000
0.0000000000000000 0.3487000000000000 0.2500000000000000
0.0000000000000000 0.3487000000000000 0.7500000000000000
0.0000000000000000 0.8487000000000000 0.2500000000000000
0.0000000000000000 0.8487000000000000 0.7500000000000000
0.5000000000000000 0.3487000000000000 0.2500000000000000
0.4999999999999999 0.3487000000000000 0.7500000000000000
0.4999999999999999 0.8487000000000000 0.2500000000000000
0.5000000000000001 0.8487000000000000 0.7500000000000000
0.0134500000000000 0.0996500000000000 0.2137000000000000
0.0134500000000000 0.0996500000000000 0.7137000000000000
0.0134500000000000 0.5996500000000000 0.2137000000000000
0.0134500000000000 0.5996500000000000 0.7137000000000000
0.5134500000000000 0.0996500000000000 0.2137000000000000
0.5134500000000001 0.0996500000000000 0.7137000000000000
0.5134500000000001 0.5996500000000000 0.2137000000000000
0.5134500000000001 0.5996500000000000 0.7137000000000000
0.0246000000000000 0.1102500000000000 0.1830000000000000
0.0246000000000000 0.1102500000000000 0.6830000000000001
0.0246000000000000 0.6102500000000000 0.1830000000000000
0.0246000000000000 0.6102500000000000 0.6830000000000001
0.5246000000000000 0.1102500000000000 0.1830000000000000
0.5246000000000000 0.1102500000000000 0.6830000000000001
0.5246000000000000 0.6102500000000000 0.1830000000000000
0.5246000000000001 0.6102500000000000 0.6830000000000001
0.0000000000000000 0.1869500000000000 0.2500000000000000
0.0000000000000000 0.1869500000000000 0.7500000000000000
0.0000000000000000 0.6869499999999999 0.2500000000000000
0.0000000000000000 0.6869499999999999 0.7500000000000000
0.5000000000000000 0.1869500000000000 0.2500000000000000
0.4999999999999999 0.1869500000000000 0.7500000000000000
0.4999999999999999 0.6869499999999999 0.2500000000000000
0.5000000000000001 0.6869499999999999 0.7500000000000000
0.0000000000000000 0.2941000000000000 0.2500000000000000
0.0000000000000000 0.2940999999999999 0.7500000000000000
0.0000000000000000 0.7940999999999999 0.2500000000000000
0.0000000000000000 0.7940999999999999 0.7500000000000000
0.5000000000000000 0.2941000000000000 0.2500000000000000
0.4999999999999999 0.2940999999999999 0.7500000000000000
0.4999999999999999 0.7940999999999999 0.2500000000000000
0.5000000000000001 0.7940999999999999 0.7500000000000000
0.0143500000000000 0.2142000000000000 0.2103500000000000
0.0143500000000000 0.2142000000000000 0.7103500000000000
0.0143500000000000 0.7141999999999999 0.2103500000000000
0.0143500000000000 0.7141999999999999 0.7103500000000000
0.5143500000000000 0.2142000000000000 0.2103500000000000
0.5143500000000001 0.2142000000000000 0.7103500000000000
0.5143500000000001 0.7141999999999999 0.2103500000000000
0.5143500000000001 0.7141999999999999 0.7103500000000000
0.0246500000000000 0.1968000000000000 0.1823000000000000
0.0246500000000000 0.1967999999999999 0.6823000000000000
0.0246500000000000 0.6967999999999999 0.1823000000000000
0.0246500000000000 0.6967999999999999 0.6823000000000000
0.5246499999999999 0.1968000000000000 0.1823000000000000
0.5246499999999999 0.1967999999999999 0.6823000000000000
0.5246499999999999 0.6967999999999999 0.1823000000000000
0.5246500000000001 0.6967999999999999 0.6823000000000000
0.0142500000000000 0.2665000000000000 0.2101500000000000
0.0142500000000000 0.2665000000000000 0.7101500000000001
0.0142500000000000 0.7664999999999998 0.2101500000000000
0.0142500000000000 0.7664999999999998 0.7101500000000001
0.5142500000000000 0.2665000000000000 0.2101500000000000
0.5142500000000000 0.2665000000000000 0.7101500000000001
0.5142500000000000 0.7664999999999998 0.2101500000000000
0.5142500000000001 0.7664999999999998 0.7101500000000001
0.0242000000000000 0.2837500000000000 0.1819000000000000
0.0242000000000000 0.2837500000000000 0.6819000000000000
0.0242000000000000 0.7837499999999999 0.1819000000000000
0.0242000000000000 0.7837499999999999 0.6819000000000000
0.5242000000000000 0.2837500000000000 0.1819000000000000
0.5242000000000001 0.2837500000000000 0.6819000000000000
0.5242000000000001 0.7837499999999999 0.1819000000000000
0.5242000000000001 0.7837499999999999 0.6819000000000000
0.0305500000000000 0.1912500000000000 0.1677500000000000
0.0305500000000000 0.1912500000000000 0.6677500000000001
0.0305500000000000 0.6912500000000000 0.1677500000000000
0.0305500000000000 0.6912500000000000 0.6677500000000001
0.5305500000000000 0.1912500000000000 0.1677500000000000
0.5305500000000001 0.1912500000000000 0.6677500000000001
0.5305500000000001 0.6912500000000000 0.1677500000000000
0.5305500000000001 0.6912500000000000 0.6677500000000001
0.0272500000000000 0.2880000000000000 0.1696500000000000
0.0272500000000000 0.2879999999999999 0.6696500000000000
0.0272500000000000 0.7880000000000000 0.1696500000000000
0.0272500000000000 0.7880000000000000 0.6696500000000000
0.5272500000000000 0.2880000000000000 0.1696500000000000
0.5272500000000001 0.2879999999999999 0.6696500000000000
0.5272500000000001 0.7880000000000000 0.1696500000000000
0.5272500000000001 0.7880000000000000 0.6696500000000000
