%BLOCK LATTICE_CART
ang    # angstrom units
  13.310000000000    0.000000000000     0.000000000000   
  0.000000000000     13.310000000000    0.000000000000   
  0.000000000000     0.000000000000     13.956900000000  
%ENDBLOCK LATTICE_CART

%BLOCK POSITIONS_FRAC
Co     0.490140000000     0.490140000000     0.312500000000   
N      0.490600000000     0.429145000000     0.272885000000   
N      0.008750000000     0.051400000000     0.227315000000   
C      0.485000000000     0.381250000000     0.286300000000   
H      0.472400000000     0.370850000000     0.316550000000   
C      0.000000000000     0.131300000000     0.250000000000   
C      0.000000000000     0.348700000000     0.250000000000   
C      0.013450000000     0.099650000000     0.213700000000   
H      0.024600000000     0.110250000000     0.183000000000   
C      0.000000000000     0.186950000000     0.250000000000   
C      0.000000000000     0.294100000000     0.250000000000   
C      0.014350000000     0.214200000000     0.210350000000   
H      0.024650000000     0.196800000000     0.182300000000   
C      0.014250000000     0.266500000000     0.210150000000   
H      0.024200000000     0.283750000000     0.181900000000   
F      0.030550000000     0.191250000000     0.167750000000   
F      0.027250000000     0.288000000000     0.169650000000   
Co     0.490140000000     0.490140000000     0.812500000000   
N      0.490600000000     0.429145000000     0.772885000000   
N      0.008750000000     0.051400000000     0.727315000000   
C      0.485000000000     0.381250000000     0.786300000000   
H      0.472400000000     0.370850000000     0.816550000000   
C      0.000000000000     0.131300000000     0.750000000000   
C      0.000000000000     0.348700000000     0.750000000000   
C      0.013450000000     0.099650000000     0.713700000000   
H      0.024600000000     0.110250000000     0.683000000000   
C      0.000000000000     0.186950000000     0.750000000000   
C      0.000000000000     0.294100000000     0.750000000000   
C      0.014350000000     0.214200000000     0.710350000000   
H      0.024650000000     0.196800000000     0.682300000000   
C      0.014250000000     0.266500000000     0.710150000000   
H      0.024200000000     0.283750000000     0.681900000000   
F      0.030550000000     0.191250000000     0.667750000000   
F      0.027250000000     0.288000000000     0.669650000000   
Co     0.490140000000     0.990140000000     0.312500000000   
N      0.490600000000     0.929145000000     0.272885000000   
N      0.008750000000     0.551400000000     0.227315000000   
C      0.485000000000     0.881250000000     0.286300000000   
H      0.472400000000     0.870850000000     0.316550000000   
C      0.000000000000     0.631300000000     0.250000000000   
C      0.000000000000     0.848700000000     0.250000000000   
C      0.013450000000     0.599650000000     0.213700000000   
H      0.024600000000     0.610250000000     0.183000000000   
C      0.000000000000     0.686950000000     0.250000000000   
C      0.000000000000     0.794100000000     0.250000000000   
C      0.014350000000     0.714200000000     0.210350000000   
H      0.024650000000     0.696800000000     0.182300000000   
C      0.014250000000     0.766500000000     0.210150000000   
H      0.024200000000     0.783750000000     0.181900000000   
F      0.030550000000     0.691250000000     0.167750000000   
F      0.027250000000     0.788000000000     0.169650000000   
Co     0.490140000000     0.990140000000     0.812500000000   
N      0.490600000000     0.929145000000     0.772885000000   
N      0.008750000000     0.551400000000     0.727315000000   
C      0.485000000000     0.881250000000     0.786300000000   
H      0.472400000000     0.870850000000     0.816550000000   
C      0.000000000000     0.631300000000     0.750000000000   
C      0.000000000000     0.848700000000     0.750000000000   
C      0.013450000000     0.599650000000     0.713700000000   
H      0.024600000000     0.610250000000     0.683000000000   
C      0.000000000000     0.686950000000     0.750000000000   
C      0.000000000000     0.794100000000     0.750000000000   
C      0.014350000000     0.714200000000     0.710350000000   
H      0.024650000000     0.696800000000     0.682300000000   
C      0.014250000000     0.766500000000     0.710150000000   
H      0.024200000000     0.783750000000     0.681900000000   
F      0.030550000000     0.691250000000     0.667750000000   
F      0.027250000000     0.788000000000     0.669650000000   
Co     0.990140000000     0.490140000000     0.312500000000   
N      0.990600000000     0.429145000000     0.272885000000   
N      0.508750000000     0.051400000000     0.227315000000   
C      0.985000000000     0.381250000000     0.286300000000   
H      0.972400000000     0.370850000000     0.316550000000   
C      0.500000000000     0.131300000000     0.250000000000   
C      0.500000000000     0.348700000000     0.250000000000   
C      0.513450000000     0.099650000000     0.213700000000   
H      0.524600000000     0.110250000000     0.183000000000   
C      0.500000000000     0.186950000000     0.250000000000   
C      0.500000000000     0.294100000000     0.250000000000   
C      0.514350000000     0.214200000000     0.210350000000   
H      0.524650000000     0.196800000000     0.182300000000   
C      0.514250000000     0.266500000000     0.210150000000   
H      0.524200000000     0.283750000000     0.181900000000   
F      0.530550000000     0.191250000000     0.167750000000   
F      0.527250000000     0.288000000000     0.169650000000   
Co     0.990140000000     0.490140000000     0.812500000000   
N      0.990600000000     0.429145000000     0.772885000000   
N      0.508750000000     0.051400000000     0.727315000000   
C      0.985000000000     0.381250000000     0.786300000000   
H      0.972400000000     0.370850000000     0.816550000000   
C      0.500000000000     0.131300000000     0.750000000000   
C      0.500000000000     0.348700000000     0.750000000000   
C      0.513450000000     0.099650000000     0.713700000000   
H      0.524600000000     0.110250000000     0.683000000000   
C      0.500000000000     0.186950000000     0.750000000000   
C      0.500000000000     0.294100000000     0.750000000000   
C      0.514350000000     0.214200000000     0.710350000000   
H      0.524650000000     0.196800000000     0.682300000000   
C      0.514250000000     0.266500000000     0.710150000000   
H      0.524200000000     0.283750000000     0.681900000000   
F      0.530550000000     0.191250000000     0.667750000000   
F      0.527250000000     0.288000000000     0.669650000000   
Co     0.990140000000     0.990140000000     0.312500000000   
N      0.990600000000     0.929145000000     0.272885000000   
N      0.508750000000     0.551400000000     0.227315000000   
C      0.985000000000     0.881250000000     0.286300000000   
H      0.972400000000     0.870850000000     0.316550000000   
C      0.500000000000     0.631300000000     0.250000000000   
C      0.500000000000     0.848700000000     0.250000000000   
C      0.513450000000     0.599650000000     0.213700000000   
H      0.524600000000     0.610250000000     0.183000000000   
C      0.500000000000     0.686950000000     0.250000000000   
C      0.500000000000     0.794100000000     0.250000000000   
C      0.514350000000     0.714200000000     0.210350000000   
H      0.524650000000     0.696800000000     0.182300000000   
C      0.514250000000     0.766500000000     0.210150000000   
H      0.524200000000     0.783750000000     0.181900000000   
F      0.530550000000     0.691250000000     0.167750000000   
F      0.527250000000     0.788000000000     0.169650000000   
Co     0.990140000000     0.990140000000     0.812500000000   
N      0.990600000000     0.929145000000     0.772885000000   
N      0.508750000000     0.551400000000     0.727315000000   
C      0.985000000000     0.881250000000     0.786300000000   
H      0.972400000000     0.870850000000     0.816550000000   
C      0.500000000000     0.631300000000     0.750000000000   
C      0.500000000000     0.848700000000     0.750000000000   
C      0.513450000000     0.599650000000     0.713700000000   
H      0.524600000000     0.610250000000     0.683000000000   
C      0.500000000000     0.686950000000     0.750000000000   
C      0.500000000000     0.794100000000     0.750000000000   
C      0.514350000000     0.714200000000     0.710350000000   
H      0.524650000000     0.696800000000     0.682300000000   
C      0.514250000000     0.766500000000     0.710150000000   
H      0.524200000000     0.783750000000     0.681900000000   
F      0.530550000000     0.691250000000     0.667750000000   
F      0.527250000000     0.788000000000     0.669650000000   
%ENDBLOCK POSITIONS_FRAC
