%BLOCK LATTICE_CART
ang    # angstrom units
  31.025000000000    0.000000000000     0.000000000000   
  0.000000000000     31.025000000000    0.000000000000   
  0.000000000000     0.000000000000     31.025000000000  
%ENDBLOCK LATTICE_CART

%BLOCK POSITIONS_FRAC
N      0.337600000000     0.274320000000     0.225679000000   
C      0.380800000000     0.266300000000     0.233696000000   
N      0.312600000000     0.250000000000     0.250000000000   
C      0.420500000000     0.279100000000     0.220947000000   
C      0.461700000000     0.266000000000     0.233970000000   
O      0.500000000000     0.282600000000     0.217374000000   
Zn     0.250000000000     0.250000000000     0.250000000000   
O      0.356100000000     0.356100000000     0.198500000000   
Zn     0.315100000000     0.315100000000     0.184938000000   
C      0.352300000000     0.352300000000     0.147677000000   
H      0.420468000000     0.300249000000     0.199751000000   
H      0.370560000000     0.370560000000     0.129440000000   
%ENDBLOCK POSITIONS_FRAC
