# MFU_4I_MFU4l_HCOO
1.000000
 31.0249999999999986   0.0000000000000000         0.0000000000
  0.0000000000000019  31.0249999999999986         0.0000000000
  0.0000000000000019   0.0000000000000019        31.0250000000
N C N C C O Zn O Zn C H H 
1 1 1 1 1 1 1 1 1 1 1 1 
Direct
0.3376000000000000 0.2743200000000000 0.2256790000000000
0.3808000000000000 0.2663000000000000 0.2336960000000000
0.3125999999999999 0.2500000000000000 0.2500000000000000
0.4204999999999999 0.2791000000000000 0.2209470000000000
0.4616999999999999 0.2660000000000000 0.2339700000000000
0.4999999999999999 0.2826000000000000 0.2173740000000000
0.2499999999999999 0.2500000000000000 0.2500000000000000
0.3561000000000000 0.3561000000000000 0.1985000000000000
0.3150999999999999 0.3150999999999999 0.1849380000000000
0.3522999999999999 0.3522999999999999 0.1476770000000000
0.4204680000000000 0.3002489999999999 0.1997510000000000
0.3705599999999999 0.3705599999999999 0.1294400000000000
