# Co-dmd_mkt018s_sq
1.000000
 26.5818000000000012   0.0000000000000000         0.0000000000
  0.0000000000000016  26.5818000000000012         0.0000000000
  0.0000000000000018   0.0000000000000018        28.7120000000
Co N N C H C C C D C D C C C H 
8 8 8 8 8 8 8 8 8 8 8 8 8 8 8 
Direct
0.4945600000000000 0.4945600000000001 0.0625000000000000
0.4945600000000000 0.4945600000000001 0.5625000000000000
0.4945600000000001 0.9945600000000000 0.0625000000000000
0.4945600000000001 0.9945600000000000 0.5625000000000000
0.9945600000000000 0.4945600000000001 0.0625000000000000
0.9945600000000000 0.4945600000000001 0.5625000000000000
0.9945599999999999 0.9945600000000000 0.0625000000000000
0.9945599999999999 0.9945600000000000 0.5625000000000000
0.0555800000000000 0.4964100000000000 0.1015650000000000
0.0555800000000000 0.4964100000000001 0.6015650000000000
0.0555800000000000 0.9964100000000000 0.1015650000000000
0.0555800000000000 0.9964100000000000 0.6015650000000000
0.5555800000000000 0.4964100000000000 0.1015650000000000
0.5555800000000001 0.4964100000000001 0.6015650000000000
0.5555800000000000 0.9964100000000000 0.1015650000000000
0.5555800000000001 0.9964100000000000 0.6015650000000000
0.4337550000000001 0.0075750000000000 0.1475300000000000
0.4337550000000001 0.0075750000000000 0.6475299999999999
0.4337550000000000 0.5075750000000000 0.1475300000000000
0.4337550000000000 0.5075750000000001 0.6475299999999999
0.9337550000000001 0.0075750000000000 0.1475300000000000
0.9337550000000001 0.0075750000000000 0.6475299999999999
0.9337550000000001 0.5075750000000000 0.1475300000000000
0.9337550000000001 0.5075750000000001 0.6475299999999999
0.1039650000000000 0.4946000000000000 0.0877500000000000
0.1039650000000000 0.4946000000000000 0.5877500000000001
0.1039650000000000 0.9946000000000000 0.0877500000000000
0.1039650000000000 0.9946000000000000 0.5877500000000001
0.6039650000000000 0.4946000000000000 0.0877500000000000
0.6039650000000000 0.4946000000000000 0.5877500000000001
0.6039649999999999 0.9946000000000000 0.0877500000000000
0.6039649999999999 0.9946000000000000 0.5877500000000001
0.1143000000000000 0.4903000000000000 0.0570500000000000
0.1143000000000000 0.4903000000000000 0.5570500000000000
0.1143000000000000 0.9903000000000001 0.0570500000000000
0.1143000000000000 0.9903000000000001 0.5570500000000000
0.6143000000000000 0.4903000000000000 0.0570500000000000
0.6143000000000000 0.4903000000000000 0.5570500000000000
0.6142999999999998 0.9903000000000001 0.0570500000000000
0.6142999999999998 0.9903000000000001 0.5570500000000000
0.1362000000000000 0.0000000000000000 0.1250000000000000
0.1362000000000000 0.0000000000000000 0.6250000000000000
0.1362000000000000 0.5000000000000000 0.1250000000000000
0.1362000000000000 0.5000000000000001 0.6250000000000000
0.6362000000000000 0.0000000000000000 0.1250000000000000
0.6362000000000000 0.0000000000000000 0.6250000000000000
0.6362000000000000 0.5000000000000000 0.1250000000000000
0.6362000000000000 0.5000000000000001 0.6250000000000000
0.1917500000000000 0.0000000000000000 0.1250000000000000
0.1917500000000000 0.0000000000000000 0.6250000000000000
0.1917500000000000 0.5000000000000000 0.1250000000000000
0.1917500000000000 0.5000000000000001 0.6250000000000000
0.6917500000000001 0.0000000000000000 0.1250000000000000
0.6917500000000001 0.0000000000000000 0.6250000000000000
0.6917500000000001 0.5000000000000000 0.1250000000000000
0.6917500000000001 0.5000000000000001 0.6250000000000000
0.2182400000000000 0.0116500000000000 0.1647650000000000
0.2182400000000000 0.0116500000000000 0.6647650000000001
0.2182400000000000 0.5116500000000000 0.1647650000000000
0.2182400000000000 0.5116500000000002 0.6647650000000001
0.7182400000000000 0.0116500000000000 0.1647650000000000
0.7182400000000000 0.0116500000000000 0.6647650000000001
0.7182400000000000 0.5116500000000000 0.1647650000000000
0.7182400000000000 0.5116500000000002 0.6647650000000001
0.2010000000000000 0.0201000000000000 0.1918500000000000
0.2010000000000000 0.0201000000000000 0.6918500000000000
0.2010000000000000 0.5201000000000000 0.1918500000000000
0.2010000000000000 0.5201000000000001 0.6918500000000000
0.7010000000000001 0.0201000000000000 0.1918500000000000
0.7010000000000001 0.0201000000000000 0.6918500000000000
0.7010000000000001 0.5201000000000000 0.1918500000000000
0.7010000000000001 0.5201000000000001 0.6918500000000000
0.2708500000000000 0.0109500000000000 0.1648050000000000
0.2708500000000000 0.0109500000000000 0.6648050000000000
0.2708500000000000 0.5109500000000000 0.1648050000000000
0.2708500000000000 0.5109500000000001 0.6648050000000000
0.7708500000000001 0.0109500000000000 0.1648050000000000
0.7708500000000001 0.0109500000000000 0.6648050000000000
0.7708500000000001 0.5109500000000000 0.1648050000000000
0.7708500000000001 0.5109500000000001 0.6648050000000000
0.2879500000000000 0.0180500000000000 0.1923000000000000
0.2879500000000000 0.0180500000000000 0.6923000000000000
0.2879500000000000 0.5180500000000000 0.1923000000000000
0.2879499999999999 0.5180500000000001 0.6923000000000000
0.7879499999999999 0.0180500000000000 0.1923000000000000
0.7879499999999999 0.0180500000000000 0.6923000000000000
0.7879499999999999 0.5180500000000000 0.1923000000000000
0.7879499999999999 0.5180500000000001 0.6923000000000000
0.2980500000000000 0.0000000000000000 0.1250000000000000
0.2980500000000000 0.0000000000000000 0.6250000000000000
0.2980500000000000 0.5000000000000000 0.1250000000000000
0.2980500000000000 0.5000000000000001 0.6250000000000000
0.7980499999999999 0.0000000000000000 0.1250000000000000
0.7980499999999999 0.0000000000000000 0.6250000000000000
0.7980499999999999 0.5000000000000000 0.1250000000000000
0.7980499999999999 0.5000000000000001 0.6250000000000000
0.3535500000000000 0.0000000000000000 0.1250000000000000
0.3535500000000000 0.0000000000000000 0.6250000000000000
0.3535500000000000 0.5000000000000000 0.1250000000000000
0.3535500000000000 0.5000000000000001 0.6250000000000000
0.8535500000000001 0.0000000000000000 0.1250000000000000
0.8535500000000001 0.0000000000000000 0.6250000000000000
0.8535500000000001 0.5000000000000000 0.1250000000000000
0.8535500000000001 0.5000000000000001 0.6250000000000000
0.3856900000000000 0.0122500000000000 0.1608000000000000
0.3856900000000000 0.0122500000000000 0.6608000000000001
0.3856900000000000 0.5122500000000000 0.1608000000000000
0.3856900000000000 0.5122500000000001 0.6608000000000001
0.8856900000000000 0.0122500000000000 0.1608000000000000
0.8856900000000000 0.0122500000000000 0.6608000000000001
0.8856900000000000 0.5122500000000000 0.1608000000000000
0.8856900000000000 0.5122500000000001 0.6608000000000001
0.3754000000000000 0.0224500000000000 0.1903000000000000
0.3754000000000001 0.0224500000000000 0.6903000000000000
0.3754000000000000 0.5224500000000000 0.1903000000000000
0.3754000000000000 0.5224500000000001 0.6903000000000000
0.8754000000000000 0.0224500000000000 0.1903000000000000
0.8754000000000000 0.0224500000000000 0.6903000000000000
0.8754000000000000 0.5224500000000000 0.1903000000000000
0.8754000000000000 0.5224500000000001 0.6903000000000000
