10
cnIm_neutral charge=0 2-시아노이미다졸 (전구체)
N       3.36952882     0.18554890     0.04430109
C       2.21145767     0.24788754    -0.01613845
C       0.78624256     0.24560860    -0.06219750
N       0.02817186     1.25353796    -0.44854279
C      -1.26544158     0.81154081    -0.33261755
C      -1.29721280    -0.48200360     0.13015633
N       0.01501375    -0.83062095     0.29833238
H      -2.10305879     1.44870735    -0.58864234
H      -2.11050194    -1.16051856     0.34668803
H       0.36580046    -1.71968805     0.62866079
