12
mIm_neutral charge=0 2-메틸이미다졸 (전구체)
C       1.88084682    -0.14490620    -0.06220994
C       0.40111864    -0.20445827    -0.07278248
N      -0.34720987    -1.23058651    -0.41967678
C      -1.64384707    -0.81381941    -0.26812832
C      -1.68758957     0.48463472     0.17742188
N      -0.37948624     0.86225296     0.29820447
H       2.25083802     0.06341254     0.94639088
H       2.23964663     0.64002775    -0.73504637
H       2.30712282    -1.09742886    -0.39169533
H      -2.47474643    -1.47139017    -0.48808780
H      -2.50676376     1.14900664     0.41069909
H      -0.03992999     1.76325481     0.60491069
