10
nIm_anion charge=-1 2-나이트로이미다졸레이트
O       2.65876703     0.83693205     0.63240564
N       2.04899966    -0.10460384     0.08753186
O       2.60403079    -1.10559509    -0.40760308
C       0.60265659    -0.03077901     0.02576919
N      -0.15603389     0.99512636     0.51987600
C      -1.44387924     0.68199117     0.26280556
C      -1.47811496    -0.53283789    -0.38759540
N      -0.21159098    -0.97633725    -0.53561825
H      -2.27884722     1.30935203     0.53903578
H      -2.34598778    -1.07324853    -0.73660729
