# Co-MOF-9_1_a_sq_CCDC2
1.000000
 30.8939999999999984   0.0000000000000000         0.0000000000
 -0.3566475400131064  31.0539520597975205         0.0000000000
 -8.2326503876098762  -9.5946850324773791        32.8834059477
Co Co Co Co C H C H C H C H C C C H C C H C H C C C H C H C H C H C C C H C H C C C H C C C C H C H C H C H C C C H C H C C C H C C C H C H C H C H C C C H C H C C C H C C C H C H H H C H H H C H C H H H C H H H N N N N N N O O O O O O O O O O O O O O O O O O 
18 18 18 18 18 18 18 18 18 18 18 18 18 18 18 18 18 18 18 18 18 18 18 18 18 18 18 18 18 18 18 18 18 18 18 18 18 18 18 18 18 18 18 18 18 18 18 18 18 18 18 18 18 18 18 18 18 18 18 18 18 18 18 18 18 18 18 18 18 18 18 18 18 18 18 18 18 18 18 18 18 18 18 18 18 18 18 18 18 18 18 18 18 18 18 18 18 18 18 18 18 18 18 18 18 18 18 18 18 18 18 18 18 18 18 18 18 18 18 18 18 18 18 18 18 18 18 18 
Direct
0.0703566666666667 0.0859433333333333 0.2058800000000000
0.0703566666666667 0.0859433333333334 0.7058800000000001
0.0703566666666667 0.4192766666666667 0.2058800000000000
0.0703566666666667 0.4192766666666667 0.7058800000000001
0.0703566666666667 0.7526100000000002 0.2058800000000000
0.0703566666666667 0.7526100000000001 0.7058800000000001
0.4036900000000000 0.0859433333333333 0.2058800000000000
0.4036900000000000 0.0859433333333334 0.7058800000000001
0.4036900000000000 0.4192766666666667 0.2058800000000000
0.4036900000000001 0.4192766666666667 0.7058800000000001
0.4036900000000000 0.7526100000000002 0.2058800000000000
0.4036900000000000 0.7526100000000001 0.7058800000000001
0.7370233333333334 0.0859433333333333 0.2058800000000000
0.7370233333333333 0.0859433333333334 0.7058800000000001
0.7370233333333334 0.4192766666666667 0.2058800000000000
0.7370233333333333 0.4192766666666667 0.7058800000000001
0.7370233333333333 0.7526100000000002 0.2058800000000000
0.7370233333333334 0.7526100000000001 0.7058800000000001
0.1369733333333333 0.0053800000000000 0.1691650000000000
0.1369733333333334 0.0053800000000001 0.6691650000000001
0.1369733333333333 0.3387133333333334 0.1691650000000000
0.1369733333333334 0.3387133333333334 0.6691650000000001
0.1369733333333333 0.6720466666666668 0.1691650000000000
0.1369733333333334 0.6720466666666668 0.6691650000000001
0.4703066666666667 0.0053800000000000 0.1691650000000000
0.4703066666666667 0.0053800000000001 0.6691650000000001
0.4703066666666667 0.3387133333333334 0.1691650000000000
0.4703066666666667 0.3387133333333334 0.6691650000000001
0.4703066666666667 0.6720466666666668 0.1691650000000000
0.4703066666666667 0.6720466666666668 0.6691650000000001
0.8036400000000000 0.0053800000000000 0.1691650000000000
0.8036399999999999 0.0053800000000001 0.6691650000000001
0.8036400000000000 0.3387133333333334 0.1691650000000000
0.8036400000000001 0.3387133333333334 0.6691650000000001
0.8036400000000000 0.6720466666666668 0.1691650000000000
0.8036400000000001 0.6720466666666668 0.6691650000000001
0.2528666666666667 0.2249500000000000 0.4210750000000000
0.2528666666666667 0.2249500000000000 0.9210750000000000
0.2528666666666667 0.5582833333333335 0.4210750000000000
0.2528666666666667 0.5582833333333334 0.9210750000000000
0.2528666666666667 0.8916166666666667 0.4210750000000000
0.2528666666666667 0.8916166666666667 0.9210750000000000
0.5861999999999999 0.2249500000000000 0.4210750000000000
0.5862000000000001 0.2249500000000000 0.9210750000000000
0.5862000000000001 0.5582833333333335 0.4210750000000000
0.5862000000000001 0.5582833333333334 0.9210750000000000
0.5861999999999999 0.8916166666666667 0.4210750000000000
0.5862000000000001 0.8916166666666667 0.9210750000000000
0.9195333333333333 0.2249500000000000 0.4210750000000000
0.9195333333333333 0.2249500000000000 0.9210750000000000
0.9195333333333333 0.5582833333333335 0.4210750000000000
0.9195333333333333 0.5582833333333334 0.9210750000000000
0.9195333333333332 0.8916166666666667 0.4210750000000000
0.9195333333333333 0.8916166666666667 0.9210750000000000
0.0006000000000000 0.1579900000000000 0.4485850000000000
0.0006000000000000 0.1579900000000000 0.9485850000000000
0.0006000000000000 0.4913233333333333 0.4485850000000000
0.0006000000000000 0.4913233333333333 0.9485850000000000
0.0006000000000000 0.8246566666666668 0.4485850000000000
0.0006000000000001 0.8246566666666668 0.9485850000000000
0.3339333333333334 0.1579900000000000 0.4485850000000000
0.3339333333333334 0.1579900000000000 0.9485850000000000
0.3339333333333334 0.4913233333333333 0.4485850000000000
0.3339333333333334 0.4913233333333333 0.9485850000000000
0.3339333333333334 0.8246566666666668 0.4485850000000000
0.3339333333333334 0.8246566666666668 0.9485850000000000
0.6672666666666669 0.1579900000000000 0.4485850000000000
0.6672666666666668 0.1579900000000000 0.9485850000000000
0.6672666666666669 0.4913233333333333 0.4485850000000000
0.6672666666666669 0.4913233333333333 0.9485850000000000
0.6672666666666669 0.8246566666666668 0.4485850000000000
0.6672666666666668 0.8246566666666668 0.9485850000000000
0.2418666666666667 0.2056666666666667 0.3271500000000000
0.2418666666666667 0.2056666666666667 0.8271500000000002
0.2418666666666667 0.5390000000000000 0.3271500000000000
0.2418666666666667 0.5390000000000001 0.8271500000000002
0.2418666666666667 0.8723333333333333 0.3271500000000000
0.2418666666666667 0.8723333333333334 0.8271500000000002
0.5752000000000002 0.2056666666666667 0.3271500000000000
0.5752000000000002 0.2056666666666667 0.8271500000000002
0.5752000000000002 0.5390000000000000 0.3271500000000000
0.5752000000000002 0.5390000000000001 0.8271500000000002
0.5752000000000002 0.8723333333333333 0.3271500000000000
0.5752000000000002 0.8723333333333334 0.8271500000000002
0.9085333333333333 0.2056666666666667 0.3271500000000000
0.9085333333333334 0.2056666666666667 0.8271500000000002
0.9085333333333333 0.5390000000000000 0.3271500000000000
0.9085333333333334 0.5390000000000001 0.8271500000000002
0.9085333333333333 0.8723333333333333 0.3271500000000000
0.9085333333333332 0.8723333333333334 0.8271500000000002
0.2508000000000000 0.1776000000000000 0.3288500000000000
0.2508000000000000 0.1776000000000000 0.8288500000000000
0.2508000000000000 0.5109333333333334 0.3288500000000000
0.2508000000000000 0.5109333333333335 0.8288500000000000
0.2508000000000000 0.8442666666666667 0.3288500000000000
0.2508000000000000 0.8442666666666665 0.8288500000000000
0.5841333333333334 0.1776000000000000 0.3288500000000000
0.5841333333333334 0.1776000000000000 0.8288500000000000
0.5841333333333334 0.5109333333333334 0.3288500000000000
0.5841333333333334 0.5109333333333335 0.8288500000000000
0.5841333333333334 0.8442666666666667 0.3288500000000000
0.5841333333333334 0.8442666666666665 0.8288500000000000
0.9174666666666668 0.1776000000000000 0.3288500000000000
0.9174666666666665 0.1776000000000000 0.8288500000000000
0.9174666666666668 0.5109333333333334 0.3288500000000000
0.9174666666666667 0.5109333333333335 0.8288500000000000
0.9174666666666667 0.8442666666666667 0.3288500000000000
0.9174666666666667 0.8442666666666665 0.8288500000000000
0.2320666666666667 0.2147666666666667 0.2890000000000000
0.2320666666666667 0.2147666666666667 0.7889999999999999
0.2320666666666667 0.5480999999999999 0.2890000000000000
0.2320666666666667 0.5480999999999998 0.7889999999999999
0.2320666666666667 0.8814333333333333 0.2890000000000000
0.2320666666666667 0.8814333333333332 0.7889999999999999
0.5653999999999999 0.2147666666666667 0.2890000000000000
0.5654000000000001 0.2147666666666667 0.7889999999999999
0.5654000000000000 0.5480999999999999 0.2890000000000000
0.5654000000000000 0.5480999999999998 0.7889999999999999
0.5653999999999999 0.8814333333333333 0.2890000000000000
0.5654000000000000 0.8814333333333332 0.7889999999999999
0.8987333333333334 0.2147666666666667 0.2890000000000000
0.8987333333333335 0.2147666666666667 0.7889999999999999
0.8987333333333334 0.5480999999999999 0.2890000000000000
0.8987333333333335 0.5480999999999998 0.7889999999999999
0.8987333333333334 0.8814333333333333 0.2890000000000000
0.8987333333333335 0.8814333333333332 0.7889999999999999
0.2333333333333333 0.1927666666666667 0.2654500000000000
0.2333333333333334 0.1927666666666667 0.7654500000000000
0.2333333333333333 0.5261000000000000 0.2654500000000000
0.2333333333333334 0.5261000000000001 0.7654500000000000
0.2333333333333333 0.8594333333333334 0.2654500000000000
0.2333333333333334 0.8594333333333335 0.7654500000000000
0.5666666666666667 0.1927666666666667 0.2654500000000000
0.5666666666666667 0.1927666666666667 0.7654500000000000
0.5666666666666667 0.5261000000000000 0.2654500000000000
0.5666666666666667 0.5261000000000001 0.7654500000000000
0.5666666666666668 0.8594333333333334 0.2654500000000000
0.5666666666666668 0.8594333333333335 0.7654500000000000
0.9000000000000000 0.1927666666666667 0.2654500000000000
0.9000000000000000 0.1927666666666667 0.7654500000000000
0.9000000000000000 0.5261000000000000 0.2654500000000000
0.9000000000000001 0.5261000000000001 0.7654500000000000
0.9000000000000002 0.8594333333333334 0.2654500000000000
0.9000000000000002 0.8594333333333335 0.7654500000000000
0.2204333333333334 0.2579333333333333 0.2877000000000000
0.2204333333333334 0.2579333333333334 0.7877000000000002
0.2204333333333333 0.5912666666666667 0.2877000000000000
0.2204333333333334 0.5912666666666668 0.7877000000000002
0.2204333333333334 0.9246000000000001 0.2877000000000000
0.2204333333333334 0.9246000000000001 0.7877000000000002
0.5537666666666666 0.2579333333333333 0.2877000000000000
0.5537666666666667 0.2579333333333334 0.7877000000000002
0.5537666666666666 0.5912666666666667 0.2877000000000000
0.5537666666666667 0.5912666666666668 0.7877000000000002
0.5537666666666666 0.9246000000000001 0.2877000000000000
0.5537666666666667 0.9246000000000001 0.7877000000000002
0.8870999999999999 0.2579333333333333 0.2877000000000000
0.8870999999999999 0.2579333333333334 0.7877000000000002
0.8871000000000000 0.5912666666666667 0.2877000000000000
0.8870999999999999 0.5912666666666668 0.7877000000000002
0.8871000000000000 0.9246000000000001 0.2877000000000000
0.8871000000000000 0.9246000000000001 0.7877000000000002
0.2131333333333334 0.2642333333333334 0.2627000000000000
0.2131333333333334 0.2642333333333334 0.7626999999999999
0.2131333333333334 0.5975666666666667 0.2627000000000000
0.2131333333333334 0.5975666666666668 0.7626999999999999
0.2131333333333333 0.9309000000000001 0.2627000000000000
0.2131333333333334 0.9309000000000001 0.7626999999999999
0.5464666666666667 0.2642333333333334 0.2627000000000000
0.5464666666666668 0.2642333333333334 0.7626999999999999
0.5464666666666667 0.5975666666666667 0.2627000000000000
0.5464666666666668 0.5975666666666668 0.7626999999999999
0.5464666666666667 0.9309000000000001 0.2627000000000000
0.5464666666666668 0.9309000000000001 0.7626999999999999
0.8798000000000001 0.2642333333333334 0.2627000000000000
0.8798000000000001 0.2642333333333334 0.7626999999999999
0.8798000000000001 0.5975666666666667 0.2627000000000000
0.8798000000000002 0.5975666666666668 0.7626999999999999
0.8798000000000001 0.9309000000000001 0.2627000000000000
0.8798000000000001 0.9309000000000001 0.7626999999999999
0.2281666666666667 0.2792666666666667 0.3585000000000000
0.2281666666666667 0.2792666666666667 0.8585000000000000
0.2281666666666667 0.6126000000000001 0.3585000000000000
0.2281666666666667 0.6126000000000000 0.8585000000000000
0.2281666666666667 0.9459333333333335 0.3585000000000000
0.2281666666666667 0.9459333333333335 0.8585000000000000
0.5615000000000000 0.2792666666666667 0.3585000000000000
0.5615000000000001 0.2792666666666667 0.8585000000000000
0.5615000000000000 0.6126000000000001 0.3585000000000000
0.5615000000000001 0.6126000000000000 0.8585000000000000
0.5615000000000000 0.9459333333333335 0.3585000000000000
0.5615000000000001 0.9459333333333335 0.8585000000000000
0.8948333333333334 0.2792666666666667 0.3585000000000000
0.8948333333333334 0.2792666666666667 0.8585000000000000
0.8948333333333334 0.6126000000000001 0.3585000000000000
0.8948333333333334 0.6126000000000000 0.8585000000000000
0.8948333333333334 0.9459333333333335 0.3585000000000000
0.8948333333333334 0.9459333333333335 0.8585000000000000
0.2268000000000001 0.3013666666666667 0.3819500000000001
0.2268000000000001 0.3013666666666667 0.8819500000000001
0.2268000000000001 0.6347000000000000 0.3819500000000001
0.2268000000000001 0.6347000000000000 0.8819500000000001
0.2268000000000001 0.9680333333333335 0.3819500000000001
0.2268000000000000 0.9680333333333335 0.8819500000000001
0.5601333333333334 0.3013666666666667 0.3819500000000001
0.5601333333333334 0.3013666666666667 0.8819500000000001
0.5601333333333334 0.6347000000000000 0.3819500000000001
0.5601333333333334 0.6347000000000000 0.8819500000000001
0.5601333333333334 0.9680333333333335 0.3819500000000001
0.5601333333333334 0.9680333333333335 0.8819500000000001
0.8934666666666669 0.3013666666666667 0.3819500000000001
0.8934666666666669 0.3013666666666667 0.8819500000000001
0.8934666666666669 0.6347000000000000 0.3819500000000001
0.8934666666666670 0.6347000000000000 0.8819500000000001
0.8934666666666669 0.9680333333333335 0.3819500000000001
0.8934666666666670 0.9680333333333335 0.8819500000000001
0.2195000000000000 0.2905666666666667 0.3216500000000000
0.2195000000000000 0.2905666666666668 0.8216500000000000
0.2195000000000000 0.6239000000000001 0.3216500000000000
0.2195000000000000 0.6239000000000001 0.8216500000000000
0.2195000000000000 0.9572333333333335 0.3216500000000000
0.2195000000000000 0.9572333333333336 0.8216500000000000
0.5528333333333334 0.2905666666666667 0.3216500000000000
0.5528333333333335 0.2905666666666668 0.8216500000000000
0.5528333333333334 0.6239000000000001 0.3216500000000000
0.5528333333333334 0.6239000000000001 0.8216500000000000
0.5528333333333335 0.9572333333333335 0.3216500000000000
0.5528333333333334 0.9572333333333336 0.8216500000000000
0.8861666666666667 0.2905666666666667 0.3216500000000000
0.8861666666666665 0.2905666666666668 0.8216500000000000
0.8861666666666667 0.6239000000000001 0.3216500000000000
0.8861666666666667 0.6239000000000001 0.8216500000000000
0.8861666666666667 0.9572333333333335 0.3216500000000000
0.8861666666666667 0.9572333333333336 0.8216500000000000
0.2096666666666667 0.0047333333333334 0.3223500000000001
0.2096666666666667 0.0047333333333333 0.8223500000000000
0.2096666666666667 0.3380666666666667 0.3223500000000001
0.2096666666666667 0.3380666666666667 0.8223500000000000
0.2096666666666667 0.6714000000000002 0.3223500000000001
0.2096666666666667 0.6714000000000002 0.8223500000000000
0.5430000000000001 0.0047333333333334 0.3223500000000001
0.5430000000000001 0.0047333333333333 0.8223500000000000
0.5430000000000001 0.3380666666666667 0.3223500000000001
0.5430000000000001 0.3380666666666667 0.8223500000000000
0.5430000000000000 0.6714000000000002 0.3223500000000001
0.5430000000000001 0.6714000000000002 0.8223500000000000
0.8763333333333333 0.0047333333333334 0.3223500000000001
0.8763333333333334 0.0047333333333333 0.8223500000000000
0.8763333333333333 0.3380666666666667 0.3223500000000001
0.8763333333333334 0.3380666666666667 0.8223500000000000
0.8763333333333334 0.6714000000000002 0.3223500000000001
0.8763333333333334 0.6714000000000002 0.8223500000000000
0.2318000000000000 0.0387333333333333 0.3521000000000000
0.2318000000000001 0.0387333333333333 0.8521000000000001
0.2318000000000001 0.3720666666666668 0.3521000000000000
0.2318000000000001 0.3720666666666667 0.8521000000000001
0.2318000000000000 0.7054000000000001 0.3521000000000000
0.2318000000000001 0.7054000000000000 0.8521000000000001
0.5651333333333333 0.0387333333333333 0.3521000000000000
0.5651333333333334 0.0387333333333333 0.8521000000000001
0.5651333333333333 0.3720666666666668 0.3521000000000000
0.5651333333333334 0.3720666666666667 0.8521000000000001
0.5651333333333334 0.7054000000000001 0.3521000000000000
0.5651333333333335 0.7054000000000000 0.8521000000000001
0.8984666666666667 0.0387333333333333 0.3521000000000000
0.8984666666666669 0.0387333333333333 0.8521000000000001
0.8984666666666666 0.3720666666666668 0.3521000000000000
0.8984666666666669 0.3720666666666667 0.8521000000000001
0.8984666666666669 0.7054000000000001 0.3521000000000000
0.8984666666666669 0.7054000000000000 0.8521000000000001
0.2534666666666667 0.0331000000000000 0.3730500000000000
0.2534666666666667 0.0331000000000000 0.8730500000000000
0.2534666666666667 0.3664333333333334 0.3730500000000000
0.2534666666666667 0.3664333333333334 0.8730500000000000
0.2534666666666667 0.6997666666666666 0.3730500000000000
0.2534666666666667 0.6997666666666668 0.8730500000000000
0.5868000000000001 0.0331000000000000 0.3730500000000000
0.5868000000000002 0.0331000000000000 0.8730500000000000
0.5868000000000001 0.3664333333333334 0.3730500000000000
0.5868000000000001 0.3664333333333334 0.8730500000000000
0.5868000000000001 0.6997666666666666 0.3730500000000000
0.5868000000000001 0.6997666666666668 0.8730500000000000
0.9201333333333332 0.0331000000000000 0.3730500000000000
0.9201333333333332 0.0331000000000000 0.8730500000000000
0.9201333333333334 0.3664333333333334 0.3730500000000000
0.9201333333333332 0.3664333333333334 0.8730500000000000
0.9201333333333334 0.6997666666666666 0.3730500000000000
0.9201333333333334 0.6997666666666668 0.8730500000000000
0.2234000000000000 0.0839000000000000 0.3529000000000000
0.2234000000000000 0.0839000000000001 0.8529000000000000
0.2234000000000000 0.4172333333333334 0.3529000000000000
0.2234000000000001 0.4172333333333335 0.8529000000000000
0.2234000000000000 0.7505666666666667 0.3529000000000000
0.2234000000000001 0.7505666666666668 0.8529000000000000
0.5567333333333333 0.0839000000000000 0.3529000000000000
0.5567333333333333 0.0839000000000001 0.8529000000000000
0.5567333333333333 0.4172333333333334 0.3529000000000000
0.5567333333333333 0.4172333333333335 0.8529000000000000
0.5567333333333333 0.7505666666666667 0.3529000000000000
0.5567333333333333 0.7505666666666668 0.8529000000000000
0.8900666666666668 0.0839000000000000 0.3529000000000000
0.8900666666666668 0.0839000000000001 0.8529000000000000
0.8900666666666668 0.4172333333333334 0.3529000000000000
0.8900666666666668 0.4172333333333335 0.8529000000000000
0.8900666666666667 0.7505666666666667 0.3529000000000000
0.8900666666666668 0.7505666666666668 0.8529000000000000
0.1904000000000000 0.0913000000000000 0.3232500000000000
0.1904000000000001 0.0913000000000000 0.8232500000000000
0.1904000000000000 0.4246333333333334 0.3232500000000000
0.1904000000000001 0.4246333333333334 0.8232500000000000
0.1904000000000000 0.7579666666666666 0.3232500000000000
0.1904000000000001 0.7579666666666667 0.8232500000000000
0.5237333333333335 0.0913000000000000 0.3232500000000000
0.5237333333333335 0.0913000000000000 0.8232500000000000
0.5237333333333335 0.4246333333333334 0.3232500000000000
0.5237333333333335 0.4246333333333334 0.8232500000000000
0.5237333333333335 0.7579666666666666 0.3232500000000000
0.5237333333333335 0.7579666666666667 0.8232500000000000
0.8570666666666668 0.0913000000000000 0.3232500000000000
0.8570666666666669 0.0913000000000000 0.8232500000000000
0.8570666666666668 0.4246333333333334 0.3232500000000000
0.8570666666666669 0.4246333333333334 0.8232500000000000
0.8570666666666668 0.7579666666666666 0.3232500000000000
0.8570666666666668 0.7579666666666667 0.8232500000000000
0.1834333333333333 0.1205333333333333 0.3240500000000000
0.1834333333333334 0.1205333333333334 0.8240500000000001
0.1834333333333333 0.4538666666666666 0.3240500000000000
0.1834333333333334 0.4538666666666668 0.8240500000000001
0.1834333333333333 0.7872000000000000 0.3240500000000000
0.1834333333333334 0.7872000000000001 0.8240500000000001
0.5167666666666667 0.1205333333333333 0.3240500000000000
0.5167666666666668 0.1205333333333334 0.8240500000000001
0.5167666666666667 0.4538666666666666 0.3240500000000000
0.5167666666666668 0.4538666666666668 0.8240500000000001
0.5167666666666667 0.7872000000000000 0.3240500000000000
0.5167666666666668 0.7872000000000001 0.8240500000000001
0.8501000000000001 0.1205333333333333 0.3240500000000000
0.8501000000000001 0.1205333333333334 0.8240500000000001
0.8501000000000001 0.4538666666666666 0.3240500000000000
0.8501000000000001 0.4538666666666668 0.8240500000000001
0.8501000000000001 0.7872000000000000 0.3240500000000000
0.8501000000000001 0.7872000000000001 0.8240500000000001
0.1753333333333334 0.0117333333333334 0.2916000000000001
0.1753333333333334 0.0117333333333333 0.7916000000000001
0.1753333333333334 0.3450666666666666 0.2916000000000001
0.1753333333333334 0.3450666666666666 0.7916000000000001
0.1753333333333334 0.6784000000000000 0.2916000000000001
0.1753333333333334 0.6784000000000000 0.7916000000000001
0.5086666666666667 0.0117333333333334 0.2916000000000001
0.5086666666666667 0.0117333333333333 0.7916000000000001
0.5086666666666667 0.3450666666666666 0.2916000000000001
0.5086666666666667 0.3450666666666666 0.7916000000000001
0.5086666666666667 0.6784000000000000 0.2916000000000001
0.5086666666666668 0.6784000000000000 0.7916000000000001
0.8420000000000000 0.0117333333333334 0.2916000000000001
0.8420000000000001 0.0117333333333333 0.7916000000000001
0.8420000000000000 0.3450666666666666 0.2916000000000001
0.8420000000000001 0.3450666666666666 0.7916000000000001
0.8419999999999999 0.6784000000000000 0.2916000000000001
0.8420000000000001 0.6784000000000000 0.7916000000000001
0.1585333333333333 0.3208666666666667 0.2716000000000000
0.1585333333333334 0.3208666666666667 0.7716000000000002
0.1585333333333333 0.6542000000000000 0.2716000000000000
0.1585333333333334 0.6542000000000000 0.7716000000000002
0.1585333333333333 0.9875333333333334 0.2716000000000000
0.1585333333333334 0.9875333333333335 0.7716000000000002
0.4918666666666667 0.3208666666666667 0.2716000000000000
0.4918666666666667 0.3208666666666667 0.7716000000000002
0.4918666666666667 0.6542000000000000 0.2716000000000000
0.4918666666666667 0.6542000000000000 0.7716000000000002
0.4918666666666667 0.9875333333333334 0.2716000000000000
0.4918666666666667 0.9875333333333335 0.7716000000000002
0.8252000000000002 0.3208666666666667 0.2716000000000000
0.8252000000000002 0.3208666666666667 0.7716000000000002
0.8252000000000002 0.6542000000000000 0.2716000000000000
0.8252000000000002 0.6542000000000000 0.7716000000000002
0.8252000000000002 0.9875333333333334 0.2716000000000000
0.8252000000000002 0.9875333333333335 0.7716000000000002
0.1664666666666667 0.0557000000000000 0.2912000000000000
0.1664666666666667 0.0557000000000000 0.7912000000000000
0.1664666666666667 0.3890333333333333 0.2912000000000000
0.1664666666666667 0.3890333333333333 0.7912000000000000
0.1664666666666667 0.7223666666666667 0.2912000000000000
0.1664666666666667 0.7223666666666667 0.7912000000000000
0.4998000000000001 0.0557000000000000 0.2912000000000000
0.4998000000000001 0.0557000000000000 0.7912000000000000
0.4998000000000001 0.3890333333333333 0.2912000000000000
0.4998000000000000 0.3890333333333333 0.7912000000000000
0.4998000000000001 0.7223666666666667 0.2912000000000000
0.4998000000000000 0.7223666666666667 0.7912000000000000
0.8331333333333334 0.0557000000000000 0.2912000000000000
0.8331333333333335 0.0557000000000000 0.7912000000000000
0.8331333333333334 0.3890333333333333 0.2912000000000000
0.8331333333333335 0.3890333333333333 0.7912000000000000
0.8331333333333334 0.7223666666666667 0.2912000000000000
0.8331333333333335 0.7223666666666667 0.7912000000000000
0.1334666666666667 0.0654000000000000 0.2562500000000000
0.1334666666666667 0.0654000000000000 0.7562500000000000
0.1334666666666667 0.3987333333333333 0.2562500000000000
0.1334666666666667 0.3987333333333333 0.7562500000000000
0.1334666666666667 0.7320666666666668 0.2562500000000000
0.1334666666666667 0.7320666666666668 0.7562500000000000
0.4667999999999999 0.0654000000000000 0.2562500000000000
0.4668000000000000 0.0654000000000000 0.7562500000000000
0.4667999999999999 0.3987333333333333 0.2562500000000000
0.4668000000000001 0.3987333333333333 0.7562500000000000
0.4667999999999999 0.7320666666666668 0.2562500000000000
0.4668000000000000 0.7320666666666668 0.7562500000000000
0.8001333333333335 0.0654000000000000 0.2562500000000000
0.8001333333333334 0.0654000000000000 0.7562500000000000
0.8001333333333335 0.3987333333333333 0.2562500000000000
0.8001333333333334 0.3987333333333333 0.7562500000000000
0.8001333333333334 0.7320666666666668 0.2562500000000000
0.8001333333333334 0.7320666666666668 0.7562500000000000
0.1226000000000000 0.3321333333333334 0.0775000000000000
0.1226000000000000 0.3321333333333334 0.5775000000000000
0.1226000000000000 0.6654666666666667 0.0775000000000000
0.1226000000000000 0.6654666666666667 0.5775000000000000
0.1226000000000000 0.9988000000000001 0.0775000000000000
0.1226000000000000 0.9988000000000000 0.5775000000000000
0.4559333333333333 0.3321333333333334 0.0775000000000000
0.4559333333333333 0.3321333333333334 0.5775000000000000
0.4559333333333332 0.6654666666666667 0.0775000000000000
0.4559333333333333 0.6654666666666667 0.5775000000000000
0.4559333333333332 0.9988000000000001 0.0775000000000000
0.4559333333333333 0.9988000000000000 0.5775000000000000
0.7892666666666667 0.3321333333333334 0.0775000000000000
0.7892666666666668 0.3321333333333334 0.5775000000000000
0.7892666666666667 0.6654666666666667 0.0775000000000000
0.7892666666666667 0.6654666666666667 0.5775000000000000
0.7892666666666668 0.9988000000000001 0.0775000000000000
0.7892666666666667 0.9988000000000000 0.5775000000000000
0.0936666666666667 0.0042666666666667 0.0798000000000000
0.0936666666666667 0.0042666666666667 0.5798000000000000
0.0936666666666667 0.3376000000000000 0.0798000000000000
0.0936666666666667 0.3376000000000000 0.5798000000000000
0.0936666666666667 0.6709333333333333 0.0798000000000000
0.0936666666666667 0.6709333333333333 0.5798000000000000
0.4270000000000000 0.0042666666666667 0.0798000000000000
0.4270000000000001 0.0042666666666667 0.5798000000000000
0.4270000000000000 0.3376000000000000 0.0798000000000000
0.4270000000000001 0.3376000000000000 0.5798000000000000
0.4270000000000001 0.6709333333333333 0.0798000000000000
0.4270000000000001 0.6709333333333333 0.5798000000000000
0.7603333333333334 0.0042666666666667 0.0798000000000000
0.7603333333333334 0.0042666666666667 0.5798000000000000
0.7603333333333334 0.3376000000000000 0.0798000000000000
0.7603333333333334 0.3376000000000000 0.5798000000000000
0.7603333333333334 0.6709333333333333 0.0798000000000000
0.7603333333333335 0.6709333333333333 0.5798000000000000
0.1333666666666667 0.3290666666666667 0.0390000000000000
0.1333666666666667 0.3290666666666667 0.5390000000000000
0.1333666666666667 0.6624000000000000 0.0390000000000000
0.1333666666666667 0.6624000000000000 0.5390000000000000
0.1333666666666667 0.9957333333333335 0.0390000000000000
0.1333666666666667 0.9957333333333335 0.5390000000000000
0.4667000000000001 0.3290666666666667 0.0390000000000000
0.4667000000000001 0.3290666666666667 0.5390000000000000
0.4667000000000001 0.6624000000000000 0.0390000000000000
0.4667000000000002 0.6624000000000000 0.5390000000000000
0.4667000000000001 0.9957333333333335 0.0390000000000000
0.4667000000000001 0.9957333333333335 0.5390000000000000
0.8000333333333335 0.3290666666666667 0.0390000000000000
0.8000333333333334 0.3290666666666667 0.5390000000000000
0.8000333333333334 0.6624000000000000 0.0390000000000000
0.8000333333333334 0.6624000000000000 0.5390000000000000
0.8000333333333335 0.9957333333333335 0.0390000000000000
0.8000333333333334 0.9957333333333335 0.5390000000000000
0.1132333333333333 0.0022333333333333 0.0175500000000000
0.1132333333333334 0.0022333333333333 0.5175500000000000
0.1132333333333333 0.3355666666666666 0.0175500000000000
0.1132333333333334 0.3355666666666666 0.5175500000000000
0.1132333333333333 0.6688999999999999 0.0175500000000000
0.1132333333333334 0.6688999999999999 0.5175500000000000
0.4465666666666667 0.0022333333333333 0.0175500000000000
0.4465666666666668 0.0022333333333333 0.5175500000000000
0.4465666666666667 0.3355666666666666 0.0175500000000000
0.4465666666666668 0.3355666666666666 0.5175500000000000
0.4465666666666668 0.6688999999999999 0.0175500000000000
0.4465666666666668 0.6688999999999999 0.5175500000000000
0.7799000000000001 0.0022333333333333 0.0175500000000000
0.7799000000000000 0.0022333333333333 0.5175500000000000
0.7799000000000001 0.3355666666666666 0.0175500000000000
0.7799000000000001 0.3355666666666666 0.5175500000000000
0.7799000000000000 0.6688999999999999 0.0175500000000000
0.7799000000000001 0.6688999999999999 0.5175500000000000
0.1750000000000000 0.3160333333333333 0.0362000000000000
0.1750000000000001 0.3160333333333334 0.5362000000000000
0.1750000000000000 0.6493666666666666 0.0362000000000000
0.1750000000000001 0.6493666666666666 0.5362000000000000
0.1750000000000000 0.9827000000000000 0.0362000000000000
0.1750000000000001 0.9827000000000001 0.5362000000000000
0.5083333333333333 0.3160333333333333 0.0362000000000000
0.5083333333333333 0.3160333333333334 0.5362000000000000
0.5083333333333333 0.6493666666666666 0.0362000000000000
0.5083333333333334 0.6493666666666666 0.5362000000000000
0.5083333333333333 0.9827000000000000 0.0362000000000000
0.5083333333333333 0.9827000000000001 0.5362000000000000
0.8416666666666667 0.3160333333333333 0.0362000000000000
0.8416666666666668 0.3160333333333334 0.5362000000000000
0.8416666666666667 0.6493666666666666 0.0362000000000000
0.8416666666666668 0.6493666666666666 0.5362000000000000
0.8416666666666668 0.9827000000000000 0.0362000000000000
0.8416666666666668 0.9827000000000001 0.5362000000000000
0.1818666666666667 0.3090000000000000 0.0110000000000000
0.1818666666666667 0.3090000000000001 0.5110000000000001
0.1818666666666667 0.6423333333333333 0.0110000000000000
0.1818666666666667 0.6423333333333334 0.5110000000000001
0.1818666666666667 0.9756666666666667 0.0110000000000000
0.1818666666666667 0.9756666666666668 0.5110000000000001
0.5152000000000001 0.3090000000000000 0.0110000000000000
0.5152000000000001 0.3090000000000001 0.5110000000000001
0.5152000000000001 0.6423333333333333 0.0110000000000000
0.5152000000000001 0.6423333333333334 0.5110000000000001
0.5152000000000000 0.9756666666666667 0.0110000000000000
0.5152000000000001 0.9756666666666668 0.5110000000000001
0.8485333333333335 0.3090000000000000 0.0110000000000000
0.8485333333333336 0.3090000000000001 0.5110000000000001
0.8485333333333334 0.6423333333333333 0.0110000000000000
0.8485333333333336 0.6423333333333334 0.5110000000000001
0.8485333333333334 0.9756666666666667 0.0110000000000000
0.8485333333333336 0.9756666666666668 0.5110000000000001
0.1915666666666667 0.3173666666666666 0.1062000000000000
0.1915666666666667 0.3173666666666667 0.6062000000000000
0.1915666666666667 0.6506999999999999 0.1062000000000000
0.1915666666666667 0.6507000000000001 0.6062000000000000
0.1915666666666667 0.9840333333333332 0.1062000000000000
0.1915666666666667 0.9840333333333333 0.6062000000000000
0.5249000000000000 0.3173666666666666 0.1062000000000000
0.5249000000000001 0.3173666666666667 0.6062000000000000
0.5249000000000001 0.6506999999999999 0.1062000000000000
0.5249000000000001 0.6507000000000001 0.6062000000000000
0.5249000000000001 0.9840333333333332 0.1062000000000000
0.5249000000000001 0.9840333333333333 0.6062000000000000
0.8582333333333333 0.3173666666666666 0.1062000000000000
0.8582333333333332 0.3173666666666667 0.6062000000000000
0.8582333333333333 0.6506999999999999 0.1062000000000000
0.8582333333333333 0.6507000000000001 0.6062000000000000
0.8582333333333333 0.9840333333333332 0.1062000000000000
0.8582333333333332 0.9840333333333333 0.6062000000000000
0.2115000000000000 0.3126333333333333 0.1286500000000000
0.2115000000000001 0.3126333333333333 0.6286499999999999
0.2115000000000000 0.6459666666666667 0.1286500000000000
0.2115000000000001 0.6459666666666667 0.6286499999999999
0.2115000000000000 0.9792999999999999 0.1286500000000000
0.2115000000000001 0.9792999999999999 0.6286499999999999
0.5448333333333334 0.3126333333333333 0.1286500000000000
0.5448333333333335 0.3126333333333333 0.6286499999999999
0.5448333333333334 0.6459666666666667 0.1286500000000000
0.5448333333333335 0.6459666666666667 0.6286499999999999
0.5448333333333335 0.9792999999999999 0.1286500000000000
0.5448333333333336 0.9792999999999999 0.6286499999999999
0.8781666666666667 0.3126333333333333 0.1286500000000000
0.8781666666666667 0.3126333333333333 0.6286499999999999
0.8781666666666667 0.6459666666666667 0.1286500000000000
0.8781666666666667 0.6459666666666667 0.6286499999999999
0.8781666666666667 0.9792999999999999 0.1286500000000000
0.8781666666666669 0.9792999999999999 0.6286499999999999
0.2059000000000000 0.3131666666666667 0.0688500000000000
0.2059000000000000 0.3131666666666667 0.5688500000000001
0.2059000000000000 0.6465000000000001 0.0688500000000000
0.2059000000000001 0.6465000000000001 0.5688500000000001
0.2059000000000000 0.9798333333333333 0.0688500000000000
0.2059000000000000 0.9798333333333333 0.5688500000000001
0.5392333333333335 0.3131666666666667 0.0688500000000000
0.5392333333333335 0.3131666666666667 0.5688500000000001
0.5392333333333335 0.6465000000000001 0.0688500000000000
0.5392333333333335 0.6465000000000001 0.5688500000000001
0.5392333333333335 0.9798333333333333 0.0688500000000000
0.5392333333333335 0.9798333333333333 0.5688500000000001
0.8725666666666668 0.3131666666666667 0.0688500000000000
0.8725666666666667 0.3131666666666667 0.5688500000000001
0.8725666666666668 0.6465000000000001 0.0688500000000000
0.8725666666666667 0.6465000000000001 0.5688500000000001
0.8725666666666667 0.9798333333333333 0.0688500000000000
0.8725666666666667 0.9798333333333333 0.5688500000000001
0.2522000000000000 0.3022000000000000 0.0677500000000000
0.2522000000000000 0.3022000000000000 0.5677500000000000
0.2522000000000000 0.6355333333333333 0.0677500000000000
0.2522000000000000 0.6355333333333334 0.5677500000000000
0.2522000000000000 0.9688666666666665 0.0677500000000000
0.2522000000000000 0.9688666666666668 0.5677500000000000
0.5855333333333332 0.3022000000000000 0.0677500000000000
0.5855333333333334 0.3022000000000000 0.5677500000000000
0.5855333333333332 0.6355333333333333 0.0677500000000000
0.5855333333333334 0.6355333333333334 0.5677500000000000
0.5855333333333332 0.9688666666666665 0.0677500000000000
0.5855333333333334 0.9688666666666668 0.5677500000000000
0.9188666666666665 0.3022000000000000 0.0677500000000000
0.9188666666666666 0.3022000000000000 0.5677500000000000
0.9188666666666665 0.6355333333333333 0.0677500000000000
0.9188666666666666 0.6355333333333334 0.5677500000000000
0.9188666666666665 0.9688666666666665 0.0677500000000000
0.9188666666666666 0.9688666666666668 0.5677500000000000
0.2609333333333333 0.2678000000000000 0.0354000000000000
0.2609333333333334 0.2678000000000000 0.5354000000000000
0.2609333333333333 0.6011333333333333 0.0354000000000000
0.2609333333333334 0.6011333333333333 0.5354000000000000
0.2609333333333333 0.9344666666666667 0.0354000000000000
0.2609333333333334 0.9344666666666668 0.5354000000000000
0.5942666666666667 0.2678000000000000 0.0354000000000000
0.5942666666666667 0.2678000000000000 0.5354000000000000
0.5942666666666667 0.6011333333333333 0.0354000000000000
0.5942666666666667 0.6011333333333333 0.5354000000000000
0.5942666666666667 0.9344666666666667 0.0354000000000000
0.5942666666666667 0.9344666666666668 0.5354000000000000
0.9276000000000002 0.2678000000000000 0.0354000000000000
0.9276000000000001 0.2678000000000000 0.5354000000000000
0.9276000000000000 0.6011333333333333 0.0354000000000000
0.9276000000000001 0.6011333333333333 0.5354000000000000
0.9276000000000000 0.9344666666666667 0.0354000000000000
0.9276000000000000 0.9344666666666668 0.5354000000000000
0.2378666666666667 0.2510000000000000 0.0144000000000000
0.2378666666666667 0.2510000000000000 0.5144000000000000
0.2378666666666667 0.5843333333333334 0.0144000000000000
0.2378666666666667 0.5843333333333334 0.5144000000000000
0.2378666666666667 0.9176666666666667 0.0144000000000000
0.2378666666666667 0.9176666666666667 0.5144000000000000
0.5712000000000002 0.2510000000000000 0.0144000000000000
0.5712000000000000 0.2510000000000000 0.5144000000000000
0.5712000000000002 0.5843333333333334 0.0144000000000000
0.5712000000000000 0.5843333333333334 0.5144000000000000
0.5712000000000000 0.9176666666666667 0.0144000000000000
0.5712000000000000 0.9176666666666667 0.5144000000000000
0.9045333333333333 0.2510000000000000 0.0144000000000000
0.9045333333333332 0.2510000000000000 0.5144000000000000
0.9045333333333333 0.5843333333333334 0.0144000000000000
0.9045333333333332 0.5843333333333334 0.5144000000000000
0.9045333333333333 0.9176666666666667 0.0144000000000000
0.9045333333333332 0.9176666666666667 0.5144000000000000
0.2881666666666667 0.3253333333333334 0.1005500000000000
0.2881666666666667 0.3253333333333334 0.6005500000000000
0.2881666666666667 0.6586666666666666 0.1005500000000000
0.2881666666666667 0.6586666666666666 0.6005500000000000
0.2881666666666667 0.9920000000000001 0.1005500000000000
0.2881666666666667 0.9920000000000001 0.6005500000000000
0.6215000000000001 0.3253333333333334 0.1005500000000000
0.6215000000000002 0.3253333333333334 0.6005500000000000
0.6215000000000001 0.6586666666666666 0.1005500000000000
0.6215000000000002 0.6586666666666666 0.6005500000000000
0.6215000000000001 0.9920000000000001 0.1005500000000000
0.6215000000000002 0.9920000000000001 0.6005500000000000
0.9548333333333333 0.3253333333333334 0.1005500000000000
0.9548333333333333 0.3253333333333334 0.6005500000000000
0.9548333333333333 0.6586666666666666 0.1005500000000000
0.9548333333333333 0.6586666666666666 0.6005500000000000
0.9548333333333332 0.9920000000000001 0.1005500000000000
0.9548333333333333 0.9920000000000001 0.6005500000000000
0.2820666666666667 0.0130000000000000 0.1227000000000000
0.2820666666666667 0.0130000000000000 0.6227000000000001
0.2820666666666667 0.3463333333333333 0.1227000000000000
0.2820666666666667 0.3463333333333334 0.6227000000000001
0.2820666666666667 0.6796666666666668 0.1227000000000000
0.2820666666666667 0.6796666666666668 0.6227000000000001
0.6154000000000002 0.0130000000000000 0.1227000000000000
0.6154000000000002 0.0130000000000000 0.6227000000000001
0.6154000000000002 0.3463333333333333 0.1227000000000000
0.6154000000000002 0.3463333333333334 0.6227000000000001
0.6154000000000002 0.6796666666666668 0.1227000000000000
0.6154000000000002 0.6796666666666668 0.6227000000000001
0.9487333333333334 0.0130000000000000 0.1227000000000000
0.9487333333333334 0.0130000000000000 0.6227000000000001
0.9487333333333334 0.3463333333333333 0.1227000000000000
0.9487333333333334 0.3463333333333334 0.6227000000000001
0.9487333333333334 0.6796666666666668 0.1227000000000000
0.9487333333333334 0.6796666666666668 0.6227000000000001
0.3061666666666667 0.2600000000000000 0.0362500000000000
0.3061666666666667 0.2600000000000000 0.5362500000000000
0.3061666666666666 0.5933333333333335 0.0362500000000000
0.3061666666666667 0.5933333333333335 0.5362500000000000
0.3061666666666666 0.9266666666666669 0.0362500000000000
0.3061666666666667 0.9266666666666667 0.5362500000000000
0.6395000000000000 0.2600000000000000 0.0362500000000000
0.6395000000000001 0.2600000000000000 0.5362500000000000
0.6395000000000001 0.5933333333333335 0.0362500000000000
0.6395000000000001 0.5933333333333335 0.5362500000000000
0.6395000000000000 0.9266666666666669 0.0362500000000000
0.6395000000000001 0.9266666666666667 0.5362500000000000
0.9728333333333333 0.2600000000000000 0.0362500000000000
0.9728333333333334 0.2600000000000000 0.5362500000000000
0.9728333333333334 0.5933333333333335 0.0362500000000000
0.9728333333333334 0.5933333333333335 0.5362500000000000
0.9728333333333334 0.9266666666666669 0.0362500000000000
0.9728333333333335 0.9266666666666667 0.5362500000000000
0.3315666666666667 0.3174000000000000 0.1003000000000000
0.3315666666666667 0.3174000000000000 0.6003000000000002
0.3315666666666667 0.6507333333333333 0.1003000000000000
0.3315666666666667 0.6507333333333333 0.6003000000000002
0.3315666666666667 0.9840666666666666 0.1003000000000000
0.3315666666666667 0.9840666666666666 0.6003000000000002
0.6648999999999999 0.3174000000000000 0.1003000000000000
0.6649000000000000 0.3174000000000000 0.6003000000000002
0.6649000000000000 0.6507333333333333 0.1003000000000000
0.6649000000000000 0.6507333333333333 0.6003000000000002
0.6649000000000000 0.9840666666666666 0.1003000000000000
0.6649000000000000 0.9840666666666666 0.6003000000000002
0.9982333333333333 0.3174000000000000 0.1003000000000000
0.9982333333333333 0.3174000000000000 0.6003000000000002
0.9982333333333334 0.6507333333333333 0.1003000000000000
0.9982333333333333 0.6507333333333333 0.6003000000000002
0.9982333333333333 0.9840666666666666 0.1003000000000000
0.9982333333333334 0.9840666666666666 0.6003000000000002
0.0079000000000000 0.2827666666666667 0.0690000000000000
0.0079000000000000 0.2827666666666667 0.5690000000000000
0.0079000000000000 0.6161000000000000 0.0690000000000000
0.0079000000000000 0.6161000000000001 0.5690000000000000
0.0079000000000000 0.9494333333333335 0.0690000000000000
0.0079000000000000 0.9494333333333334 0.5690000000000000
0.3412333333333334 0.2827666666666667 0.0690000000000000
0.3412333333333334 0.2827666666666667 0.5690000000000000
0.3412333333333333 0.6161000000000000 0.0690000000000000
0.3412333333333334 0.6161000000000001 0.5690000000000000
0.3412333333333333 0.9494333333333335 0.0690000000000000
0.3412333333333334 0.9494333333333334 0.5690000000000000
0.6745666666666666 0.2827666666666667 0.0690000000000000
0.6745666666666668 0.2827666666666667 0.5690000000000000
0.6745666666666668 0.6161000000000000 0.0690000000000000
0.6745666666666668 0.6161000000000001 0.5690000000000000
0.6745666666666666 0.9494333333333335 0.0690000000000000
0.6745666666666668 0.9494333333333334 0.5690000000000000
0.0371000000000000 0.2751000000000000 0.0701000000000000
0.0371000000000000 0.2751000000000000 0.5701000000000001
0.0371000000000000 0.6084333333333333 0.0701000000000000
0.0371000000000000 0.6084333333333333 0.5701000000000001
0.0371000000000000 0.9417666666666668 0.0701000000000000
0.0371000000000000 0.9417666666666666 0.5701000000000001
0.3704333333333333 0.2751000000000000 0.0701000000000000
0.3704333333333334 0.2751000000000000 0.5701000000000001
0.3704333333333333 0.6084333333333333 0.0701000000000000
0.3704333333333333 0.6084333333333333 0.5701000000000001
0.3704333333333333 0.9417666666666668 0.0701000000000000
0.3704333333333333 0.9417666666666666 0.5701000000000001
0.7037666666666668 0.2751000000000000 0.0701000000000000
0.7037666666666668 0.2751000000000000 0.5701000000000001
0.7037666666666668 0.6084333333333333 0.0701000000000000
0.7037666666666668 0.6084333333333333 0.5701000000000001
0.7037666666666668 0.9417666666666668 0.0701000000000000
0.7037666666666667 0.9417666666666666 0.5701000000000001
0.3161000000000000 0.2231666666666667 0.0030500000000000
0.3161000000000000 0.2231666666666667 0.5030500000000000
0.3161000000000000 0.5565000000000001 0.0030500000000000
0.3161000000000000 0.5565000000000000 0.5030500000000000
0.3161000000000000 0.8898333333333335 0.0030500000000000
0.3161000000000000 0.8898333333333335 0.5030500000000000
0.6494333333333335 0.2231666666666667 0.0030500000000000
0.6494333333333335 0.2231666666666667 0.5030500000000000
0.6494333333333335 0.5565000000000001 0.0030500000000000
0.6494333333333335 0.5565000000000000 0.5030500000000000
0.6494333333333335 0.8898333333333335 0.0030500000000000
0.6494333333333335 0.8898333333333335 0.5030500000000000
0.9827666666666669 0.2231666666666667 0.0030500000000000
0.9827666666666668 0.2231666666666667 0.5030500000000000
0.9827666666666668 0.5565000000000001 0.0030500000000000
0.9827666666666668 0.5565000000000000 0.5030500000000000
0.9827666666666668 0.8898333333333335 0.0030500000000000
0.9827666666666668 0.8898333333333335 0.5030500000000000
0.0350333333333333 0.0091333333333333 0.1352000000000000
0.0350333333333334 0.0091333333333333 0.6352000000000000
0.0350333333333333 0.3424666666666667 0.1352000000000000
0.0350333333333334 0.3424666666666667 0.6352000000000000
0.0350333333333333 0.6758000000000001 0.1352000000000000
0.0350333333333334 0.6758000000000001 0.6352000000000000
0.3683666666666667 0.0091333333333333 0.1352000000000000
0.3683666666666667 0.0091333333333333 0.6352000000000000
0.3683666666666667 0.3424666666666667 0.1352000000000000
0.3683666666666668 0.3424666666666667 0.6352000000000000
0.3683666666666667 0.6758000000000001 0.1352000000000000
0.3683666666666667 0.6758000000000001 0.6352000000000000
0.7017000000000001 0.0091333333333333 0.1352000000000000
0.7017000000000001 0.0091333333333333 0.6352000000000000
0.7017000000000001 0.3424666666666667 0.1352000000000000
0.7017000000000001 0.3424666666666667 0.6352000000000000
0.7017000000000001 0.6758000000000001 0.1352000000000000
0.7017000000000001 0.6758000000000001 0.6352000000000000
0.2523000000000001 0.1225000000000000 0.3856500000000000
0.2523000000000001 0.1225000000000001 0.8856500000000000
0.2523000000000000 0.4558333333333334 0.3856500000000000
0.2523000000000001 0.4558333333333334 0.8856500000000000
0.2523000000000001 0.7891666666666667 0.3856500000000000
0.2523000000000001 0.7891666666666668 0.8856500000000000
0.5856333333333335 0.1225000000000000 0.3856500000000000
0.5856333333333335 0.1225000000000001 0.8856500000000000
0.5856333333333335 0.4558333333333334 0.3856500000000000
0.5856333333333335 0.4558333333333334 0.8856500000000000
0.5856333333333333 0.7891666666666667 0.3856500000000000
0.5856333333333335 0.7891666666666668 0.8856500000000000
0.9189666666666665 0.1225000000000000 0.3856500000000000
0.9189666666666665 0.1225000000000001 0.8856500000000000
0.9189666666666666 0.4558333333333334 0.3856500000000000
0.9189666666666665 0.4558333333333334 0.8856500000000000
0.9189666666666666 0.7891666666666667 0.3856500000000000
0.9189666666666666 0.7891666666666668 0.8856500000000000
0.0739666666666667 0.1316000000000001 0.4010500000000001
0.0739666666666667 0.1316000000000000 0.9010500000000000
0.0739666666666667 0.4649333333333334 0.4010500000000001
0.0739666666666667 0.4649333333333334 0.9010500000000000
0.0739666666666667 0.7982666666666667 0.4010500000000001
0.0739666666666667 0.7982666666666668 0.9010500000000000
0.4073000000000001 0.1316000000000001 0.4010500000000001
0.4073000000000000 0.1316000000000000 0.9010500000000000
0.4073000000000000 0.4649333333333334 0.4010500000000001
0.4073000000000000 0.4649333333333334 0.9010500000000000
0.4073000000000001 0.7982666666666667 0.4010500000000001
0.4073000000000001 0.7982666666666668 0.9010500000000000
0.7406333333333334 0.1316000000000001 0.4010500000000001
0.7406333333333334 0.1316000000000000 0.9010500000000000
0.7406333333333333 0.4649333333333334 0.4010500000000001
0.7406333333333333 0.4649333333333334 0.9010500000000000
0.7406333333333333 0.7982666666666667 0.4010500000000001
0.7406333333333334 0.7982666666666668 0.9010500000000000
0.0672000000000000 0.1580333333333334 0.3941500000000000
0.0672000000000000 0.1580333333333334 0.8941500000000000
0.0672000000000000 0.4913666666666667 0.3941500000000000
0.0672000000000001 0.4913666666666667 0.8941500000000000
0.0672000000000000 0.8247000000000000 0.3941500000000000
0.0672000000000000 0.8247000000000002 0.8941500000000000
0.4005333333333333 0.1580333333333334 0.3941500000000000
0.4005333333333334 0.1580333333333334 0.8941500000000000
0.4005333333333334 0.4913666666666667 0.3941500000000000
0.4005333333333334 0.4913666666666667 0.8941500000000000
0.4005333333333334 0.8247000000000000 0.3941500000000000
0.4005333333333334 0.8247000000000002 0.8941500000000000
0.7338666666666668 0.1580333333333334 0.3941500000000000
0.7338666666666668 0.1580333333333334 0.8941500000000000
0.7338666666666667 0.4913666666666667 0.3941500000000000
0.7338666666666667 0.4913666666666667 0.8941500000000000
0.7338666666666667 0.8247000000000000 0.3941500000000000
0.7338666666666668 0.8247000000000002 0.8941500000000000
0.1054666666666667 0.1054666666666667 0.3838000000000000
0.1054666666666667 0.1054666666666667 0.8837999999999999
0.1054666666666667 0.4388000000000000 0.3838000000000000
0.1054666666666668 0.4388000000000000 0.8837999999999999
0.1054666666666667 0.7721333333333333 0.3838000000000000
0.1054666666666667 0.7721333333333333 0.8837999999999999
0.4388000000000000 0.1054666666666667 0.3838000000000000
0.4388000000000001 0.1054666666666667 0.8837999999999999
0.4388000000000000 0.4388000000000000 0.3838000000000000
0.4388000000000001 0.4388000000000000 0.8837999999999999
0.4388000000000000 0.7721333333333333 0.3838000000000000
0.4388000000000001 0.7721333333333333 0.8837999999999999
0.7721333333333332 0.1054666666666667 0.3838000000000000
0.7721333333333333 0.1054666666666667 0.8837999999999999
0.7721333333333332 0.4388000000000000 0.3838000000000000
0.7721333333333333 0.4388000000000000 0.8837999999999999
0.7721333333333332 0.7721333333333333 0.3838000000000000
0.7721333333333333 0.7721333333333333 0.8837999999999999
0.1211333333333333 0.1154000000000000 0.3678000000000000
0.1211333333333334 0.1154000000000001 0.8678000000000000
0.1211333333333333 0.4487333333333334 0.3678000000000000
0.1211333333333334 0.4487333333333334 0.8678000000000000
0.1211333333333333 0.7820666666666667 0.3678000000000000
0.1211333333333334 0.7820666666666667 0.8678000000000000
0.4544666666666667 0.1154000000000000 0.3678000000000000
0.4544666666666667 0.1154000000000001 0.8678000000000000
0.4544666666666667 0.4487333333333334 0.3678000000000000
0.4544666666666667 0.4487333333333334 0.8678000000000000
0.4544666666666666 0.7820666666666667 0.3678000000000000
0.4544666666666667 0.7820666666666667 0.8678000000000000
0.7877999999999999 0.1154000000000000 0.3678000000000000
0.7878000000000001 0.1154000000000001 0.8678000000000000
0.7877999999999999 0.4487333333333334 0.3678000000000000
0.7877999999999999 0.4487333333333334 0.8678000000000000
0.7877999999999999 0.7820666666666667 0.3678000000000000
0.7877999999999999 0.7820666666666667 0.8678000000000000
0.0594666666666667 0.0790000000000000 0.4317000000000000
0.0594666666666668 0.0790000000000000 0.9317000000000001
0.0594666666666667 0.4123333333333334 0.4317000000000000
0.0594666666666667 0.4123333333333334 0.9317000000000001
0.0594666666666667 0.7456666666666667 0.4317000000000000
0.0594666666666667 0.7456666666666667 0.9317000000000001
0.3928000000000000 0.0790000000000000 0.4317000000000000
0.3928000000000001 0.0790000000000000 0.9317000000000001
0.3928000000000000 0.4123333333333334 0.4317000000000000
0.3928000000000001 0.4123333333333334 0.9317000000000001
0.3928000000000000 0.7456666666666667 0.4317000000000000
0.3928000000000001 0.7456666666666667 0.9317000000000001
0.7261333333333334 0.0790000000000000 0.4317000000000000
0.7261333333333335 0.0790000000000000 0.9317000000000001
0.7261333333333334 0.4123333333333334 0.4317000000000000
0.7261333333333335 0.4123333333333334 0.9317000000000001
0.7261333333333334 0.7456666666666667 0.4317000000000000
0.7261333333333334 0.7456666666666667 0.9317000000000001
0.0440000000000000 0.0694333333333333 0.4480000000000000
0.0440000000000000 0.0694333333333333 0.9480000000000000
0.0440000000000000 0.4027666666666667 0.4480000000000000
0.0440000000000000 0.4027666666666667 0.9480000000000000
0.0440000000000000 0.7361000000000001 0.4480000000000000
0.0440000000000000 0.7361000000000000 0.9480000000000000
0.3773333333333333 0.0694333333333333 0.4480000000000000
0.3773333333333334 0.0694333333333333 0.9480000000000000
0.3773333333333334 0.4027666666666667 0.4480000000000000
0.3773333333333334 0.4027666666666667 0.9480000000000000
0.3773333333333333 0.7361000000000001 0.4480000000000000
0.3773333333333334 0.7361000000000000 0.9480000000000000
0.7106666666666667 0.0694333333333333 0.4480000000000000
0.7106666666666666 0.0694333333333333 0.9480000000000000
0.7106666666666667 0.4027666666666667 0.4480000000000000
0.7106666666666666 0.4027666666666667 0.9480000000000000
0.7106666666666667 0.7361000000000001 0.4480000000000000
0.7106666666666666 0.7361000000000000 0.9480000000000000
0.1119666666666667 0.0640666666666667 0.3919000000000000
0.1119666666666668 0.0640666666666667 0.8919000000000000
0.1119666666666667 0.3974000000000000 0.3919000000000000
0.1119666666666668 0.3974000000000001 0.8919000000000000
0.1119666666666667 0.7307333333333332 0.3919000000000000
0.1119666666666668 0.7307333333333333 0.8919000000000000
0.4453000000000001 0.0640666666666667 0.3919000000000000
0.4453000000000001 0.0640666666666667 0.8919000000000000
0.4453000000000000 0.3974000000000000 0.3919000000000000
0.4453000000000001 0.3974000000000001 0.8919000000000000
0.4453000000000000 0.7307333333333332 0.3919000000000000
0.4453000000000001 0.7307333333333333 0.8919000000000000
0.7786333333333334 0.0640666666666667 0.3919000000000000
0.7786333333333334 0.0640666666666667 0.8919000000000000
0.7786333333333334 0.3974000000000000 0.3919000000000000
0.7786333333333334 0.3974000000000001 0.8919000000000000
0.7786333333333334 0.7307333333333332 0.3919000000000000
0.7786333333333335 0.7307333333333333 0.8919000000000000
0.1334333333333334 0.0467000000000000 0.3820500000000000
0.1334333333333335 0.0467000000000000 0.8820500000000000
0.1334333333333334 0.3800333333333333 0.3820500000000000
0.1334333333333335 0.3800333333333333 0.8820500000000000
0.1334333333333334 0.7133666666666667 0.3820500000000000
0.1334333333333335 0.7133666666666667 0.8820500000000000
0.4667666666666668 0.0467000000000000 0.3820500000000000
0.4667666666666668 0.0467000000000000 0.8820500000000000
0.4667666666666668 0.3800333333333333 0.3820500000000000
0.4667666666666668 0.3800333333333333 0.8820500000000000
0.4667666666666667 0.7133666666666667 0.3820500000000000
0.4667666666666668 0.7133666666666667 0.8820500000000000
0.8001000000000000 0.0467000000000000 0.3820500000000000
0.8001000000000001 0.0467000000000000 0.8820500000000000
0.8001000000000001 0.3800333333333333 0.3820500000000000
0.8001000000000001 0.3800333333333333 0.8820500000000000
0.8001000000000000 0.7133666666666667 0.3820500000000000
0.8001000000000001 0.7133666666666667 0.8820500000000000
0.0875666666666667 0.0482333333333334 0.4139500000000000
0.0875666666666667 0.0482333333333334 0.9139500000000000
0.0875666666666667 0.3815666666666667 0.4139500000000000
0.0875666666666667 0.3815666666666667 0.9139500000000000
0.0875666666666667 0.7149000000000001 0.4139500000000000
0.0875666666666667 0.7149000000000001 0.9139500000000000
0.4209000000000001 0.0482333333333334 0.4139500000000000
0.4209000000000001 0.0482333333333334 0.9139500000000000
0.4209000000000001 0.3815666666666667 0.4139500000000000
0.4209000000000001 0.3815666666666667 0.9139500000000000
0.4209000000000001 0.7149000000000001 0.4139500000000000
0.4209000000000001 0.7149000000000001 0.9139500000000000
0.7542333333333332 0.0482333333333334 0.4139500000000000
0.7542333333333333 0.0482333333333334 0.9139500000000000
0.7542333333333332 0.3815666666666667 0.4139500000000000
0.7542333333333333 0.3815666666666667 0.9139500000000000
0.7542333333333331 0.7149000000000001 0.4139500000000000
0.7542333333333333 0.7149000000000001 0.9139500000000000
0.0913000000000000 0.0049333333333333 0.4233000000000000
0.0913000000000000 0.0049333333333333 0.9233000000000000
0.0913000000000000 0.3382666666666667 0.4233000000000000
0.0913000000000000 0.3382666666666667 0.9233000000000000
0.0913000000000000 0.6716000000000002 0.4233000000000000
0.0913000000000000 0.6716000000000002 0.9233000000000000
0.4246333333333334 0.0049333333333333 0.4233000000000000
0.4246333333333334 0.0049333333333333 0.9233000000000000
0.4246333333333334 0.3382666666666667 0.4233000000000000
0.4246333333333334 0.3382666666666667 0.9233000000000000
0.4246333333333333 0.6716000000000002 0.4233000000000000
0.4246333333333334 0.6716000000000002 0.9233000000000000
0.7579666666666668 0.0049333333333333 0.4233000000000000
0.7579666666666669 0.0049333333333333 0.9233000000000000
0.7579666666666668 0.3382666666666667 0.4233000000000000
0.7579666666666669 0.3382666666666667 0.9233000000000000
0.7579666666666668 0.6716000000000002 0.4233000000000000
0.7579666666666669 0.6716000000000002 0.9233000000000000
0.0528000000000001 0.3131999999999999 0.4247000000000000
0.0528000000000001 0.3132000000000000 0.9247000000000001
0.0528000000000001 0.6465333333333332 0.4247000000000000
0.0528000000000001 0.6465333333333334 0.9247000000000001
0.0528000000000001 0.9798666666666666 0.4247000000000000
0.0528000000000001 0.9798666666666669 0.9247000000000001
0.3861333333333335 0.3131999999999999 0.4247000000000000
0.3861333333333335 0.3132000000000000 0.9247000000000001
0.3861333333333334 0.6465333333333332 0.4247000000000000
0.3861333333333335 0.6465333333333334 0.9247000000000001
0.3861333333333334 0.9798666666666666 0.4247000000000000
0.3861333333333335 0.9798666666666669 0.9247000000000001
0.7194666666666668 0.3131999999999999 0.4247000000000000
0.7194666666666668 0.3132000000000000 0.9247000000000001
0.7194666666666668 0.6465333333333332 0.4247000000000000
0.7194666666666668 0.6465333333333334 0.9247000000000001
0.7194666666666667 0.9798666666666666 0.4247000000000000
0.7194666666666668 0.9798666666666669 0.9247000000000001
0.0261000000000000 0.3269666666666667 0.4229500000000000
0.0261000000000001 0.3269666666666667 0.9229499999999999
0.0261000000000000 0.6603000000000000 0.4229500000000000
0.0261000000000000 0.6603000000000001 0.9229499999999999
0.0261000000000000 0.9936333333333334 0.4229500000000000
0.0261000000000001 0.9936333333333335 0.9229499999999999
0.3594333333333333 0.3269666666666667 0.4229500000000000
0.3594333333333334 0.3269666666666667 0.9229499999999999
0.3594333333333334 0.6603000000000000 0.4229500000000000
0.3594333333333334 0.6603000000000001 0.9229499999999999
0.3594333333333333 0.9936333333333334 0.4229500000000000
0.3594333333333334 0.9936333333333335 0.9229499999999999
0.6927666666666668 0.3269666666666667 0.4229500000000000
0.6927666666666668 0.3269666666666667 0.9229499999999999
0.6927666666666668 0.6603000000000000 0.4229500000000000
0.6927666666666668 0.6603000000000001 0.9229499999999999
0.6927666666666666 0.9936333333333334 0.4229500000000000
0.6927666666666668 0.9936333333333335 0.9229499999999999
0.1298666666666667 0.3182666666666667 0.4270500000000000
0.1298666666666667 0.3182666666666667 0.9270499999999999
0.1298666666666667 0.6516000000000001 0.4270500000000000
0.1298666666666667 0.6516000000000002 0.9270499999999999
0.1298666666666667 0.9849333333333333 0.4270500000000000
0.1298666666666667 0.9849333333333332 0.9270499999999999
0.4632000000000000 0.3182666666666667 0.4270500000000000
0.4632000000000001 0.3182666666666667 0.9270499999999999
0.4632000000000000 0.6516000000000001 0.4270500000000000
0.4632000000000001 0.6516000000000002 0.9270499999999999
0.4632000000000001 0.9849333333333333 0.4270500000000000
0.4632000000000001 0.9849333333333332 0.9270499999999999
0.7965333333333332 0.3182666666666667 0.4270500000000000
0.7965333333333332 0.3182666666666667 0.9270499999999999
0.7965333333333332 0.6516000000000001 0.4270500000000000
0.7965333333333333 0.6516000000000002 0.9270499999999999
0.7965333333333332 0.9849333333333333 0.4270500000000000
0.7965333333333333 0.9849333333333332 0.9270499999999999
0.1553666666666667 0.0002666666666667 0.4259500000000001
0.1553666666666667 0.0002666666666666 0.9259500000000001
0.1553666666666667 0.3336000000000000 0.4259500000000001
0.1553666666666667 0.3336000000000000 0.9259500000000001
0.1553666666666667 0.6669333333333333 0.4259500000000001
0.1553666666666667 0.6669333333333334 0.9259500000000001
0.4886999999999999 0.0002666666666667 0.4259500000000001
0.4887000000000000 0.0002666666666666 0.9259500000000001
0.4887000000000000 0.3336000000000000 0.4259500000000001
0.4887000000000000 0.3336000000000000 0.9259500000000001
0.4887000000000000 0.6669333333333333 0.4259500000000001
0.4887000000000000 0.6669333333333334 0.9259500000000001
0.8220333333333335 0.0002666666666667 0.4259500000000001
0.8220333333333334 0.0002666666666666 0.9259500000000001
0.8220333333333334 0.3336000000000000 0.4259500000000001
0.8220333333333334 0.3336000000000000 0.9259500000000001
0.8220333333333334 0.6669333333333333 0.4259500000000001
0.8220333333333334 0.6669333333333334 0.9259500000000001
0.0523666666666667 0.2710666666666667 0.4282500000000000
0.0523666666666667 0.2710666666666667 0.9282500000000000
0.0523666666666667 0.6044000000000000 0.4282500000000000
0.0523666666666667 0.6044000000000000 0.9282500000000000
0.0523666666666667 0.9377333333333334 0.4282500000000000
0.0523666666666668 0.9377333333333334 0.9282500000000000
0.3857000000000000 0.2710666666666667 0.4282500000000000
0.3857000000000001 0.2710666666666667 0.9282500000000000
0.3857000000000000 0.6044000000000000 0.4282500000000000
0.3857000000000001 0.6044000000000000 0.9282500000000000
0.3857000000000000 0.9377333333333334 0.4282500000000000
0.3857000000000000 0.9377333333333334 0.9282500000000000
0.7190333333333334 0.2710666666666667 0.4282500000000000
0.7190333333333334 0.2710666666666667 0.9282500000000000
0.7190333333333334 0.6044000000000000 0.4282500000000000
0.7190333333333334 0.6044000000000000 0.9282500000000000
0.7190333333333334 0.9377333333333334 0.4282500000000000
0.7190333333333334 0.9377333333333334 0.9282500000000000
0.1332000000000000 0.2756000000000001 0.4325500000000000
0.1332000000000000 0.2756000000000001 0.9325500000000001
0.1332000000000000 0.6089333333333333 0.4325500000000000
0.1332000000000000 0.6089333333333334 0.9325500000000001
0.1332000000000000 0.9422666666666668 0.4325500000000000
0.1332000000000000 0.9422666666666668 0.9325500000000001
0.4665333333333333 0.2756000000000001 0.4325500000000000
0.4665333333333334 0.2756000000000001 0.9325500000000001
0.4665333333333332 0.6089333333333333 0.4325500000000000
0.4665333333333334 0.6089333333333334 0.9325500000000001
0.4665333333333332 0.9422666666666668 0.4325500000000000
0.4665333333333334 0.9422666666666668 0.9325500000000001
0.7998666666666667 0.2756000000000001 0.4325500000000000
0.7998666666666669 0.2756000000000001 0.9325500000000001
0.7998666666666667 0.6089333333333333 0.4325500000000000
0.7998666666666667 0.6089333333333334 0.9325500000000001
0.7998666666666667 0.9422666666666668 0.4325500000000000
0.7998666666666667 0.9422666666666668 0.9325500000000001
0.0967666666666667 0.2534000000000001 0.4340000000000001
0.0967666666666667 0.2534000000000000 0.9340000000000001
0.0967666666666667 0.5867333333333334 0.4340000000000001
0.0967666666666667 0.5867333333333333 0.9340000000000001
0.0967666666666667 0.9200666666666668 0.4340000000000001
0.0967666666666667 0.9200666666666668 0.9340000000000001
0.4301000000000000 0.2534000000000001 0.4340000000000001
0.4301000000000000 0.2534000000000000 0.9340000000000001
0.4301000000000000 0.5867333333333334 0.4340000000000001
0.4301000000000000 0.5867333333333333 0.9340000000000001
0.4301000000000000 0.9200666666666668 0.4340000000000001
0.4301000000000000 0.9200666666666668 0.9340000000000001
0.7634333333333335 0.2534000000000001 0.4340000000000001
0.7634333333333335 0.2534000000000000 0.9340000000000001
0.7634333333333335 0.5867333333333334 0.4340000000000001
0.7634333333333335 0.5867333333333333 0.9340000000000001
0.7634333333333334 0.9200666666666668 0.4340000000000001
0.7634333333333335 0.9200666666666668 0.9340000000000001
0.0994666666666667 0.2254666666666667 0.4388500000000000
0.0994666666666667 0.2254666666666667 0.9388500000000001
0.0994666666666667 0.5588000000000001 0.4388500000000000
0.0994666666666667 0.5588000000000002 0.9388500000000001
0.0994666666666667 0.8921333333333333 0.4388500000000000
0.0994666666666667 0.8921333333333333 0.9388500000000001
0.4328000000000000 0.2254666666666667 0.4388500000000000
0.4328000000000001 0.2254666666666667 0.9388500000000001
0.4328000000000001 0.5588000000000001 0.4388500000000000
0.4328000000000001 0.5588000000000002 0.9388500000000001
0.4328000000000001 0.8921333333333333 0.4388500000000000
0.4328000000000001 0.8921333333333333 0.9388500000000001
0.7661333333333336 0.2254666666666667 0.4388500000000000
0.7661333333333334 0.2254666666666667 0.9388500000000001
0.7661333333333333 0.5588000000000001 0.4388500000000000
0.7661333333333334 0.5588000000000002 0.9388500000000001
0.7661333333333333 0.8921333333333333 0.4388500000000000
0.7661333333333333 0.8921333333333333 0.9388500000000001
0.1782666666666667 0.2545333333333333 0.4349500000000000
0.1782666666666667 0.2545333333333333 0.9349499999999999
0.1782666666666667 0.5878666666666666 0.4349500000000000
0.1782666666666667 0.5878666666666668 0.9349499999999999
0.1782666666666667 0.9211999999999999 0.4349500000000000
0.1782666666666667 0.9212000000000000 0.9349499999999999
0.5116000000000001 0.2545333333333333 0.4349500000000000
0.5116000000000001 0.2545333333333333 0.9349499999999999
0.5116000000000001 0.5878666666666666 0.4349500000000000
0.5116000000000001 0.5878666666666668 0.9349499999999999
0.5115999999999999 0.9211999999999999 0.4349500000000000
0.5116000000000001 0.9212000000000000 0.9349499999999999
0.8449333333333332 0.2545333333333333 0.4349500000000000
0.8449333333333333 0.2545333333333333 0.9349499999999999
0.8449333333333332 0.5878666666666666 0.4349500000000000
0.8449333333333333 0.5878666666666668 0.9349499999999999
0.8449333333333331 0.9211999999999999 0.4349500000000000
0.8449333333333333 0.9212000000000000 0.9349499999999999
0.0142000000000000 0.2452000000000000 0.4269500000000000
0.0142000000000001 0.2452000000000000 0.9269499999999999
0.0142000000000000 0.5785333333333333 0.4269500000000000
0.0142000000000001 0.5785333333333333 0.9269499999999999
0.0142000000000000 0.9118666666666666 0.4269500000000000
0.0142000000000000 0.9118666666666666 0.9269499999999999
0.3475333333333333 0.2452000000000000 0.4269500000000000
0.3475333333333334 0.2452000000000000 0.9269499999999999
0.3475333333333334 0.5785333333333333 0.4269500000000000
0.3475333333333334 0.5785333333333333 0.9269499999999999
0.3475333333333334 0.9118666666666666 0.4269500000000000
0.3475333333333334 0.9118666666666666 0.9269499999999999
0.6808666666666666 0.2452000000000000 0.4269500000000000
0.6808666666666667 0.2452000000000000 0.9269499999999999
0.6808666666666667 0.5785333333333333 0.4269500000000000
0.6808666666666667 0.5785333333333333 0.9269499999999999
0.6808666666666667 0.9118666666666666 0.4269500000000000
0.6808666666666667 0.9118666666666666 0.9269499999999999
0.3289000000000001 0.2231000000000000 0.2080000000000000
0.3289000000000001 0.2231000000000000 0.7080000000000000
0.3289000000000001 0.5564333333333334 0.2080000000000000
0.3289000000000001 0.5564333333333333 0.7080000000000000
0.3289000000000001 0.8897666666666666 0.2080000000000000
0.3289000000000001 0.8897666666666667 0.7080000000000000
0.6622333333333332 0.2231000000000000 0.2080000000000000
0.6622333333333332 0.2231000000000000 0.7080000000000000
0.6622333333333332 0.5564333333333334 0.2080000000000000
0.6622333333333332 0.5564333333333333 0.7080000000000000
0.6622333333333333 0.8897666666666666 0.2080000000000000
0.6622333333333332 0.8897666666666667 0.7080000000000000
0.9955666666666665 0.2231000000000000 0.2080000000000000
0.9955666666666666 0.2231000000000000 0.7080000000000000
0.9955666666666665 0.5564333333333334 0.2080000000000000
0.9955666666666665 0.5564333333333333 0.7080000000000000
0.9955666666666666 0.8897666666666666 0.2080000000000000
0.9955666666666665 0.8897666666666667 0.7080000000000000
0.3154666666666667 0.2499000000000000 0.2090500000000000
0.3154666666666667 0.2499000000000000 0.7090500000000000
0.3154666666666667 0.5832333333333333 0.2090500000000000
0.3154666666666667 0.5832333333333334 0.7090500000000000
0.3154666666666667 0.9165666666666668 0.2090500000000000
0.3154666666666667 0.9165666666666666 0.7090500000000000
0.6487999999999999 0.2499000000000000 0.2090500000000000
0.6488000000000000 0.2499000000000000 0.7090500000000000
0.6487999999999999 0.5832333333333333 0.2090500000000000
0.6488000000000000 0.5832333333333334 0.7090500000000000
0.6488000000000000 0.9165666666666668 0.2090500000000000
0.6488000000000000 0.9165666666666666 0.7090500000000000
0.9821333333333334 0.2499000000000000 0.2090500000000000
0.9821333333333333 0.2499000000000000 0.7090500000000000
0.9821333333333334 0.5832333333333333 0.2090500000000000
0.9821333333333335 0.5832333333333334 0.7090500000000000
0.9821333333333335 0.9165666666666668 0.2090500000000000
0.9821333333333335 0.9165666666666666 0.7090500000000000
0.0612000000000000 0.1851000000000000 0.2153000000000000
0.0612000000000001 0.1851000000000000 0.7153000000000000
0.0612000000000000 0.5184333333333333 0.2153000000000000
0.0612000000000000 0.5184333333333333 0.7153000000000000
0.0612000000000000 0.8517666666666666 0.2153000000000000
0.0612000000000000 0.8517666666666668 0.7153000000000000
0.3945333333333333 0.1851000000000000 0.2153000000000000
0.3945333333333333 0.1851000000000000 0.7153000000000000
0.3945333333333333 0.5184333333333333 0.2153000000000000
0.3945333333333334 0.5184333333333333 0.7153000000000000
0.3945333333333333 0.8517666666666666 0.2153000000000000
0.3945333333333334 0.8517666666666668 0.7153000000000000
0.7278666666666669 0.1851000000000000 0.2153000000000000
0.7278666666666669 0.1851000000000000 0.7153000000000000
0.7278666666666669 0.5184333333333333 0.2153000000000000
0.7278666666666669 0.5184333333333333 0.7153000000000000
0.7278666666666668 0.8517666666666666 0.2153000000000000
0.7278666666666669 0.8517666666666668 0.7153000000000000
0.0922000000000000 0.1854666666666667 0.2215000000000000
0.0922000000000000 0.1854666666666667 0.7215000000000000
0.0922000000000000 0.5188000000000000 0.2215000000000000
0.0922000000000000 0.5188000000000000 0.7215000000000000
0.0922000000000000 0.8521333333333333 0.2215000000000000
0.0922000000000000 0.8521333333333334 0.7215000000000000
0.4255333333333334 0.1854666666666667 0.2215000000000000
0.4255333333333334 0.1854666666666667 0.7215000000000000
0.4255333333333334 0.5188000000000000 0.2215000000000000
0.4255333333333334 0.5188000000000000 0.7215000000000000
0.4255333333333333 0.8521333333333333 0.2215000000000000
0.4255333333333334 0.8521333333333334 0.7215000000000000
0.7588666666666667 0.1854666666666667 0.2215000000000000
0.7588666666666667 0.1854666666666667 0.7215000000000000
0.7588666666666667 0.5188000000000000 0.2215000000000000
0.7588666666666666 0.5188000000000000 0.7215000000000000
0.7588666666666667 0.8521333333333333 0.2215000000000000
0.7588666666666666 0.8521333333333334 0.7215000000000000
0.0438000000000000 0.2223666666666667 0.2168500000000000
0.0438000000000001 0.2223666666666667 0.7168500000000001
0.0438000000000000 0.5557000000000000 0.2168500000000000
0.0438000000000000 0.5557000000000000 0.7168500000000001
0.0438000000000000 0.8890333333333332 0.2168500000000000
0.0438000000000001 0.8890333333333335 0.7168500000000001
0.3771333333333333 0.2223666666666667 0.2168500000000000
0.3771333333333334 0.2223666666666667 0.7168500000000001
0.3771333333333333 0.5557000000000000 0.2168500000000000
0.3771333333333333 0.5557000000000000 0.7168500000000001
0.3771333333333333 0.8890333333333332 0.2168500000000000
0.3771333333333333 0.8890333333333335 0.7168500000000001
0.7104666666666667 0.2223666666666667 0.2168500000000000
0.7104666666666668 0.2223666666666667 0.7168500000000001
0.7104666666666667 0.5557000000000000 0.2168500000000000
0.7104666666666668 0.5557000000000000 0.7168500000000001
0.7104666666666666 0.8890333333333332 0.2168500000000000
0.7104666666666668 0.8890333333333335 0.7168500000000001
0.0618666666666667 0.2488333333333334 0.2236000000000000
0.0618666666666667 0.2488333333333334 0.7236000000000001
0.0618666666666667 0.5821666666666667 0.2236000000000000
0.0618666666666667 0.5821666666666667 0.7236000000000001
0.0618666666666667 0.9155000000000000 0.2236000000000000
0.0618666666666667 0.9155000000000002 0.7236000000000001
0.3952000000000000 0.2488333333333334 0.2236000000000000
0.3952000000000001 0.2488333333333334 0.7236000000000001
0.3952000000000000 0.5821666666666667 0.2236000000000000
0.3952000000000000 0.5821666666666667 0.7236000000000001
0.3952000000000000 0.9155000000000000 0.2236000000000000
0.3952000000000000 0.9155000000000002 0.7236000000000001
0.7285333333333335 0.2488333333333334 0.2236000000000000
0.7285333333333335 0.2488333333333334 0.7236000000000001
0.7285333333333335 0.5821666666666667 0.2236000000000000
0.7285333333333336 0.5821666666666667 0.7236000000000001
0.7285333333333335 0.9155000000000000 0.2236000000000000
0.7285333333333336 0.9155000000000002 0.7236000000000001
0.3263333333333333 0.1443666666666667 0.1953000000000000
0.3263333333333334 0.1443666666666668 0.6953000000000001
0.3263333333333334 0.4777000000000000 0.1953000000000000
0.3263333333333334 0.4777000000000001 0.6953000000000001
0.3263333333333333 0.8110333333333335 0.1953000000000000
0.3263333333333334 0.8110333333333335 0.6953000000000001
0.6596666666666667 0.1443666666666667 0.1953000000000000
0.6596666666666667 0.1443666666666668 0.6953000000000001
0.6596666666666667 0.4777000000000000 0.1953000000000000
0.6596666666666667 0.4777000000000001 0.6953000000000001
0.6596666666666667 0.8110333333333335 0.1953000000000000
0.6596666666666667 0.8110333333333335 0.6953000000000001
0.9930000000000001 0.1443666666666667 0.1953000000000000
0.9930000000000001 0.1443666666666668 0.6953000000000001
0.9930000000000001 0.4777000000000000 0.1953000000000000
0.9930000000000001 0.4777000000000001 0.6953000000000001
0.9930000000000000 0.8110333333333335 0.1953000000000000
0.9930000000000001 0.8110333333333335 0.6953000000000001
0.3098666666666667 0.1167000000000000 0.1860500000000000
0.3098666666666667 0.1167000000000000 0.6860500000000000
0.3098666666666667 0.4500333333333334 0.1860500000000000
0.3098666666666667 0.4500333333333334 0.6860500000000000
0.3098666666666667 0.7833666666666668 0.1860500000000000
0.3098666666666667 0.7833666666666668 0.6860500000000000
0.6432000000000000 0.1167000000000000 0.1860500000000000
0.6432000000000001 0.1167000000000000 0.6860500000000000
0.6432000000000001 0.4500333333333334 0.1860500000000000
0.6432000000000001 0.4500333333333334 0.6860500000000000
0.6432000000000001 0.7833666666666668 0.1860500000000000
0.6432000000000001 0.7833666666666668 0.6860500000000000
0.9765333333333333 0.1167000000000000 0.1860500000000000
0.9765333333333333 0.1167000000000000 0.6860500000000000
0.9765333333333334 0.4500333333333334 0.1860500000000000
0.9765333333333333 0.4500333333333334 0.6860500000000000
0.9765333333333333 0.7833666666666668 0.1860500000000000
0.9765333333333334 0.7833666666666668 0.6860500000000000
0.3031000000000000 0.1824333333333333 0.1979000000000000
0.3031000000000000 0.1824333333333334 0.6979000000000000
0.3031000000000000 0.5157666666666666 0.1979000000000000
0.3031000000000000 0.5157666666666667 0.6979000000000000
0.3031000000000000 0.8491000000000001 0.1979000000000000
0.3031000000000000 0.8491000000000001 0.6979000000000000
0.6364333333333334 0.1824333333333333 0.1979000000000000
0.6364333333333334 0.1824333333333334 0.6979000000000000
0.6364333333333334 0.5157666666666666 0.1979000000000000
0.6364333333333335 0.5157666666666667 0.6979000000000000
0.6364333333333333 0.8491000000000001 0.1979000000000000
0.6364333333333334 0.8491000000000001 0.6979000000000000
0.9697666666666667 0.1824333333333333 0.1979000000000000
0.9697666666666668 0.1824333333333334 0.6979000000000000
0.9697666666666667 0.5157666666666666 0.1979000000000000
0.9697666666666668 0.5157666666666667 0.6979000000000000
0.9697666666666667 0.8491000000000001 0.1979000000000000
0.9697666666666668 0.8491000000000001 0.6979000000000000
0.2535333333333333 0.1805333333333333 0.1872500000000000
0.2535333333333334 0.1805333333333334 0.6872500000000001
0.2535333333333333 0.5138666666666667 0.1872500000000000
0.2535333333333334 0.5138666666666666 0.6872500000000001
0.2535333333333333 0.8472000000000000 0.1872500000000000
0.2535333333333334 0.8472000000000001 0.6872500000000001
0.5868666666666670 0.1805333333333333 0.1872500000000000
0.5868666666666669 0.1805333333333334 0.6872500000000001
0.5868666666666669 0.5138666666666667 0.1872500000000000
0.5868666666666669 0.5138666666666666 0.6872500000000001
0.5868666666666669 0.8472000000000000 0.1872500000000000
0.5868666666666669 0.8472000000000001 0.6872500000000001
0.9202000000000001 0.1805333333333333 0.1872500000000000
0.9202000000000001 0.1805333333333334 0.6872500000000001
0.9202000000000001 0.5138666666666667 0.1872500000000000
0.9202000000000001 0.5138666666666666 0.6872500000000001
0.9202000000000001 0.8472000000000000 0.1872500000000000
0.9202000000000001 0.8472000000000001 0.6872500000000001
0.2311333333333333 0.2198333333333333 0.1846500000000000
0.2311333333333334 0.2198333333333334 0.6846500000000001
0.2311333333333334 0.5531666666666667 0.1846500000000000
0.2311333333333334 0.5531666666666668 0.6846500000000001
0.2311333333333334 0.8865000000000001 0.1846500000000000
0.2311333333333334 0.8865000000000001 0.6846500000000001
0.5644666666666667 0.2198333333333333 0.1846500000000000
0.5644666666666667 0.2198333333333334 0.6846500000000001
0.5644666666666667 0.5531666666666667 0.1846500000000000
0.5644666666666667 0.5531666666666668 0.6846500000000001
0.5644666666666667 0.8865000000000001 0.1846500000000000
0.5644666666666667 0.8865000000000001 0.6846500000000001
0.8978000000000000 0.2198333333333333 0.1846500000000000
0.8978000000000002 0.2198333333333334 0.6846500000000001
0.8978000000000000 0.5531666666666667 0.1846500000000000
0.8978000000000002 0.5531666666666668 0.6846500000000001
0.8978000000000000 0.8865000000000001 0.1846500000000000
0.8978000000000002 0.8865000000000001 0.6846500000000001
0.2479333333333333 0.2457333333333333 0.1866500000000000
0.2479333333333334 0.2457333333333334 0.6866500000000000
0.2479333333333334 0.5790666666666667 0.1866500000000000
0.2479333333333334 0.5790666666666668 0.6866500000000000
0.2479333333333333 0.9124000000000000 0.1866500000000000
0.2479333333333334 0.9124000000000002 0.6866500000000000
0.5812666666666667 0.2457333333333333 0.1866500000000000
0.5812666666666668 0.2457333333333334 0.6866500000000000
0.5812666666666667 0.5790666666666667 0.1866500000000000
0.5812666666666668 0.5790666666666668 0.6866500000000000
0.5812666666666666 0.9124000000000000 0.1866500000000000
0.5812666666666667 0.9124000000000002 0.6866500000000000
0.9146000000000001 0.2457333333333333 0.1866500000000000
0.9146000000000001 0.2457333333333334 0.6866500000000000
0.9146000000000001 0.5790666666666667 0.1866500000000000
0.9146000000000002 0.5790666666666668 0.6866500000000000
0.9146000000000001 0.9124000000000000 0.1866500000000000
0.9146000000000002 0.9124000000000002 0.6866500000000000
0.2277333333333334 0.1416333333333333 0.1839000000000000
0.2277333333333334 0.1416333333333334 0.6839000000000000
0.2277333333333334 0.4749666666666668 0.1839000000000000
0.2277333333333334 0.4749666666666668 0.6839000000000000
0.2277333333333334 0.8083000000000000 0.1839000000000000
0.2277333333333334 0.8083000000000000 0.6839000000000000
0.5610666666666668 0.1416333333333333 0.1839000000000000
0.5610666666666667 0.1416333333333334 0.6839000000000000
0.5610666666666668 0.4749666666666668 0.1839000000000000
0.5610666666666667 0.4749666666666668 0.6839000000000000
0.5610666666666668 0.8083000000000000 0.1839000000000000
0.5610666666666667 0.8083000000000000 0.6839000000000000
0.8944000000000002 0.1416333333333333 0.1839000000000000
0.8944000000000002 0.1416333333333334 0.6839000000000000
0.8944000000000002 0.4749666666666668 0.1839000000000000
0.8944000000000002 0.4749666666666668 0.6839000000000000
0.8944000000000002 0.8083000000000000 0.1839000000000000
0.8944000000000001 0.8083000000000000 0.6839000000000000
0.2416000000000000 0.1155333333333333 0.1854000000000000
0.2416000000000001 0.1155333333333334 0.6854000000000000
0.2416000000000000 0.4488666666666667 0.1854000000000000
0.2416000000000001 0.4488666666666667 0.6854000000000000
0.2416000000000000 0.7822000000000000 0.1854000000000000
0.2416000000000000 0.7822000000000001 0.6854000000000000
0.5749333333333335 0.1155333333333333 0.1854000000000000
0.5749333333333334 0.1155333333333334 0.6854000000000000
0.5749333333333334 0.4488666666666667 0.1854000000000000
0.5749333333333334 0.4488666666666667 0.6854000000000000
0.5749333333333335 0.7822000000000000 0.1854000000000000
0.5749333333333335 0.7822000000000001 0.6854000000000000
0.9082666666666668 0.1155333333333333 0.1854000000000000
0.9082666666666667 0.1155333333333334 0.6854000000000000
0.9082666666666668 0.4488666666666667 0.1854000000000000
0.9082666666666667 0.4488666666666667 0.6854000000000000
0.9082666666666669 0.7822000000000000 0.1854000000000000
0.9082666666666668 0.7822000000000001 0.6854000000000000
0.1808000000000000 0.1415333333333333 0.1782000000000000
0.1808000000000000 0.1415333333333333 0.6782000000000000
0.1808000000000000 0.4748666666666665 0.1782000000000000
0.1808000000000000 0.4748666666666666 0.6782000000000000
0.1808000000000000 0.8081999999999999 0.1782000000000000
0.1808000000000000 0.8082000000000000 0.6782000000000000
0.5141333333333333 0.1415333333333333 0.1782000000000000
0.5141333333333334 0.1415333333333333 0.6782000000000000
0.5141333333333333 0.4748666666666665 0.1782000000000000
0.5141333333333334 0.4748666666666666 0.6782000000000000
0.5141333333333333 0.8081999999999999 0.1782000000000000
0.5141333333333334 0.8082000000000000 0.6782000000000000
0.8474666666666666 0.1415333333333333 0.1782000000000000
0.8474666666666667 0.1415333333333333 0.6782000000000000
0.8474666666666666 0.4748666666666665 0.1782000000000000
0.8474666666666666 0.4748666666666666 0.6782000000000000
0.8474666666666666 0.8081999999999999 0.1782000000000000
0.8474666666666666 0.8082000000000000 0.6782000000000000
0.1868666666666667 0.2210000000000000 0.1794500000000000
0.1868666666666667 0.2210000000000000 0.6794500000000000
0.1868666666666667 0.5543333333333333 0.1794500000000000
0.1868666666666667 0.5543333333333335 0.6794500000000000
0.1868666666666667 0.8876666666666667 0.1794500000000000
0.1868666666666667 0.8876666666666668 0.6794500000000000
0.5202000000000000 0.2210000000000000 0.1794500000000000
0.5202000000000000 0.2210000000000000 0.6794500000000000
0.5202000000000000 0.5543333333333333 0.1794500000000000
0.5202000000000000 0.5543333333333335 0.6794500000000000
0.5202000000000000 0.8876666666666667 0.1794500000000000
0.5202000000000000 0.8876666666666668 0.6794500000000000
0.8535333333333334 0.2210000000000000 0.1794500000000000
0.8535333333333335 0.2210000000000000 0.6794500000000000
0.8535333333333334 0.5543333333333333 0.1794500000000000
0.8535333333333335 0.5543333333333335 0.6794500000000000
0.8535333333333335 0.8876666666666667 0.1794500000000000
0.8535333333333335 0.8876666666666668 0.6794500000000000
0.1602000000000000 0.1806333333333333 0.1743000000000000
0.1602000000000001 0.1806333333333334 0.6743000000000001
0.1602000000000000 0.5139666666666667 0.1743000000000000
0.1602000000000001 0.5139666666666667 0.6743000000000001
0.1602000000000000 0.8473000000000002 0.1743000000000000
0.1602000000000001 0.8473000000000002 0.6743000000000001
0.4935333333333333 0.1806333333333333 0.1743000000000000
0.4935333333333334 0.1806333333333334 0.6743000000000001
0.4935333333333334 0.5139666666666667 0.1743000000000000
0.4935333333333334 0.5139666666666667 0.6743000000000001
0.4935333333333334 0.8473000000000002 0.1743000000000000
0.4935333333333334 0.8473000000000002 0.6743000000000001
0.8268666666666666 0.1806333333333333 0.1743000000000000
0.8268666666666667 0.1806333333333334 0.6743000000000001
0.8268666666666666 0.5139666666666667 0.1743000000000000
0.8268666666666667 0.5139666666666667 0.6743000000000001
0.8268666666666666 0.8473000000000002 0.1743000000000000
0.8268666666666666 0.8473000000000002 0.6743000000000001
0.1292333333333333 0.1804666666666667 0.1684000000000000
0.1292333333333334 0.1804666666666667 0.6684000000000001
0.1292333333333334 0.5137999999999999 0.1684000000000000
0.1292333333333334 0.5137999999999999 0.6684000000000001
0.1292333333333334 0.8471333333333333 0.1684000000000000
0.1292333333333334 0.8471333333333333 0.6684000000000001
0.4625666666666666 0.1804666666666667 0.1684000000000000
0.4625666666666667 0.1804666666666667 0.6684000000000001
0.4625666666666667 0.5137999999999999 0.1684000000000000
0.4625666666666666 0.5137999999999999 0.6684000000000001
0.4625666666666667 0.8471333333333333 0.1684000000000000
0.4625666666666667 0.8471333333333333 0.6684000000000001
0.7958999999999998 0.1804666666666667 0.1684000000000000
0.7959000000000001 0.1804666666666667 0.6684000000000001
0.7958999999999998 0.5137999999999999 0.1684000000000000
0.7959000000000001 0.5137999999999999 0.6684000000000001
0.7958999999999998 0.8471333333333333 0.1684000000000000
0.7958999999999999 0.8471333333333333 0.6684000000000001
0.1648000000000000 0.2640666666666667 0.1774000000000000
0.1648000000000001 0.2640666666666667 0.6774000000000001
0.1648000000000000 0.5974000000000000 0.1774000000000000
0.1648000000000001 0.5974000000000000 0.6774000000000001
0.1648000000000000 0.9307333333333334 0.1774000000000000
0.1648000000000001 0.9307333333333334 0.6774000000000001
0.4981333333333333 0.2640666666666667 0.1774000000000000
0.4981333333333334 0.2640666666666667 0.6774000000000001
0.4981333333333333 0.5974000000000000 0.1774000000000000
0.4981333333333334 0.5974000000000000 0.6774000000000001
0.4981333333333333 0.9307333333333334 0.1774000000000000
0.4981333333333334 0.9307333333333334 0.6774000000000001
0.8314666666666667 0.2640666666666667 0.1774000000000000
0.8314666666666668 0.2640666666666667 0.6774000000000001
0.8314666666666668 0.5974000000000000 0.1774000000000000
0.8314666666666668 0.5974000000000000 0.6774000000000001
0.8314666666666667 0.9307333333333334 0.1774000000000000
0.8314666666666668 0.9307333333333334 0.6774000000000001
0.1544666666666667 0.1004666666666667 0.1782500000000000
0.1544666666666667 0.1004666666666667 0.6782500000000001
0.1544666666666667 0.4338000000000000 0.1782500000000000
0.1544666666666667 0.4338000000000001 0.6782500000000001
0.1544666666666667 0.7671333333333334 0.1782500000000000
0.1544666666666667 0.7671333333333334 0.6782500000000001
0.4878000000000000 0.1004666666666667 0.1782500000000000
0.4878000000000001 0.1004666666666667 0.6782500000000001
0.4877999999999999 0.4338000000000000 0.1782500000000000
0.4878000000000001 0.4338000000000001 0.6782500000000001
0.4878000000000000 0.7671333333333334 0.1782500000000000
0.4878000000000000 0.7671333333333334 0.6782500000000001
0.8211333333333335 0.1004666666666667 0.1782500000000000
0.8211333333333335 0.1004666666666667 0.6782500000000001
0.8211333333333335 0.4338000000000000 0.1782500000000000
0.8211333333333335 0.4338000000000001 0.6782500000000001
0.8211333333333334 0.7671333333333334 0.1782500000000000
0.8211333333333335 0.7671333333333334 0.6782500000000001
0.0222666666666667 0.0510000000000000 0.2591000000000001
0.0222666666666667 0.0510000000000000 0.7591000000000001
0.0222666666666667 0.3843333333333334 0.2591000000000001
0.0222666666666667 0.3843333333333334 0.7591000000000001
0.0222666666666667 0.7176666666666667 0.2591000000000001
0.0222666666666667 0.7176666666666667 0.7591000000000001
0.3556000000000001 0.0510000000000000 0.2591000000000001
0.3556000000000001 0.0510000000000000 0.7591000000000001
0.3556000000000000 0.3843333333333334 0.2591000000000001
0.3556000000000000 0.3843333333333334 0.7591000000000001
0.3556000000000000 0.7176666666666667 0.2591000000000001
0.3556000000000001 0.7176666666666667 0.7591000000000001
0.6889333333333333 0.0510000000000000 0.2591000000000001
0.6889333333333334 0.0510000000000000 0.7591000000000001
0.6889333333333333 0.3843333333333334 0.2591000000000001
0.6889333333333334 0.3843333333333334 0.7591000000000001
0.6889333333333334 0.7176666666666667 0.2591000000000001
0.6889333333333334 0.7176666666666667 0.7591000000000001
0.0444666666666667 0.0315000000000000 0.2625000000000000
0.0444666666666667 0.0315000000000000 0.7625000000000000
0.0444666666666667 0.3648333333333334 0.2625000000000000
0.0444666666666667 0.3648333333333333 0.7625000000000000
0.0444666666666667 0.6981666666666668 0.2625000000000000
0.0444666666666667 0.6981666666666668 0.7625000000000000
0.3778000000000000 0.0315000000000000 0.2625000000000000
0.3778000000000000 0.0315000000000000 0.7625000000000000
0.3778000000000000 0.3648333333333334 0.2625000000000000
0.3778000000000000 0.3648333333333333 0.7625000000000000
0.3778000000000000 0.6981666666666668 0.2625000000000000
0.3778000000000000 0.6981666666666668 0.7625000000000000
0.7111333333333332 0.0315000000000000 0.2625000000000000
0.7111333333333333 0.0315000000000000 0.7625000000000000
0.7111333333333332 0.3648333333333334 0.2625000000000000
0.7111333333333333 0.3648333333333333 0.7625000000000000
0.7111333333333332 0.6981666666666668 0.2625000000000000
0.7111333333333333 0.6981666666666668 0.7625000000000000
0.2883333333333333 0.0826666666666667 0.2714500000000001
0.2883333333333333 0.0826666666666667 0.7714500000000000
0.2883333333333333 0.4160000000000000 0.2714500000000001
0.2883333333333333 0.4160000000000000 0.7714500000000000
0.2883333333333333 0.7493333333333335 0.2714500000000001
0.2883333333333333 0.7493333333333336 0.7714500000000000
0.6216666666666669 0.0826666666666667 0.2714500000000001
0.6216666666666668 0.0826666666666667 0.7714500000000000
0.6216666666666669 0.4160000000000000 0.2714500000000001
0.6216666666666668 0.4160000000000000 0.7714500000000000
0.6216666666666669 0.7493333333333335 0.2714500000000001
0.6216666666666668 0.7493333333333336 0.7714500000000000
0.9550000000000002 0.0826666666666667 0.2714500000000001
0.9550000000000001 0.0826666666666667 0.7714500000000000
0.9550000000000002 0.4160000000000000 0.2714500000000001
0.9550000000000001 0.4160000000000000 0.7714500000000000
0.9550000000000002 0.7493333333333335 0.2714500000000001
0.9550000000000001 0.7493333333333336 0.7714500000000000
0.2829000000000000 0.0854666666666667 0.2443500000000000
0.2829000000000000 0.0854666666666667 0.7443500000000001
0.2829000000000000 0.4188000000000001 0.2443500000000000
0.2829000000000000 0.4188000000000001 0.7443500000000001
0.2829000000000000 0.7521333333333334 0.2443500000000000
0.2829000000000000 0.7521333333333334 0.7443500000000001
0.6162333333333334 0.0854666666666667 0.2443500000000000
0.6162333333333334 0.0854666666666667 0.7443500000000001
0.6162333333333332 0.4188000000000001 0.2443500000000000
0.6162333333333333 0.4188000000000001 0.7443500000000001
0.6162333333333332 0.7521333333333334 0.2443500000000000
0.6162333333333333 0.7521333333333334 0.7443500000000001
0.9495666666666667 0.0854666666666667 0.2443500000000000
0.9495666666666666 0.0854666666666667 0.7443500000000001
0.9495666666666667 0.4188000000000001 0.2443500000000000
0.9495666666666666 0.4188000000000001 0.7443500000000001
0.9495666666666667 0.7521333333333334 0.2443500000000000
0.9495666666666666 0.7521333333333334 0.7443500000000001
0.3018333333333333 0.1103333333333334 0.2905500000000000
0.3018333333333334 0.1103333333333334 0.7905500000000000
0.3018333333333333 0.4436666666666667 0.2905500000000000
0.3018333333333334 0.4436666666666667 0.7905500000000000
0.3018333333333333 0.7770000000000000 0.2905500000000000
0.3018333333333334 0.7770000000000001 0.7905500000000000
0.6351666666666667 0.1103333333333334 0.2905500000000000
0.6351666666666667 0.1103333333333334 0.7905500000000000
0.6351666666666667 0.4436666666666667 0.2905500000000000
0.6351666666666667 0.4436666666666667 0.7905500000000000
0.6351666666666667 0.7770000000000000 0.2905500000000000
0.6351666666666668 0.7770000000000001 0.7905500000000000
0.9685000000000000 0.1103333333333334 0.2905500000000000
0.9685000000000001 0.1103333333333334 0.7905500000000000
0.9685000000000000 0.4436666666666667 0.2905500000000000
0.9685000000000000 0.4436666666666667 0.7905500000000000
0.9685000000000000 0.7770000000000000 0.2905500000000000
0.9685000000000000 0.7770000000000001 0.7905500000000000
0.2603666666666667 0.0752666666666667 0.2768500000000000
0.2603666666666667 0.0752666666666667 0.7768500000000000
0.2603666666666667 0.4086000000000000 0.2768500000000000
0.2603666666666667 0.4086000000000000 0.7768500000000000
0.2603666666666667 0.7419333333333333 0.2768500000000000
0.2603666666666667 0.7419333333333334 0.7768500000000000
0.5937000000000001 0.0752666666666667 0.2768500000000000
0.5937000000000000 0.0752666666666667 0.7768500000000000
0.5937000000000001 0.4086000000000000 0.2768500000000000
0.5937000000000000 0.4086000000000000 0.7768500000000000
0.5937000000000001 0.7419333333333333 0.2768500000000000
0.5937000000000001 0.7419333333333334 0.7768500000000000
0.9270333333333334 0.0752666666666667 0.2768500000000000
0.9270333333333334 0.0752666666666667 0.7768500000000000
0.9270333333333334 0.4086000000000000 0.2768500000000000
0.9270333333333334 0.4086000000000000 0.7768500000000000
0.9270333333333334 0.7419333333333333 0.2768500000000000
0.9270333333333334 0.7419333333333334 0.7768500000000000
0.3166666666666667 0.0190000000000000 0.2995000000000000
0.3166666666666667 0.0190000000000000 0.7995000000000000
0.3166666666666667 0.3523333333333334 0.2995000000000000
0.3166666666666667 0.3523333333333334 0.7995000000000000
0.3166666666666667 0.6856666666666668 0.2995000000000000
0.3166666666666667 0.6856666666666666 0.7995000000000000
0.6500000000000000 0.0190000000000000 0.2995000000000000
0.6500000000000000 0.0190000000000000 0.7995000000000000
0.6500000000000000 0.3523333333333334 0.2995000000000000
0.6500000000000000 0.3523333333333334 0.7995000000000000
0.6500000000000000 0.6856666666666668 0.2995000000000000
0.6499999999999999 0.6856666666666666 0.7995000000000000
0.9833333333333335 0.0190000000000000 0.2995000000000000
0.9833333333333334 0.0190000000000000 0.7995000000000000
0.9833333333333335 0.3523333333333334 0.2995000000000000
0.9833333333333334 0.3523333333333334 0.7995000000000000
0.9833333333333334 0.6856666666666668 0.2995000000000000
0.9833333333333334 0.6856666666666666 0.7995000000000000
0.3157000000000000 0.3217333333333334 0.2834000000000000
0.3157000000000001 0.3217333333333334 0.7834000000000000
0.3157000000000000 0.6550666666666668 0.2834000000000000
0.3157000000000001 0.6550666666666668 0.7834000000000000
0.3157000000000000 0.9884000000000002 0.2834000000000000
0.3157000000000001 0.9884000000000002 0.7834000000000000
0.6490333333333334 0.3217333333333334 0.2834000000000000
0.6490333333333335 0.3217333333333334 0.7834000000000000
0.6490333333333334 0.6550666666666668 0.2834000000000000
0.6490333333333335 0.6550666666666668 0.7834000000000000
0.6490333333333334 0.9884000000000002 0.2834000000000000
0.6490333333333336 0.9884000000000002 0.7834000000000000
0.9823666666666666 0.3217333333333334 0.2834000000000000
0.9823666666666667 0.3217333333333334 0.7834000000000000
0.9823666666666666 0.6550666666666668 0.2834000000000000
0.9823666666666667 0.6550666666666668 0.7834000000000000
0.9823666666666666 0.9884000000000002 0.2834000000000000
0.9823666666666667 0.9884000000000002 0.7834000000000000
0.2908000000000000 0.0229666666666667 0.3103500000000000
0.2908000000000001 0.0229666666666667 0.8103500000000000
0.2908000000000001 0.3563000000000001 0.3103500000000000
0.2908000000000001 0.3563000000000001 0.8103500000000000
0.2908000000000000 0.6896333333333334 0.3103500000000000
0.2908000000000001 0.6896333333333334 0.8103500000000000
0.6241333333333334 0.0229666666666667 0.3103500000000000
0.6241333333333333 0.0229666666666667 0.8103500000000000
0.6241333333333334 0.3563000000000001 0.3103500000000000
0.6241333333333333 0.3563000000000001 0.8103500000000000
0.6241333333333334 0.6896333333333334 0.3103500000000000
0.6241333333333333 0.6896333333333334 0.8103500000000000
0.9574666666666667 0.0229666666666667 0.3103500000000000
0.9574666666666667 0.0229666666666667 0.8103500000000000
0.9574666666666667 0.3563000000000001 0.3103500000000000
0.9574666666666667 0.3563000000000001 0.8103500000000000
0.9574666666666667 0.6896333333333334 0.3103500000000000
0.9574666666666667 0.6896333333333334 0.8103500000000000
0.0097666666666667 0.0255333333333334 0.3214500000000001
0.0097666666666667 0.0255333333333333 0.8214500000000000
0.0097666666666667 0.3588666666666667 0.3214500000000001
0.0097666666666667 0.3588666666666667 0.8214500000000000
0.0097666666666667 0.6922000000000000 0.3214500000000001
0.0097666666666667 0.6922000000000000 0.8214500000000000
0.3431000000000000 0.0255333333333334 0.3214500000000001
0.3431000000000001 0.0255333333333333 0.8214500000000000
0.3431000000000000 0.3588666666666667 0.3214500000000001
0.3431000000000001 0.3588666666666667 0.8214500000000000
0.3431000000000000 0.6922000000000000 0.3214500000000001
0.3431000000000001 0.6922000000000000 0.8214500000000000
0.6764333333333334 0.0255333333333334 0.3214500000000001
0.6764333333333334 0.0255333333333333 0.8214500000000000
0.6764333333333334 0.3588666666666667 0.3214500000000001
0.6764333333333334 0.3588666666666667 0.8214500000000000
0.6764333333333334 0.6922000000000000 0.3214500000000001
0.6764333333333334 0.6922000000000000 0.8214500000000000
0.3013333333333334 0.0990000000000000 0.4876000000000000
0.3013333333333335 0.0990000000000001 0.9876000000000000
0.3013333333333333 0.4323333333333333 0.4876000000000000
0.3013333333333335 0.4323333333333333 0.9876000000000000
0.3013333333333334 0.7656666666666668 0.4876000000000000
0.3013333333333334 0.7656666666666668 0.9876000000000000
0.6346666666666666 0.0990000000000000 0.4876000000000000
0.6346666666666667 0.0990000000000001 0.9876000000000000
0.6346666666666667 0.4323333333333333 0.4876000000000000
0.6346666666666667 0.4323333333333333 0.9876000000000000
0.6346666666666667 0.7656666666666668 0.4876000000000000
0.6346666666666667 0.7656666666666668 0.9876000000000000
0.9680000000000001 0.0990000000000000 0.4876000000000000
0.9680000000000002 0.0990000000000001 0.9876000000000000
0.9680000000000001 0.4323333333333333 0.4876000000000000
0.9680000000000002 0.4323333333333333 0.9876000000000000
0.9680000000000001 0.7656666666666668 0.4876000000000000
0.9680000000000003 0.7656666666666668 0.9876000000000000
0.2736333333333334 0.1080666666666667 0.4769000000000000
0.2736333333333334 0.1080666666666667 0.9769000000000001
0.2736333333333334 0.4414000000000000 0.4769000000000000
0.2736333333333334 0.4414000000000000 0.9769000000000001
0.2736333333333333 0.7747333333333333 0.4769000000000000
0.2736333333333334 0.7747333333333333 0.9769000000000001
0.6069666666666667 0.1080666666666667 0.4769000000000000
0.6069666666666667 0.1080666666666667 0.9769000000000001
0.6069666666666667 0.4414000000000000 0.4769000000000000
0.6069666666666667 0.4414000000000000 0.9769000000000001
0.6069666666666667 0.7747333333333333 0.4769000000000000
0.6069666666666667 0.7747333333333333 0.9769000000000001
0.9403000000000001 0.1080666666666667 0.4769000000000000
0.9403000000000001 0.1080666666666667 0.9769000000000001
0.9403000000000000 0.4414000000000000 0.4769000000000000
0.9403000000000001 0.4414000000000000 0.9769000000000001
0.9403000000000000 0.7747333333333333 0.4769000000000000
0.9402999999999999 0.7747333333333333 0.9769000000000001
0.0136666666666666 0.0440000000000000 0.0115000000000000
0.0136666666666667 0.0440000000000000 0.5115000000000001
0.0136666666666666 0.3773333333333334 0.0115000000000000
0.0136666666666667 0.3773333333333334 0.5115000000000001
0.0136666666666666 0.7106666666666667 0.0115000000000000
0.0136666666666667 0.7106666666666667 0.5115000000000001
0.3470000000000000 0.0440000000000000 0.0115000000000000
0.3470000000000000 0.0440000000000000 0.5115000000000001
0.3470000000000000 0.3773333333333334 0.0115000000000000
0.3470000000000000 0.3773333333333334 0.5115000000000001
0.3470000000000000 0.7106666666666667 0.0115000000000000
0.3470000000000000 0.7106666666666667 0.5115000000000001
0.6803333333333335 0.0440000000000000 0.0115000000000000
0.6803333333333336 0.0440000000000000 0.5115000000000001
0.6803333333333335 0.3773333333333334 0.0115000000000000
0.6803333333333336 0.3773333333333334 0.5115000000000001
0.6803333333333335 0.7106666666666667 0.0115000000000000
0.6803333333333336 0.7106666666666667 0.5115000000000001
0.0200000000000000 0.0280333333333334 0.4862500000000001
0.0200000000000001 0.0280333333333334 0.9862500000000002
0.0200000000000000 0.3613666666666667 0.4862500000000001
0.0200000000000001 0.3613666666666667 0.9862500000000002
0.0200000000000001 0.6947000000000000 0.4862500000000001
0.0200000000000001 0.6947000000000000 0.9862500000000002
0.3533333333333334 0.0280333333333334 0.4862500000000001
0.3533333333333334 0.0280333333333334 0.9862500000000002
0.3533333333333334 0.3613666666666667 0.4862500000000001
0.3533333333333334 0.3613666666666667 0.9862500000000002
0.3533333333333334 0.6947000000000000 0.4862500000000001
0.3533333333333334 0.6947000000000000 0.9862500000000002
0.6866666666666668 0.0280333333333334 0.4862500000000001
0.6866666666666668 0.0280333333333334 0.9862500000000002
0.6866666666666668 0.3613666666666667 0.4862500000000001
0.6866666666666668 0.3613666666666667 0.9862500000000002
0.6866666666666668 0.6947000000000000 0.4862500000000001
0.6866666666666668 0.6947000000000000 0.9862500000000002
0.0143000000000000 0.0238333333333333 0.0282500000000000
0.0143000000000000 0.0238333333333334 0.5282500000000000
0.0143000000000000 0.3571666666666667 0.0282500000000000
0.0143000000000000 0.3571666666666667 0.5282500000000000
0.0143000000000000 0.6905000000000000 0.0282500000000000
0.0143000000000000 0.6905000000000000 0.5282500000000000
0.3476333333333333 0.0238333333333333 0.0282500000000000
0.3476333333333333 0.0238333333333334 0.5282500000000000
0.3476333333333333 0.3571666666666667 0.0282500000000000
0.3476333333333333 0.3571666666666667 0.5282500000000000
0.3476333333333332 0.6905000000000000 0.0282500000000000
0.3476333333333333 0.6905000000000000 0.5282500000000000
0.6809666666666666 0.0238333333333333 0.0282500000000000
0.6809666666666667 0.0238333333333334 0.5282500000000000
0.6809666666666666 0.3571666666666667 0.0282500000000000
0.6809666666666667 0.3571666666666667 0.5282500000000000
0.6809666666666666 0.6905000000000000 0.0282500000000000
0.6809666666666667 0.6905000000000000 0.5282500000000000
0.0359333333333333 0.0684333333333333 0.0254500000000000
0.0359333333333334 0.0684333333333334 0.5254500000000000
0.0359333333333333 0.4017666666666667 0.0254500000000000
0.0359333333333334 0.4017666666666667 0.5254500000000000
0.0359333333333333 0.7351000000000001 0.0254500000000000
0.0359333333333333 0.7351000000000002 0.5254500000000000
0.3692666666666666 0.0684333333333333 0.0254500000000000
0.3692666666666666 0.0684333333333334 0.5254500000000000
0.3692666666666666 0.4017666666666667 0.0254500000000000
0.3692666666666667 0.4017666666666667 0.5254500000000000
0.3692666666666666 0.7351000000000001 0.0254500000000000
0.3692666666666666 0.7351000000000002 0.5254500000000000
0.7026000000000001 0.0684333333333333 0.0254500000000000
0.7026000000000001 0.0684333333333334 0.5254500000000000
0.7026000000000000 0.4017666666666667 0.0254500000000000
0.7026000000000001 0.4017666666666667 0.5254500000000000
0.7026000000000000 0.7351000000000001 0.0254500000000000
0.7026000000000000 0.7351000000000002 0.5254500000000000
0.2640000000000000 0.0343333333333333 0.4970000000000000
0.2640000000000001 0.0343333333333333 0.9970000000000000
0.2640000000000000 0.3676666666666667 0.4970000000000000
0.2640000000000001 0.3676666666666667 0.9970000000000000
0.2640000000000000 0.7010000000000001 0.4970000000000000
0.2640000000000001 0.7010000000000001 0.9970000000000000
0.5973333333333335 0.0343333333333333 0.4970000000000000
0.5973333333333335 0.0343333333333333 0.9970000000000000
0.5973333333333335 0.3676666666666667 0.4970000000000000
0.5973333333333335 0.3676666666666667 0.9970000000000000
0.5973333333333334 0.7010000000000001 0.4970000000000000
0.5973333333333335 0.7010000000000001 0.9970000000000000
0.9306666666666668 0.0343333333333333 0.4970000000000000
0.9306666666666668 0.0343333333333333 0.9970000000000000
0.9306666666666668 0.3676666666666667 0.4970000000000000
0.9306666666666668 0.3676666666666667 0.9970000000000000
0.9306666666666669 0.7010000000000001 0.4970000000000000
0.9306666666666668 0.7010000000000001 0.9970000000000000
0.2410000000000000 0.0532000000000000 0.0043500000000000
0.2410000000000000 0.0532000000000000 0.5043500000000001
0.2410000000000000 0.3865333333333333 0.0043500000000000
0.2410000000000000 0.3865333333333333 0.5043500000000001
0.2410000000000000 0.7198666666666669 0.0043500000000000
0.2410000000000000 0.7198666666666668 0.5043500000000001
0.5743333333333334 0.0532000000000000 0.0043500000000000
0.5743333333333334 0.0532000000000000 0.5043500000000001
0.5743333333333334 0.3865333333333333 0.0043500000000000
0.5743333333333334 0.3865333333333333 0.5043500000000001
0.5743333333333333 0.7198666666666669 0.0043500000000000
0.5743333333333333 0.7198666666666668 0.5043500000000001
0.9076666666666667 0.0532000000000000 0.0043500000000000
0.9076666666666666 0.0532000000000000 0.5043500000000001
0.9076666666666667 0.3865333333333333 0.0043500000000000
0.9076666666666666 0.3865333333333333 0.5043500000000001
0.9076666666666667 0.7198666666666669 0.0043500000000000
0.9076666666666667 0.7198666666666668 0.5043500000000001
0.2693666666666668 0.0141000000000000 0.0137500000000000
0.2693666666666668 0.0141000000000000 0.5137500000000002
0.2693666666666668 0.3474333333333333 0.0137500000000000
0.2693666666666668 0.3474333333333334 0.5137500000000002
0.2693666666666668 0.6807666666666665 0.0137500000000000
0.2693666666666668 0.6807666666666667 0.5137500000000002
0.6026999999999999 0.0141000000000000 0.0137500000000000
0.6027000000000001 0.0141000000000000 0.5137500000000002
0.6026999999999999 0.3474333333333333 0.0137500000000000
0.6027000000000001 0.3474333333333334 0.5137500000000002
0.6027000000000000 0.6807666666666665 0.0137500000000000
0.6027000000000001 0.6807666666666667 0.5137500000000002
0.9360333333333334 0.0141000000000000 0.0137500000000000
0.9360333333333335 0.0141000000000000 0.5137500000000002
0.9360333333333334 0.3474333333333333 0.0137500000000000
0.9360333333333335 0.3474333333333334 0.5137500000000002
0.9360333333333334 0.6807666666666665 0.0137500000000000
0.9360333333333335 0.6807666666666667 0.5137500000000002
0.2547333333333334 0.0177333333333334 0.4691000000000000
0.2547333333333333 0.0177333333333334 0.9691000000000001
0.2547333333333334 0.3510666666666666 0.4691000000000000
0.2547333333333334 0.3510666666666667 0.9691000000000001
0.2547333333333334 0.6844000000000000 0.4691000000000000
0.2547333333333334 0.6844000000000000 0.9691000000000001
0.5880666666666667 0.0177333333333334 0.4691000000000000
0.5880666666666666 0.0177333333333334 0.9691000000000001
0.5880666666666666 0.3510666666666666 0.4691000000000000
0.5880666666666666 0.3510666666666667 0.9691000000000001
0.5880666666666667 0.6844000000000000 0.4691000000000000
0.5880666666666666 0.6844000000000000 0.9691000000000001
0.9214000000000000 0.0177333333333334 0.4691000000000000
0.9214000000000000 0.0177333333333334 0.9691000000000001
0.9214000000000000 0.3510666666666666 0.4691000000000000
0.9214000000000000 0.3510666666666667 0.9691000000000001
0.9213999999999999 0.6844000000000000 0.4691000000000000
0.9214000000000000 0.6844000000000000 0.9691000000000001
0.2384666666666667 0.2375666666666667 0.3618500000000000
0.2384666666666667 0.2375666666666667 0.8618500000000000
0.2384666666666667 0.5709000000000000 0.3618500000000000
0.2384666666666667 0.5709000000000000 0.8618500000000000
0.2384666666666667 0.9042333333333333 0.3618500000000000
0.2384666666666667 0.9042333333333333 0.8618500000000000
0.5718000000000000 0.2375666666666667 0.3618500000000000
0.5718000000000001 0.2375666666666667 0.8618500000000000
0.5718000000000000 0.5709000000000000 0.3618500000000000
0.5718000000000001 0.5709000000000000 0.8618500000000000
0.5718000000000000 0.9042333333333333 0.3618500000000000
0.5718000000000001 0.9042333333333333 0.8618500000000000
0.9051333333333332 0.2375666666666667 0.3618500000000000
0.9051333333333333 0.2375666666666667 0.8618500000000000
0.9051333333333332 0.5709000000000000 0.3618500000000000
0.9051333333333333 0.5709000000000000 0.8618500000000000
0.9051333333333333 0.9042333333333333 0.3618500000000000
0.9051333333333333 0.9042333333333333 0.8618500000000000
0.1518000000000000 0.3274666666666667 0.1086500000000000
0.1518000000000001 0.3274666666666667 0.6086500000000000
0.1518000000000000 0.6608000000000001 0.1086500000000000
0.1518000000000000 0.6608000000000001 0.6086500000000000
0.1518000000000000 0.9941333333333334 0.1086500000000000
0.1518000000000000 0.9941333333333334 0.6086500000000000
0.4851333333333334 0.3274666666666667 0.1086500000000000
0.4851333333333334 0.3274666666666667 0.6086500000000000
0.4851333333333334 0.6608000000000001 0.1086500000000000
0.4851333333333334 0.6608000000000001 0.6086500000000000
0.4851333333333334 0.9941333333333334 0.1086500000000000
0.4851333333333334 0.9941333333333334 0.6086500000000000
0.8184666666666667 0.3274666666666667 0.1086500000000000
0.8184666666666667 0.3274666666666667 0.6086500000000000
0.8184666666666667 0.6608000000000001 0.1086500000000000
0.8184666666666668 0.6608000000000001 0.6086500000000000
0.8184666666666668 0.9941333333333334 0.1086500000000000
0.8184666666666669 0.9941333333333334 0.6086500000000000
0.0526333333333333 0.1196000000000000 0.4278500000000000
0.0526333333333333 0.1196000000000000 0.9278500000000001
0.0526333333333333 0.4529333333333334 0.4278500000000000
0.0526333333333333 0.4529333333333334 0.9278500000000001
0.0526333333333333 0.7862666666666667 0.4278500000000000
0.0526333333333333 0.7862666666666667 0.9278500000000001
0.3859666666666667 0.1196000000000000 0.4278500000000000
0.3859666666666667 0.1196000000000000 0.9278500000000001
0.3859666666666667 0.4529333333333334 0.4278500000000000
0.3859666666666667 0.4529333333333334 0.9278500000000001
0.3859666666666667 0.7862666666666667 0.4278500000000000
0.3859666666666667 0.7862666666666667 0.9278500000000001
0.7192999999999999 0.1196000000000000 0.4278500000000000
0.7192999999999998 0.1196000000000000 0.9278500000000001
0.7192999999999999 0.4529333333333334 0.4278500000000000
0.7192999999999998 0.4529333333333334 0.9278500000000001
0.7193000000000001 0.7862666666666667 0.4278500000000000
0.7193000000000001 0.7862666666666667 0.9278500000000001
0.0372333333333333 0.1446333333333334 0.2051500000000000
0.0372333333333333 0.1446333333333333 0.7051499999999999
0.0372333333333333 0.4779666666666667 0.2051500000000000
0.0372333333333333 0.4779666666666667 0.7051499999999999
0.0372333333333333 0.8112999999999999 0.2051500000000000
0.0372333333333333 0.8112999999999999 0.7051499999999999
0.3705666666666667 0.1446333333333334 0.2051500000000000
0.3705666666666667 0.1446333333333333 0.7051499999999999
0.3705666666666667 0.4779666666666667 0.2051500000000000
0.3705666666666667 0.4779666666666667 0.7051499999999999
0.3705666666666667 0.8112999999999999 0.2051500000000000
0.3705666666666667 0.8112999999999999 0.7051499999999999
0.7039000000000001 0.1446333333333334 0.2051500000000000
0.7039000000000001 0.1446333333333333 0.7051499999999999
0.7039000000000000 0.4779666666666667 0.2051500000000000
0.7039000000000001 0.4779666666666667 0.7051499999999999
0.7039000000000001 0.8112999999999999 0.2051500000000000
0.7039000000000001 0.8112999999999999 0.7051499999999999
0.3174000000000000 0.0475333333333333 0.2754000000000000
0.3174000000000001 0.0475333333333334 0.7754000000000000
0.3174000000000000 0.3808666666666667 0.2754000000000000
0.3174000000000000 0.3808666666666667 0.7754000000000000
0.3174000000000000 0.7142000000000001 0.2754000000000000
0.3174000000000000 0.7141999999999999 0.7754000000000000
0.6507333333333333 0.0475333333333333 0.2754000000000000
0.6507333333333333 0.0475333333333334 0.7754000000000000
0.6507333333333332 0.3808666666666667 0.2754000000000000
0.6507333333333333 0.3808666666666667 0.7754000000000000
0.6507333333333332 0.7142000000000001 0.2754000000000000
0.6507333333333333 0.7141999999999999 0.7754000000000000
0.9840666666666666 0.0475333333333333 0.2754000000000000
0.9840666666666666 0.0475333333333334 0.7754000000000000
0.9840666666666666 0.3808666666666667 0.2754000000000000
0.9840666666666666 0.3808666666666667 0.7754000000000000
0.9840666666666666 0.7142000000000001 0.2754000000000000
0.9840666666666666 0.7141999999999999 0.7754000000000000
0.3029333333333334 0.0610000000000000 0.0037500000000000
0.3029333333333334 0.0610000000000000 0.5037500000000000
0.3029333333333334 0.3943333333333334 0.0037500000000000
0.3029333333333334 0.3943333333333334 0.5037500000000000
0.3029333333333333 0.7276666666666667 0.0037500000000000
0.3029333333333334 0.7276666666666666 0.5037500000000000
0.6362666666666666 0.0610000000000000 0.0037500000000000
0.6362666666666668 0.0610000000000000 0.5037500000000000
0.6362666666666666 0.3943333333333334 0.0037500000000000
0.6362666666666668 0.3943333333333334 0.5037500000000000
0.6362666666666666 0.7276666666666667 0.0037500000000000
0.6362666666666668 0.7276666666666666 0.5037500000000000
0.9696000000000001 0.0610000000000000 0.0037500000000000
0.9696000000000001 0.0610000000000000 0.5037500000000000
0.9696000000000001 0.3943333333333334 0.0037500000000000
0.9696000000000001 0.3943333333333334 0.5037500000000000
0.9696000000000000 0.7276666666666667 0.0037500000000000
0.9696000000000001 0.7276666666666666 0.5037500000000000
0.1157666666666667 0.0327333333333333 0.2248000000000000
0.1157666666666667 0.0327333333333333 0.7248000000000000
0.1157666666666667 0.3660666666666667 0.2248000000000000
0.1157666666666667 0.3660666666666667 0.7248000000000000
0.1157666666666667 0.6994000000000000 0.2248000000000000
0.1157666666666667 0.6993999999999999 0.7248000000000000
0.4490999999999999 0.0327333333333333 0.2248000000000000
0.4491000000000001 0.0327333333333333 0.7248000000000000
0.4491000000000000 0.3660666666666667 0.2248000000000000
0.4491000000000001 0.3660666666666667 0.7248000000000000
0.4491000000000000 0.6994000000000000 0.2248000000000000
0.4491000000000001 0.6993999999999999 0.7248000000000000
0.7824333333333335 0.0327333333333333 0.2248000000000000
0.7824333333333334 0.0327333333333333 0.7248000000000000
0.7824333333333335 0.3660666666666667 0.2248000000000000
0.7824333333333334 0.3660666666666667 0.7248000000000000
0.7824333333333335 0.6994000000000000 0.2248000000000000
0.7824333333333334 0.6993999999999999 0.7248000000000000
0.1215333333333334 0.1046666666666667 0.2601500000000000
0.1215333333333334 0.1046666666666667 0.7601500000000000
0.1215333333333333 0.4379999999999999 0.2601500000000000
0.1215333333333334 0.4379999999999999 0.7601500000000000
0.1215333333333333 0.7713333333333334 0.2601500000000000
0.1215333333333334 0.7713333333333332 0.7601500000000000
0.4548666666666668 0.1046666666666667 0.2601500000000000
0.4548666666666668 0.1046666666666667 0.7601500000000000
0.4548666666666668 0.4379999999999999 0.2601500000000000
0.4548666666666668 0.4379999999999999 0.7601500000000000
0.4548666666666668 0.7713333333333334 0.2601500000000000
0.4548666666666668 0.7713333333333332 0.7601500000000000
0.7881999999999999 0.1046666666666667 0.2601500000000000
0.7881999999999999 0.1046666666666667 0.7601500000000000
0.7882000000000000 0.4379999999999999 0.2601500000000000
0.7881999999999999 0.4379999999999999 0.7601500000000000
0.7882000000000000 0.7713333333333334 0.2601500000000000
0.7882000000000000 0.7713333333333332 0.7601500000000000
0.0732000000000000 0.3299333333333334 0.1368000000000000
0.0732000000000000 0.3299333333333334 0.6368000000000000
0.0732000000000000 0.6632666666666666 0.1368000000000000
0.0732000000000000 0.6632666666666667 0.6368000000000000
0.0732000000000000 0.9965999999999998 0.1368000000000000
0.0732000000000000 0.9965999999999998 0.6368000000000000
0.4065333333333334 0.3299333333333334 0.1368000000000000
0.4065333333333334 0.3299333333333334 0.6368000000000000
0.4065333333333334 0.6632666666666666 0.1368000000000000
0.4065333333333334 0.6632666666666667 0.6368000000000000
0.4065333333333334 0.9965999999999998 0.1368000000000000
0.4065333333333334 0.9965999999999998 0.6368000000000000
0.7398666666666666 0.3299333333333334 0.1368000000000000
0.7398666666666667 0.3299333333333334 0.6368000000000000
0.7398666666666666 0.6632666666666666 0.1368000000000000
0.7398666666666667 0.6632666666666667 0.6368000000000000
0.7398666666666665 0.9965999999999998 0.1368000000000000
0.7398666666666667 0.9965999999999998 0.6368000000000000
0.0249000000000000 0.0458333333333333 0.1588500000000000
0.0249000000000000 0.0458333333333333 0.6588499999999999
0.0249000000000000 0.3791666666666667 0.1588500000000000
0.0249000000000001 0.3791666666666667 0.6588499999999999
0.0249000000000000 0.7124999999999999 0.1588500000000000
0.0249000000000000 0.7125000000000000 0.6588499999999999
0.3582333333333334 0.0458333333333333 0.1588500000000000
0.3582333333333334 0.0458333333333333 0.6588499999999999
0.3582333333333334 0.3791666666666667 0.1588500000000000
0.3582333333333334 0.3791666666666667 0.6588499999999999
0.3582333333333333 0.7124999999999999 0.1588500000000000
0.3582333333333334 0.7125000000000000 0.6588499999999999
0.6915666666666666 0.0458333333333333 0.1588500000000000
0.6915666666666668 0.0458333333333333 0.6588499999999999
0.6915666666666666 0.3791666666666667 0.1588500000000000
0.6915666666666668 0.3791666666666667 0.6588499999999999
0.6915666666666667 0.7124999999999999 0.1588500000000000
0.6915666666666667 0.7125000000000000 0.6588499999999999
0.1748333333333333 0.0661000000000000 0.1821500000000000
0.1748333333333333 0.0661000000000000 0.6821500000000000
0.1748333333333333 0.3994333333333333 0.1821500000000000
0.1748333333333334 0.3994333333333333 0.6821500000000000
0.1748333333333333 0.7327666666666667 0.1821500000000000
0.1748333333333333 0.7327666666666667 0.6821500000000000
0.5081666666666668 0.0661000000000000 0.1821500000000000
0.5081666666666668 0.0661000000000000 0.6821500000000000
0.5081666666666667 0.3994333333333333 0.1821500000000000
0.5081666666666668 0.3994333333333333 0.6821500000000000
0.5081666666666667 0.7327666666666667 0.1821500000000000
0.5081666666666668 0.7327666666666667 0.6821500000000000
0.8415000000000000 0.0661000000000000 0.1821500000000000
0.8414999999999999 0.0661000000000000 0.6821500000000000
0.8415000000000000 0.3994333333333333 0.1821500000000000
0.8414999999999999 0.3994333333333333 0.6821500000000000
0.8414999999999999 0.7327666666666667 0.1821500000000000
0.8414999999999999 0.7327666666666667 0.6821500000000000
0.1125333333333333 0.1038000000000000 0.1749000000000000
0.1125333333333334 0.1038000000000000 0.6749000000000001
0.1125333333333333 0.4371333333333334 0.1749000000000000
0.1125333333333334 0.4371333333333334 0.6749000000000001
0.1125333333333333 0.7704666666666667 0.1749000000000000
0.1125333333333333 0.7704666666666666 0.6749000000000001
0.4458666666666667 0.1038000000000000 0.1749000000000000
0.4458666666666667 0.1038000000000000 0.6749000000000001
0.4458666666666667 0.4371333333333334 0.1749000000000000
0.4458666666666667 0.4371333333333334 0.6749000000000001
0.4458666666666667 0.7704666666666667 0.1749000000000000
0.4458666666666667 0.7704666666666666 0.6749000000000001
0.7792000000000001 0.1038000000000000 0.1749000000000000
0.7792000000000000 0.1038000000000000 0.6749000000000001
0.7792000000000001 0.4371333333333334 0.1749000000000000
0.7792000000000001 0.4371333333333334 0.6749000000000001
0.7792000000000000 0.7704666666666667 0.1749000000000000
0.7792000000000001 0.7704666666666666 0.6749000000000001
0.2849666666666667 0.2031666666666667 0.4721000000000001
0.2849666666666668 0.2031666666666667 0.9721000000000001
0.2849666666666667 0.5365000000000000 0.4721000000000001
0.2849666666666668 0.5365000000000000 0.9721000000000001
0.2849666666666667 0.8698333333333332 0.4721000000000001
0.2849666666666668 0.8698333333333332 0.9721000000000001
0.6183000000000001 0.2031666666666667 0.4721000000000001
0.6183000000000001 0.2031666666666667 0.9721000000000001
0.6183000000000000 0.5365000000000000 0.4721000000000001
0.6183000000000001 0.5365000000000000 0.9721000000000001
0.6183000000000000 0.8698333333333332 0.4721000000000001
0.6183000000000001 0.8698333333333332 0.9721000000000001
0.9516333333333334 0.2031666666666667 0.4721000000000001
0.9516333333333333 0.2031666666666667 0.9721000000000001
0.9516333333333334 0.5365000000000000 0.4721000000000001
0.9516333333333333 0.5365000000000000 0.9721000000000001
0.9516333333333333 0.8698333333333332 0.4721000000000001
0.9516333333333333 0.8698333333333332 0.9721000000000001
0.0217000000000000 0.2117666666666667 0.0049500000000000
0.0217000000000001 0.2117666666666667 0.5049500000000000
0.0217000000000000 0.5451000000000000 0.0049500000000000
0.0217000000000001 0.5451000000000000 0.5049500000000000
0.0217000000000000 0.8784333333333333 0.0049500000000000
0.0217000000000001 0.8784333333333334 0.5049500000000000
0.3550333333333333 0.2117666666666667 0.0049500000000000
0.3550333333333334 0.2117666666666667 0.5049500000000000
0.3550333333333333 0.5451000000000000 0.0049500000000000
0.3550333333333333 0.5451000000000000 0.5049500000000000
0.3550333333333333 0.8784333333333333 0.0049500000000000
0.3550333333333333 0.8784333333333334 0.5049500000000000
0.6883666666666668 0.2117666666666667 0.0049500000000000
0.6883666666666668 0.2117666666666667 0.5049500000000000
0.6883666666666668 0.5451000000000000 0.0049500000000000
0.6883666666666668 0.5451000000000000 0.5049500000000000
0.6883666666666668 0.8784333333333333 0.0049500000000000
0.6883666666666668 0.8784333333333334 0.5049500000000000
0.1221333333333333 0.2628666666666667 0.1688000000000000
0.1221333333333334 0.2628666666666666 0.6688000000000001
0.1221333333333333 0.5962000000000000 0.1688000000000000
0.1221333333333334 0.5962000000000000 0.6688000000000001
0.1221333333333333 0.9295333333333332 0.1688000000000000
0.1221333333333334 0.9295333333333331 0.6688000000000001
0.4554666666666667 0.2628666666666667 0.1688000000000000
0.4554666666666667 0.2628666666666666 0.6688000000000001
0.4554666666666667 0.5962000000000000 0.1688000000000000
0.4554666666666668 0.5962000000000000 0.6688000000000001
0.4554666666666667 0.9295333333333332 0.1688000000000000
0.4554666666666668 0.9295333333333331 0.6688000000000001
0.7888000000000001 0.2628666666666667 0.1688000000000000
0.7887999999999999 0.2628666666666666 0.6688000000000001
0.7888000000000001 0.5962000000000000 0.1688000000000000
0.7887999999999999 0.5962000000000000 0.6688000000000001
0.7888000000000003 0.9295333333333332 0.1688000000000000
0.7888000000000001 0.9295333333333331 0.6688000000000001
0.1878333333333334 0.2976666666666667 0.1853000000000000
0.1878333333333334 0.2976666666666667 0.6853000000000000
0.1878333333333334 0.6310000000000000 0.1853000000000000
0.1878333333333334 0.6310000000000000 0.6853000000000000
0.1878333333333333 0.9643333333333333 0.1853000000000000
0.1878333333333334 0.9643333333333333 0.6853000000000000
0.5211666666666667 0.2976666666666667 0.1853000000000000
0.5211666666666667 0.2976666666666667 0.6853000000000000
0.5211666666666667 0.6310000000000000 0.1853000000000000
0.5211666666666667 0.6310000000000000 0.6853000000000000
0.5211666666666667 0.9643333333333333 0.1853000000000000
0.5211666666666667 0.9643333333333333 0.6853000000000000
0.8545000000000000 0.2976666666666667 0.1853000000000000
0.8545000000000000 0.2976666666666667 0.6853000000000000
0.8545000000000000 0.6310000000000000 0.1853000000000000
0.8545000000000000 0.6310000000000000 0.6853000000000000
0.8544999999999999 0.9643333333333333 0.1853000000000000
0.8545000000000000 0.9643333333333333 0.6853000000000000
0.2375666666666667 0.1603000000000000 0.3894000000000001
0.2375666666666667 0.1603000000000000 0.8894000000000000
0.2375666666666667 0.4936333333333334 0.3894000000000001
0.2375666666666667 0.4936333333333334 0.8894000000000000
0.2375666666666667 0.8269666666666667 0.3894000000000001
0.2375666666666667 0.8269666666666668 0.8894000000000000
0.5709000000000000 0.1603000000000000 0.3894000000000001
0.5709000000000000 0.1603000000000000 0.8894000000000000
0.5709000000000000 0.4936333333333334 0.3894000000000001
0.5709000000000000 0.4936333333333334 0.8894000000000000
0.5709000000000000 0.8269666666666667 0.3894000000000001
0.5709000000000000 0.8269666666666668 0.8894000000000000
0.9042333333333334 0.1603000000000000 0.3894000000000001
0.9042333333333334 0.1603000000000000 0.8894000000000000
0.9042333333333334 0.4936333333333334 0.3894000000000001
0.9042333333333334 0.4936333333333334 0.8894000000000000
0.9042333333333334 0.8269666666666667 0.3894000000000001
0.9042333333333334 0.8269666666666668 0.8894000000000000
0.2880000000000000 0.1128333333333333 0.4063500000000000
0.2880000000000000 0.1128333333333334 0.9063500000000000
0.2880000000000000 0.4461666666666667 0.4063500000000000
0.2880000000000000 0.4461666666666667 0.9063500000000000
0.2880000000000000 0.7795000000000000 0.4063500000000000
0.2880000000000000 0.7795000000000000 0.9063500000000000
0.6213333333333334 0.1128333333333333 0.4063500000000000
0.6213333333333334 0.1128333333333334 0.9063500000000000
0.6213333333333334 0.4461666666666667 0.4063500000000000
0.6213333333333335 0.4461666666666667 0.9063500000000000
0.6213333333333333 0.7795000000000000 0.4063500000000000
0.6213333333333334 0.7795000000000000 0.9063500000000000
0.9546666666666667 0.1128333333333333 0.4063500000000000
0.9546666666666668 0.1128333333333334 0.9063500000000000
0.9546666666666667 0.4461666666666667 0.4063500000000000
0.9546666666666668 0.4461666666666667 0.9063500000000000
0.9546666666666667 0.7795000000000000 0.4063500000000000
0.9546666666666668 0.7795000000000000 0.9063500000000000
0.3106333333333334 0.2649666666666667 0.4314500000000000
0.3106333333333334 0.2649666666666667 0.9314500000000000
0.3106333333333334 0.5983000000000001 0.4314500000000000
0.3106333333333334 0.5983000000000001 0.9314500000000000
0.3106333333333334 0.9316333333333335 0.4314500000000000
0.3106333333333334 0.9316333333333333 0.9314500000000000
0.6439666666666667 0.2649666666666667 0.4314500000000000
0.6439666666666666 0.2649666666666667 0.9314500000000000
0.6439666666666666 0.5983000000000001 0.4314500000000000
0.6439666666666666 0.5983000000000001 0.9314500000000000
0.6439666666666667 0.9316333333333335 0.4314500000000000
0.6439666666666666 0.9316333333333333 0.9314500000000000
0.9772999999999999 0.2649666666666667 0.4314500000000000
0.9772999999999998 0.2649666666666667 0.9314500000000000
0.9772999999999999 0.5983000000000001 0.4314500000000000
0.9772999999999998 0.5983000000000001 0.9314500000000000
0.9773000000000001 0.9316333333333335 0.4314500000000000
0.9772999999999998 0.9316333333333333 0.9314500000000000
0.0142000000000000 0.2020000000000000 0.4177500000000000
0.0142000000000001 0.2020000000000001 0.9177500000000002
0.0142000000000000 0.5353333333333333 0.4177500000000000
0.0142000000000001 0.5353333333333334 0.9177500000000002
0.0142000000000000 0.8686666666666667 0.4177500000000000
0.0142000000000001 0.8686666666666667 0.9177500000000002
0.3475333333333334 0.2020000000000000 0.4177500000000000
0.3475333333333334 0.2020000000000001 0.9177500000000002
0.3475333333333334 0.5353333333333333 0.4177500000000000
0.3475333333333334 0.5353333333333334 0.9177500000000002
0.3475333333333334 0.8686666666666667 0.4177500000000000
0.3475333333333334 0.8686666666666667 0.9177500000000002
0.6808666666666667 0.2020000000000000 0.4177500000000000
0.6808666666666668 0.2020000000000001 0.9177500000000002
0.6808666666666666 0.5353333333333333 0.4177500000000000
0.6808666666666667 0.5353333333333334 0.9177500000000002
0.6808666666666667 0.8686666666666667 0.4177500000000000
0.6808666666666668 0.8686666666666667 0.9177500000000002
0.1779666666666667 0.2137666666666667 0.4316500000000000
0.1779666666666668 0.2137666666666667 0.9316500000000001
0.1779666666666667 0.5471000000000000 0.4316500000000000
0.1779666666666668 0.5471000000000000 0.9316500000000001
0.1779666666666667 0.8804333333333334 0.4316500000000000
0.1779666666666668 0.8804333333333334 0.9316500000000001
0.5113000000000001 0.2137666666666667 0.4316500000000000
0.5113000000000001 0.2137666666666667 0.9316500000000001
0.5113000000000001 0.5471000000000000 0.4316500000000000
0.5113000000000001 0.5471000000000000 0.9316500000000001
0.5113000000000001 0.8804333333333334 0.4316500000000000
0.5113000000000001 0.8804333333333334 0.9316500000000001
0.8446333333333333 0.2137666666666667 0.4316500000000000
0.8446333333333333 0.2137666666666667 0.9316500000000001
0.8446333333333333 0.5471000000000000 0.4316500000000000
0.8446333333333333 0.5471000000000000 0.9316500000000001
0.8446333333333332 0.8804333333333334 0.4316500000000000
0.8446333333333333 0.8804333333333334 0.9316500000000001
0.2113000000000000 0.2762000000000000 0.4362000000000000
0.2113000000000000 0.2762000000000001 0.9362000000000000
0.2113000000000000 0.6095333333333335 0.4362000000000000
0.2113000000000000 0.6095333333333335 0.9362000000000000
0.2113000000000000 0.9428666666666667 0.4362000000000000
0.2113000000000000 0.9428666666666667 0.9362000000000000
0.5446333333333333 0.2762000000000000 0.4362000000000000
0.5446333333333333 0.2762000000000001 0.9362000000000000
0.5446333333333333 0.6095333333333335 0.4362000000000000
0.5446333333333333 0.6095333333333335 0.9362000000000000
0.5446333333333333 0.9428666666666667 0.4362000000000000
0.5446333333333334 0.9428666666666667 0.9362000000000000
0.8779666666666666 0.2762000000000000 0.4362000000000000
0.8779666666666666 0.2762000000000001 0.9362000000000000
0.8779666666666666 0.6095333333333335 0.4362000000000000
0.8779666666666666 0.6095333333333335 0.9362000000000000
0.8779666666666666 0.9428666666666667 0.4362000000000000
0.8779666666666666 0.9428666666666667 0.9362000000000000
0.0265333333333333 0.0778666666666667 0.2416000000000000
0.0265333333333334 0.0778666666666668 0.7416000000000001
0.0265333333333333 0.4112000000000001 0.2416000000000000
0.0265333333333334 0.4112000000000001 0.7416000000000001
0.0265333333333334 0.7445333333333335 0.2416000000000000
0.0265333333333334 0.7445333333333335 0.7416000000000001
0.3598666666666668 0.0778666666666667 0.2416000000000000
0.3598666666666668 0.0778666666666668 0.7416000000000001
0.3598666666666668 0.4112000000000001 0.2416000000000000
0.3598666666666668 0.4112000000000001 0.7416000000000001
0.3598666666666667 0.7445333333333335 0.2416000000000000
0.3598666666666668 0.7445333333333335 0.7416000000000001
0.6932000000000000 0.0778666666666667 0.2416000000000000
0.6932000000000000 0.0778666666666668 0.7416000000000001
0.6932000000000000 0.4112000000000001 0.2416000000000000
0.6932000000000000 0.4112000000000001 0.7416000000000001
0.6932000000000000 0.7445333333333335 0.2416000000000000
0.6932000000000000 0.7445333333333335 0.7416000000000001
0.0008333333333334 0.1188333333333334 0.4874500000000000
0.0008333333333334 0.1188333333333333 0.9874499999999999
0.0008333333333334 0.4521666666666667 0.4874500000000000
0.0008333333333334 0.4521666666666667 0.9874499999999999
0.0008333333333334 0.7855000000000000 0.4874500000000000
0.0008333333333334 0.7855000000000000 0.9874499999999999
0.3341666666666667 0.1188333333333334 0.4874500000000000
0.3341666666666667 0.1188333333333333 0.9874499999999999
0.3341666666666667 0.4521666666666667 0.4874500000000000
0.3341666666666667 0.4521666666666667 0.9874499999999999
0.3341666666666667 0.7855000000000000 0.4874500000000000
0.3341666666666667 0.7855000000000000 0.9874499999999999
0.6674999999999999 0.1188333333333334 0.4874500000000000
0.6675000000000000 0.1188333333333333 0.9874499999999999
0.6674999999999999 0.4521666666666667 0.4874500000000000
0.6675000000000000 0.4521666666666667 0.9874499999999999
0.6675000000000000 0.7855000000000000 0.4874500000000000
0.6675000000000000 0.7855000000000000 0.9874499999999999
