      -----------------------------------------------------------      
     |                   =====================                   |     
     |                           x T B                           |     
     |                   =====================                   |     
     |                         S. Grimme                         |     
     |          Mulliken Center for Theoretical Chemistry        |     
     |                    University of Bonn                     |     
      -----------------------------------------------------------      

   * xtb version 6.7.1 (edcfbbe) compiled by 'conda@5dfe00f5fb80' on 2026-06-10

   xtb is free software: you can redistribute it and/or modify it under
   the terms of the GNU Lesser General Public License as published by
   the Free Software Foundation, either version 3 of the License, or
   (at your option) any later version.
   
   xtb is distributed in the hope that it will be useful,
   but WITHOUT ANY WARRANTY; without even the implied warranty of
   MERCHANTABILITY or FITNESS FOR A PARTICULAR PURPOSE.  See the
   GNU Lesser General Public License for more details.
   
   Cite this work as:
   * C. Bannwarth, E. Caldeweyher, S. Ehlert, A. Hansen, P. Pracht,
     J. Seibert, S. Spicher, S. Grimme, WIREs Comput. Mol. Sci., 2020, 11,
     e01493. DOI: 10.1002/wcms.1493
   
   for GFN2-xTB:
   * C. Bannwarth, S. Ehlert and S. Grimme., J. Chem. Theory Comput., 2019,
     15, 1652-1671. DOI: 10.1021/acs.jctc.8b01176
   for GFN1-xTB:
   * S. Grimme, C. Bannwarth, P. Shushkov, J. Chem. Theory Comput., 2017,
     13, 1989-2009. DOI: 10.1021/acs.jctc.7b00118
   for GFN0-xTB:
   * P. Pracht, E. Caldeweyher, S. Ehlert, S. Grimme, ChemRxiv, 2019, preprint.
     DOI: 10.26434/chemrxiv.8326202.v1
   for GFN-FF:
   * S. Spicher and S. Grimme, Angew. Chem. Int. Ed., 2020, 59, 15665-15673.
     DOI: 10.1002/anie.202004239
   
   for ALPB and GBSA implicit solvation:
   * S. Ehlert, M. Stahn, S. Spicher, S. Grimme, J. Chem. Theory Comput.,
     2021, 17, 4250-4261. DOI: 10.1021/acs.jctc.1c00471
   
   for ddCOSMO and CPCM-X implicit solvation:
   * M. Stahn, S. Ehlert, S. Grimme, J. Phys. Chem. A,
     2023, XX, XXXX-XXXX. DOI: 10.1021/acs.jpca.3c04382
   
   for DFT-D4:
   * E. Caldeweyher, C. Bannwarth and S. Grimme, J. Chem. Phys., 2017,
     147, 034112. DOI: 10.1063/1.4993215
   * E. Caldeweyher, S. Ehlert, A. Hansen, H. Neugebauer, S. Spicher,
     C. Bannwarth and S. Grimme, J. Chem. Phys., 2019, 150, 154122.
     DOI: 10.1063/1.5090222
   * E. Caldeweyher, J.-M. Mewes, S. Ehlert and S. Grimme, Phys. Chem. Chem. Phys.
     2020, 22, 8499-8512. DOI: 10.1039/D0CP00502A
   
   for sTDA-xTB:
   * S. Grimme and C. Bannwarth, J. Chem. Phys., 2016, 145, 054103.
     DOI: 10.1063/1.4959605
   
   in the mass-spec context:
   * V. Asgeirsson, C. Bauer and S. Grimme, Chem. Sci., 2017, 8, 4879.
     DOI: 10.1039/c7sc00601b
   * J. Koopman and S. Grimme, ACS Omega 2019, 4, 12, 15120-15133.
     DOI: 10.1021/acsomega.9b02011
   
   for metadynamics refer to:
   * S. Grimme, J. Chem. Theory Comput., 2019, 155, 2847-2862
     DOI: 10.1021/acs.jctc.9b00143
   
   for SPH calculations refer to:
   * S. Spicher and S. Grimme, J. Chem. Theory Comput., 2021, 17, 1701-1714
     DOI: 10.1021/acs.jctc.0c01306
   
   for ONIOM refer to:
   * C. Plett, A. Katbashev, S. Ehlert, S. Grimme, M. Bursch,
     Phys. Chem. Chem. Phys., 2023, 25, 17860-17868. DOI: 10.1039/D3CP02178E
   
   for DIPRO refer to:
   * J. Kohn, N. Gildemeister, S. Grimme, D. Fazzi, A. Hansen,
     J. Chem. Phys., 2023, just accepted.
   
   for PTB refer to:
   * S. Grimme, M. Mueller, A. Hansen, J. Chem. Phys., 2023, 158, 124111.
     DOI: 10.1063/5.0137838
   
   with help from (in alphabetical order)
   P. Atkinson, C. Bannwarth, F. Bohle, G. Brandenburg, E. Caldeweyher
   M. Checinski, S. Dohm, S. Ehlert, S. Ehrlich, I. Gerasimov, C. Hölzer
   A. Katbashev, J. Kohn, J. Koopman, C. Lavigne, S. Lehtola, F. März, M. Müller,
   F. Musil, H. Neugebauer, J. Pisarek, C. Plett, P. Pracht, F. Pultar,
   J. Seibert, P. Shushkov, S. Spicher, M. Stahn, M. Steiner, T. Strunk,
   J. Stückrath, T. Rose, and J. Unsleber
   
 * started run on 2026/09/03 at 03:16:52.763     
   ID    Z sym.   atoms
    1    6 C      1-240
    2   17 Cl     241-258
    3    1 H      259-404
    4    7 N      405-530
    5    8 O      531-591
    6   30 Zn     592-615

           -------------------------------------------------
          |                Calculation Setup                |
           -------------------------------------------------

          program call               : /home/leehk/miniconda3/envs/spectra/bin/xtb POSCAR --gfnff --opt
          coordinate file            : POSCAR
          omp threads                :                     3


molecular fragmentation (1/2 indicates fragments):
111111111111111111111222111111111122211111212111112221111211211111111111
111111111111111111121111122211112211112211111111111111122211112122111111
111122211111111111111111111111111111111122111111111111111111111111111111
111111111111122111112211211121112121211111111111111121212211111112211122
211211121111121111112111121221122121122111111221111221112221111111111112
111122111211221111111211211211112111121111111111111111111111111111111111
111111121111111111111111111111111111111111111111111111111111111111111111
111111111111111111111111112111221112112122111111111111221112121112121121
211121112121111111111111111111111111111
# atoms in fragment 1/2:   516    99
 fragment masses (1/2) :     7026.81      950.96
CMA distance (Bohr)    :   0.247
constraining FC (au)   :  0.0500

          ==================== Thresholds ====================
          CN  :   150.00000
          rep :   500.00000
          disp:  2500.00000
          HB1 :   250.00000
          HB2 :   450.00000

          Pauling EN used:
          Z : 1  EN :  2.20
          Z : 6  EN :  2.55
          Z : 7  EN :  3.04
          Z : 8  EN :  3.44
          Z :17  EN :  3.16
          Z :30  EN :  1.65
          electric field strengths (au): 0.000

           ------------------------------------------------- 
          |           Force Field Initialization            |
           ------------------------------------------------- 

          distances ...
          ----------------------------------------
          generating topology and atomic info file ...
          pair mat ...
          computing topology distances matrix with Floyd-Warshall algo ...
          making topology EEQ charges ...
          #fragments for EEQ constrain: 1
          ----------------------------------------
          generating topology and atomic info file ...
          pair mat ...
          computing topology distances matrix with Floyd-Warshall algo ...
          making topology EEQ charges ...
          #fragments for EEQ constrain: 1
          rings ...
          # BATM   9968
          # H in HB   144
          doing iterative Hueckel for 49 subsystem(s) ...

  atom   neighbors  erfCN metchar sp-hybrid imet pi  qest     coordinates
    1  C       3    2.94   0.00         2    0    1   0.030    8.316394   12.487602   17.513864
    2  C       3    2.94   0.00         2    0    1   0.034   40.717223   12.505527   17.572637
    3  C       3    2.82   0.00         2    0    1   0.033   42.793127    8.528823   17.398782
    4  C       3    2.84   0.00         2    0    1  -0.015   40.745158   10.032417   16.736554
    5  C       3    2.95   0.00         2    0    1   0.011   31.047922   16.650695   15.332152
    6  C       3    2.94   0.00         2    0    1   0.011   39.791656   15.354567   10.558116
    7  C       3    2.94   0.00         2    0    1   0.033   34.620900   10.091095   18.474848
    8  C       3    2.82   0.00         2    0    1  -0.007   35.314418    9.345438   22.852956
    9  C       3    2.81   0.00         2    0    1  -0.013   35.580599   10.902713   20.784182
   10  C       3    2.95   0.00         2    0    1   0.035   15.128060    1.252326   17.461292
   11  C       3    2.82   0.00         2    0    1   0.033   10.654239    1.549570   17.199942
   12  C       3    2.84   0.00         2    0    1  -0.015   13.017494    2.495563   16.556649
   13  C       3    2.95   0.00         2    0    1   0.012   23.612395    7.527464   15.339784
   14  C       3    2.81   0.00         2    0    1  -0.016   22.240934   25.509439   20.840958
   15  C       3    2.94   0.00         2    0    1   0.033   16.090361    7.696216   18.454013
   16  C       3    2.81   0.00         2    0    1  -0.013   16.286211    6.438296   20.754462
   17  C       3    2.94   0.00         2    0    1   0.035    6.610745   13.644435   35.682006
   18  C       3    2.82   0.00         2    0    1   0.033    4.267866    9.812396   35.737347
   19  C       3    2.84   0.00         2    0    1  -0.016    4.467977   12.321881   34.988672
   20  C       3    2.95   0.00         2    0    1   0.012    5.051369   24.119066   33.627517
   21  C       3    2.94   0.00         2    0    1   0.011    8.141617   16.140133   28.685268
   22  C       3    2.94   0.00         2    0    1   0.035    1.509250   17.602722    0.286926
   23  C       3    2.82   0.00         2    0    1   0.033    1.747834   16.475343    4.635053
   24  C       3    2.85   0.00         2    0    1  -0.016    2.960615   17.008206    2.374243
   25  C       3    2.94   0.00         2    0    1   0.034  -16.218070   30.131472   35.619029
   26  C       3    2.82   0.00         2    0    1   0.033  -18.357022   34.079040   35.645014
   27  C       3    2.84   0.00         2    0    1  -0.016  -16.305098   32.632901   34.875087
   28  C       3    2.82   0.00         2    0    1  -0.007   15.045889    7.428542   22.817278
   29  C       3    2.95   0.00         2    0    1   0.011   -6.451472   26.206600   33.557337
   30  C       3    2.84   0.00         2    0    1  -0.014   23.762326   25.989998   22.889794
   31  C       3    2.94   0.00         2    0    1   0.010   16.160374   26.672067   10.565008
   32  C       3    2.81   0.00         2    0    1  -0.015    8.322254    9.938615    1.172364
   33  C       3    2.95   0.00         2    0    1   0.010   18.194432   16.499542    2.995330
   34  C       3    2.94   0.00         2    0    1   0.010    9.612027   15.331795    7.769002
   35  C       3    2.94   0.00         2    0    1   0.032   14.726298    9.803842   36.538011
   36  C       3    2.84   0.00         2    0    1  -0.014   14.077302    9.050950   32.153996
   37  C       3    2.81   0.00         2    0    1  -0.015   13.728495   10.577896   34.225221
   38  C       3    2.94   0.00         2    0    1   0.031   34.414997    0.986698    0.496563
   39  C       3    2.85   0.00         2    0    1  -0.014   38.902543    0.796787    0.289137
   40  C       3    2.81   0.00         2    0    1  -0.015   36.763174    1.991744    1.145587
   41  C       3    2.95   0.00         2    0    1   0.009   26.104654    7.557453    2.922923
   42  C       3    2.94   0.00         2    0    1   0.010   31.252670    0.662107    7.795572
   43  C       3    2.94   0.00         2    0    1   0.032   33.557098    7.855597   36.514837
   44  C       3    2.94   0.00         2    0    1   0.033   23.382173   25.061840   18.509085
   45  C       3    2.84   0.00         2    0    1  -0.014   34.509826    7.723574   32.125667
   46  C       3    2.94   0.00         2    0    1   0.033   31.164411   29.101335    0.528865
   47  C       3    2.85   0.00         2    0    1  -0.014   28.972547   33.020578    0.410102
   48  C       3    2.81   0.00         2    0    1  -0.015   29.076088   30.555984    1.218772
   49  C       3    2.95   0.00         2    0    1   0.011   29.868193   18.682351    2.977239
   50  C       3    2.94   0.00         2    0    1   0.011   33.227218   26.717598    7.808768
   51  C       3    2.94   0.00         2    0    1   0.032   25.931488   24.916309   36.557499
   52  C       3    2.82   0.00         2    0    1  -0.007   25.663125   25.921555   32.186395
   53  C       3    2.81   0.00         2    0    1  -0.012   27.130709   25.358767   34.260060
   54  C       3    2.94   0.00         2    0    1   0.033   18.071745   28.974576   17.619631
   55  C       3    2.82   0.00         2    0    1   0.033   20.473638   32.766924   17.529291
   56  C       3    2.85   0.00         2    0    1  -0.016   20.220877   30.243366   16.852423
   57  C       3    2.95   0.00         2    0    1   0.011   19.377946   18.529879   15.336246
   58  C       3    2.81   0.00         2    0    1  -0.015   33.375430    6.629957   34.189782
   59  C       3    2.94   0.00         2    0    1   0.011  -15.085547   27.334142   28.807584
   60  C       3    2.95   0.00         2    0    1   0.034  -10.216744   32.563524   36.662791
   61  C       3    2.82   0.00         2    0    1   0.033  -11.147005   32.750002    4.375031
   62  C       3    2.98   0.00         2    0    1   0.051   33.967581   19.589885    3.252216
   63  C       3    2.98   0.00         2    0    1   0.052   24.822191    3.559809    3.153425
   64  C       3    3.00   0.00         2    0    1   0.048   13.436059   14.143928    9.022057
   65  C       3    3.00   0.00         2    0    1   0.048   30.395310    4.576956    9.036611
   66  C       3    3.00   0.00         2    0    1   0.054   30.271194   24.007545    9.047031
   67  C       3    3.00   0.00         2    0    1   0.052   10.884385   28.598625   27.590387
   68  C       3    3.00   0.00         2    0    1   0.048   -5.714413   38.101145   27.614326
   69  C       3    3.00   0.00         2    0    1   0.053   -5.450732   18.629166   27.630614
   70  C       3    3.00   0.00         2    0    1   0.054    5.365154   19.020765   27.421515
   71  C       3    3.00   0.00         2    0    1   0.052  -11.257303   28.383342   27.433136
   72  C       3    3.00   0.00         2    0    1   0.054    5.450511   37.871053   27.406886
   73  C       3    3.00   0.00         2    0    1   0.050   19.064296   23.911325    9.317497
   74  C       3    2.98   0.00         2    0    1   0.050   15.377193   19.608374    3.295675
   75  C       3    3.00   0.00         2    0    1   0.051   35.931046   14.291285    9.300084
   76  C       3    2.98   0.00         2    0    1   0.032   16.419310    9.204531   14.527248
   77  C       3    2.98   0.00         2    0    1   0.032   33.217670    9.588125   14.527408
   78  C       3    2.98   0.00         2    0    1   0.034   24.450979   24.004116   14.575393
   79  C       3    2.98   0.00         2    0    1   0.033    8.319179   33.278130   33.231256
   80  C       3    2.98   0.00         2    0    1   0.033   -8.473197   33.380822   32.924904
   81  C       3    2.98   0.00         2    0    1   0.034   -0.018682   18.832272   33.241016
   82  C       3    2.98   0.00         2    0    1   0.033    0.131923   18.786769   21.770252
   83  C       3    2.98   0.00         2    0    1   0.029   -8.574546   33.058273   22.161812
   84  C       3    2.98   0.00         2    0    1   0.032    8.174166   33.347978   21.783165
   85  C       3    2.98   0.00         2    0    1   0.033   24.775397   23.919980    3.814247
   86  C       3    2.98   0.00         2    0    1   0.029   33.185087    9.315518    3.772611
   87  C       3    2.98   0.00         2    0    1   0.033   16.255302    9.405497    3.767724
   88  C       3    3.00   0.00         2    0    1   0.055   19.329550    4.687000    9.225891
   89  C       3    2.98   0.00         2    0    1   0.049   -0.252535   39.116611   21.562764
   90  C       3    2.98   0.00         2    0    1   0.051   -9.172295   22.894903   21.618804
   91  C       3    2.98   0.00         2    0    1   0.053    9.164052   23.260194   21.498664
   92  C       3    2.85   0.00         2    0    1  -0.016  -11.388046   31.525373    2.075511
   93  C       3    2.94   0.00         2    0    1   0.035    9.618806   41.505470   35.592011
   94  C       3    2.82   0.00         2    0    1   0.033   14.102635   41.277336   35.500484
   95  C       3    2.84   0.00         2    0    1  -0.016   11.780755   40.280983   34.786556
   96  C       3    2.95   0.00         2    0    1   0.012    1.251139   35.104290   33.671911
   97  C       3    2.94   0.00         2    0    1   0.011    6.617087   41.708054   28.640132
   98  C       3    2.94   0.00         2    0    1   0.035    8.651985   35.234687    0.268342
   99  C       3    2.82   0.00         2    0    1   0.033    9.518135   36.003322    4.616228
  100  C       3    2.85   0.00         2    0    1  -0.016    8.457391   36.794314    2.354145
  101  C       3    2.98   0.00         2    0    1   0.029    9.523838   16.487230   18.108623
  102  C       3    2.98   0.00         2    0    1   0.029    5.566678   42.682388   18.180468
  103  C       3    2.98   0.00         2    0    1   0.034   34.034569   26.009480   18.183404
  104  C       3    2.98   0.00         2    0    1   0.029   15.027075   26.233668    0.157582
  105  C       3    2.98   0.00         2    0    1   0.033   -5.554210   42.605155    0.148631
  106  C       3    2.98   0.00         2    0    1   0.033   -9.269702   16.721588    0.182195
  107  C       3    2.98   0.00         2    0    1   0.033   15.009505   26.207197   18.471037
  108  C       3    2.98   0.00         2    0    1   0.030   -5.659979   42.593026   18.480215
  109  C       3    2.98   0.00         2    0    1   0.033   -9.417919   16.532901   18.494413
  110  C       3    2.98   0.00         2    0    1   0.033    9.552526   16.527790   36.579298
  111  C       3    2.98   0.00         2    0    1   0.032   30.350109    0.035780   36.568102
  112  C       3    2.98   0.00         2    0    1   0.034   34.109749   26.148336   36.541532
  113  C       3    2.98   0.00         2    0    1   0.049   15.278708   19.431608   15.055722
  114  C       3    2.98   0.00         2    0    1   0.050   24.926711    3.534463   15.154769
  115  C       3    2.98   0.00         2    0    1   0.055   33.868624   19.763603   15.095970
  116  C       3    2.98   0.00         2    0    1   0.053    9.163682   23.236989   33.503939
  117  C       3    2.98   0.00         2    0    1   0.053   -0.061429   39.100485   33.533018
  118  C       3    2.98   0.00         2    0    1   0.054   -9.237439   23.054585   33.418269
  119  C       3    2.85   0.00         2    0    1  -0.014    6.215256    8.623941    0.418238
  120  C       3    2.94   0.00         2    0    1   0.032    8.508148   12.485683    0.515905
  121  C       3    2.95   0.00         2    0    1   0.011   18.057533    0.913169   10.539172
  122  C       3    2.82   0.00         2    0    1   0.033   -1.708550   16.434119   13.714793
  123  C       3    2.94   0.00         2    0    1   0.032   -9.588769   41.545539   36.186955
  124  C       3    2.85   0.00         2    0    1  -0.014  -14.078267   41.632294   36.304172
  125  C       3    2.81   0.00         2    0    1  -0.015  -11.898441   40.470871   35.506794
  126  C       3    2.95   0.00         2    0    1   0.009   -1.340453   35.097284   33.720354
  127  C       3    2.94   0.00         2    0    1   0.010   -6.534631   42.022914   28.857093
  128  C       3    2.94   0.00         2    0    1   0.032   -8.835094   34.862682    0.174504
  129  C       3    2.84   0.00         2    0    1  -0.014   -9.766206   35.012279    4.567574
  130  C       3    2.81   0.00         2    0    1  -0.015   -8.628126   36.088651    2.497044
  131  C       3    2.93   0.00         2    0    1   0.032   -6.499059   13.596788   36.152058
  132  C       3    2.82   0.00         2    0    1  -0.007   -4.631496    9.507088   36.210318
  133  C       3    2.81   0.00         2    0    1  -0.012   -4.537850   11.994107   35.437688
  134  C       3    2.96   0.00         2    0    1   0.010   -5.138047   23.973360   33.635812
  135  C       3    2.81   0.00         2    0    1  -0.015   11.057963   32.140009    2.705898
  136  C       3    2.94   0.00         2    0    1   0.011   -8.455996   15.996065   28.899321
  137  C       3    2.84   0.00         2    0    1  -0.014   -0.905507   16.498779    4.798640
  138  C       3    2.81   0.00         2    0    1  -0.015   -2.370615   17.039963    2.720283
  139  C       3    2.95   0.00         2    0    1   0.034    6.504887   13.711466   19.076536
  140  C       3    2.82   0.00         2    0    1   0.033    4.135117    9.903403   19.274623
  141  C       3    2.84   0.00         2    0    1  -0.016    4.392789   12.433586   19.926517
  142  C       3    2.95   0.00         2    0    1   0.010    5.055887   24.148161   21.313760
  143  C       3    2.95   0.00         2    0    1   0.010    8.079067   16.122279   26.092391
  144  C       3    2.93   0.00         2    0    1   0.033    1.251680   17.616176   17.873027
  145  C       3    2.84   0.00         2    0    1  -0.014    0.941416   16.498445   13.516538
  146  C       3    2.81   0.00         2    0    1  -0.016    2.426150   17.064637   15.574477
  147  C       3    2.96   0.00         2    0    1   0.037  -15.909061   30.079524   19.027475
  148  C       3    2.82   0.00         2    0    1   0.012  -17.779647   34.147638   19.215235
  149  C       3    2.93   0.00         2    0    1   0.033   -1.175379   17.616622    0.438129
  150  C       3    2.84   0.00         2    0    1  -0.014   10.806728   33.684158    4.782152
  151  C       3    2.93   0.00         2    0    1   0.032    9.965046   32.893929    0.424624
  152  C       3    2.95   0.00         2    0    1   0.009   14.736638   27.654551   28.933815
  153  C       3    2.85   0.00         2    0    1  -0.014    5.988035    8.659770   17.840038
  154  C       3    2.81   0.00         2    0    1  -0.015    8.066359    9.926356   16.937320
  155  C       3    2.95   0.00         2    0    1   0.007   18.074798   16.291597   15.237156
  156  C       3    2.94   0.00         2    0    1   0.007    9.632179   15.309050   10.362560
  157  C       3    2.96   0.00         2    0    1   0.036   14.644879    9.944510   18.261005
  158  C       3    2.82   0.00         2    0    1   0.012   13.595327    9.628217   22.602750
  159  C       3    2.81   0.00         2    0    1  -0.009   13.391316   10.897720   20.340767
  160  C       3    2.94   0.00         2    0    1   0.029   34.275828    0.951231   17.568550
  161  C       3    2.85   0.00         2    0    1  -0.014   38.755954    0.863140   17.868460
  162  C       3    2.81   0.00         2    0    1  -0.015   36.611510    2.024182   16.980088
  163  C       3    2.95   0.00         2    0    1   0.007   26.202208    7.545267   15.231794
  164  C       3    2.94   0.00         2    0    1   0.007   31.236929    0.692860   10.388830
  165  C       3    2.96   0.00         2    0    1   0.036   33.386715    7.720096   18.283682
  166  C       3    2.82   0.00         2    0    1   0.012   34.132550    6.990120   22.637126
  167  C       3    2.85   0.00         2    0    1  -0.016   -2.898596   16.930084   15.995648
  168  C       3    2.93   0.00         2    0    1   0.033   31.387107   29.230066   17.455051
  169  C       3    2.82   0.00         2    0    1  -0.007   29.478581   33.285858   17.760974
  170  C       3    2.81   0.00         2    0    1  -0.013   29.398024   30.844710   16.857102
  171  C       3    2.96   0.00         2    0    1   0.011   29.752431   18.894038   15.238920
  172  C       3    2.94   0.00         2    0    1   0.012   33.176888   26.721826   10.401886
  173  C       3    2.95   0.00         2    0    1   0.034   26.060617   25.147349   18.287755
  174  C       3    2.82   0.00         2    0    1   0.033   26.409157   26.063987   22.669197
  175  C       3    2.85   0.00         2    0    1  -0.016   27.564530   25.660084   20.358249
  176  C       3    2.94   0.00         2    0    1   0.032   16.164431   30.235216   36.121804
  177  C       3    2.85   0.00         2    0    1  -0.014   18.503359   34.069021   36.228169
  178  C       3    2.81   0.00         2    0    1  -0.015   16.408885   32.765160   35.420008
  179  C       3    2.95   0.00         2    0    1   0.009    6.352366   26.359587   33.701641
  180  C       3    2.81   0.00         2    0    1  -0.009  -15.828098   32.551015   19.862523
  181  C       3    2.95   0.00         2    0    1   0.008   -6.380539   26.034334   21.378782
  182  C       3    2.81   0.00         2    0    1  -0.009   33.154724    6.171548   20.369597
  183  C       3    2.94   0.00         2    0    1   0.030   -9.971098   32.538961   18.214870
  184  C       3    2.95   0.00         2    0    1   0.035   16.051610    7.471364    0.039734
  185  C       3    2.82   0.00         2    0    1   0.033   15.370258    6.736104   32.338531
  186  C       3    2.85   0.00         2    0    1  -0.016   16.350838    5.933882   34.627887
  187  C       3    2.94   0.00         2    0    1   0.033   16.220388   30.195858   19.137500
  188  C       3    2.85   0.00         2    0    1  -0.014   18.575439   34.015929   18.900823
  189  C       3    2.81   0.00         2    0    1  -0.016   16.463226   32.754418   19.730933
  190  C       3    2.95   0.00         2    0    1   0.010    6.354964   26.389879   21.379124
  191  C       3    2.94   0.00         2    0    1   0.011   14.759137   27.581962   26.341364
  192  C       3    2.94   0.00         2    0    1   0.034   10.069679   32.654303   18.089557
  193  C       3    2.82   0.00         2    0    1   0.033   11.206957   32.998869   13.750649
  194  C       3    2.85   0.00         2    0    1  -0.016   11.340614   31.695963   16.019492
  195  C       3    2.93   0.00         2    0    1   0.030   -9.761397   41.796892   19.065275
  196  C       3    2.95   0.00         2    0    1   0.012   23.513454    7.555523    2.997531
  197  C       3    2.85   0.00         2    0    1  -0.014  -14.237224   42.054279   18.688940
  198  C       3    2.95   0.00         2    0    1   0.007   -1.581957   35.126854   21.469101
  199  C       3    2.94   0.00         2    0    1   0.007   -6.558327   41.985623   26.263775
  200  C       3    2.96   0.00         2    0    1   0.037   -8.767231   34.925298   18.406793
  201  C       3    2.82   0.00         2    0    1   0.012   -9.515089   35.646114   14.052299
  202  C       3    2.81   0.00         2    0    1  -0.009   -8.555478   36.478593   16.322165
  203  C       3    2.94   0.00         2    0    1   0.033   -6.608276   13.447192   19.143849
  204  C       3    2.85   0.00         2    0    1  -0.014   -4.487847    9.499966   18.833327
  205  C       3    2.81   0.00         2    0    1  -0.016   -4.529489   11.935169   19.731995
  206  C       3    2.95   0.00         2    0    1   0.011   -5.065075   23.802368   21.448926
  207  C       3    2.94   0.00         2    0    1   0.011   -8.444944   16.005321   26.304841
  208  C       3    2.94   0.00         2    0    1   0.033   -1.428869   17.536954   18.066568
  209  C       3    2.94   0.00         2    0    1   0.008  -15.122065   27.288979   26.214479
  210  C       3    2.81   0.00         2    0    1  -0.015  -12.149530   40.838859   19.640840
  211  C       3    2.84   0.00         2    0    1  -0.016   12.931492    2.234532    1.808309
  212  C       3    2.94   0.00         2    0    1   0.011   18.080685    0.885572    7.946272
  213  C       3    2.94   0.00         2    0    1   0.035   15.135876    1.042578    1.073737
  214  C       3    2.82   0.00         2    0    1  -0.007  -10.676911   33.280984   13.836779
  215  C       3    2.81   0.00         2    0    1  -0.012  -10.925984   31.720516   15.905332
  216  C       3    2.94   0.00         2    0    1   0.034    9.485245   41.454444   19.126360
  217  C       3    2.82   0.00         2    0    1   0.033   13.970909   41.318683   19.296802
  218  C       3    2.84   0.00         2    0    1  -0.016   11.656733   40.268579   19.959981
  219  C       3    2.95   0.00         2    0    1   0.011    1.008874   35.107342   21.394676
  220  C       3    2.95   0.00         2    0    1   0.009    6.637731   41.649190   26.047111
  221  C       3    2.93   0.00         2    0    1   0.033    8.679333   34.948347   17.909650
  222  C       3    2.84   0.00         2    0    1  -0.014    9.845148   35.274371   13.565171
  223  C       3    2.81   0.00         2    0    1  -0.016    8.602263   36.265630   15.623143
  224  C       3    2.95   0.00         2    0    1   0.031   18.010460   29.081413    1.020915
  225  C       3    2.82   0.00         2    0    1   0.033   10.646688    1.184174    1.050904
  226  C       3    2.84   0.00         2    0    1  -0.016   20.140370   30.391970    1.771223
  227  C       3    2.95   0.00         2    0    1   0.008   19.491440   18.740958    3.104641
  228  C       3    2.82   0.00         2    0    1   0.033   20.381042   32.892922    1.011579
  229  C       3    2.94   0.00         2    0    1   0.008   16.198391   26.667811    7.971363
  230  C       3    2.85   0.00         2    0    1  -0.016   36.067826   11.232743   34.627222
  231  C       3    2.82   0.00         2    0    1   0.033   35.860086   10.003403   32.327188
  232  C       3    2.94   0.00         2    0    1   0.008   39.776446   15.326491    7.964697
  233  C       3    2.95   0.00         2    0    1   0.008   31.171900   16.444725    3.084728
  234  C       3    2.81   0.00         2    0    1  -0.009   40.722035   10.171712    1.738317
  235  C       3    2.95   0.00         2    0    1   0.032   34.904533   10.173987    0.033887
  236  C       3    2.96   0.00         2    0    1   0.037   40.814962   12.680076    1.030902
  237  C       3    2.81   0.00         2    0    1  -0.009   21.816218   25.613211   34.643209
  238  C       3    2.82   0.00         2    0    1   0.012   23.031720   26.080126   32.390353
  239  C       3    2.96   0.00         2    0    1   0.037   23.258621   25.011786    0.055520
  240  C       3    2.82   0.00         2    0    1   0.013   42.641924    8.589302    0.978131
  241  Cl      1    1.06   0.00         0    0    1  -0.047    9.170956   37.904968    7.215145
  242  Cl      1    1.07   0.00         0    0    1  -0.046   42.813933    5.418486   16.516475
  243  Cl      1    1.07   0.00         0    0    1  -0.047   16.809537   39.733211   34.644694
  244  Cl      1    1.07   0.00         0    0    1  -0.047  -18.417368   37.232075   34.925730
  245  Cl      1    1.06   0.00         0    0    1  -0.047    3.572923   15.822004    7.229996
  246  Cl      1    1.07   0.00         0    0    1  -0.047    1.524615    8.206120   35.141448
  247  Cl      1    1.07   0.00         0    0    1  -0.046    8.007392    3.134224   16.234398
  248  Cl      1    1.07   0.00         0    0    1  -0.047   23.204128   34.329739   16.781395
  249  Cl      1    1.07   0.00         0    0    1  -0.047  -12.547075   31.408520    6.968642
  250  Cl      1    1.06   0.00         0    0    1  -0.047   12.707455   31.733813   11.172130
  251  Cl      1    1.07   0.00         0    0    1  -0.047   15.803595    4.836901   29.750398
  252  Cl      1    1.07   0.00         0    0    1  -0.047    7.894273    2.723447    1.767254
  253  Cl      1    1.07   0.00         0    0    1  -0.047   37.274972   11.354107   29.747028
  254  Cl      1    1.07   0.00         0    0    1  -0.047   23.046103   34.536090    1.819958
  255  Cl      1    1.07   0.00         0    0    1  -0.047   16.693013   39.798690   20.151402
  256  Cl      1    1.07   0.00         0    0    1  -0.047    1.460971    8.312715   20.151277
  257  Cl      1    1.07   0.00         0    0    1  -0.047   28.304145   26.607408   25.239294
  258  Cl      1    1.07   0.00         0    0    1  -0.047   -3.559334   15.795628   11.135093
  259  H       1    0.98   0.00         0    0    0   0.081   21.694849   29.272868   15.849134
  260  H       1    0.97   0.00         0    0    0   0.084   21.393155   18.799266   15.196101
  261  H       1    0.97   0.00         0    0    0   0.084   14.970486   27.807015   11.765602
  262  H       1    0.98   0.00         0    0    0   0.085   22.938983   26.263258   24.726113
  263  H       1    0.98   0.00         0    0    0   0.080   20.215796   25.457073   20.991861
  264  H       1    0.98   0.00         0    0    0   0.081   39.187934    9.279676   15.673656
  265  H       1    0.97   0.00         0    0    0   0.084   30.282411   14.770058   15.158823
  266  H       1    0.98   0.00         0    0    0   0.081   13.206299    4.182832   15.443304
  267  H       1    0.97   0.00         0    0    0   0.088   36.020446    9.912283   24.678301
  268  H       1    0.98   0.00         0    0    0   0.082   36.529732   12.695297   20.897260
  269  H       1    0.98   0.00         0    0    0   0.081   29.158294   25.283715   34.158659
  270  H       1    0.97   0.00         0    0    0   0.083   22.351310    9.117893   15.152354
  271  H       1    0.97   0.00         0    0    0   0.084   -7.287884   42.144795   11.776924
  272  H       1    0.97   0.00         0    0    0   0.088   15.169440    6.523279   24.638516
  273  H       1    0.98   0.00         0    0    0   0.084   -7.913334   15.774641   11.762645
  274  H       1    0.97   0.00         0    0    0   0.088   26.519117   26.261988   30.368865
  275  H       1    0.97   0.00         0    0    0   0.085   27.357520   34.177765    0.851700
  276  H       1    0.97   0.00         0    0    0   0.084   27.854284   18.952574    3.130997
  277  H       1    0.98   0.00         0    0    0   0.081   -4.917816   16.800323   16.151432
  278  H       1    0.97   0.00         0    0    0   0.085    6.033579    6.642340    0.846842
  279  H       1    0.98   0.00         0    0    0   0.080    9.834513    9.050746    2.198260
  280  H       1    0.97   0.00         0    0    0   0.084   18.960288   14.615587    3.124605
  281  H       1    0.97   0.00         0    0    0   0.084    8.043930   15.819795    6.566012
  282  H       1    0.98   0.00         0    0    0   0.085   13.408950    9.643106   30.328665
  283  H       1    0.98   0.00         0    0    0   0.079   12.731706   12.343832   34.104292
  284  H       1    0.97   0.00         0    0    0   0.085   40.739552    1.570286    0.718433
  285  H       1    0.97   0.00         0    0    0   0.079   36.876406    3.689925    2.256874
  286  H       1    0.97   0.00         0    0    0   0.085   27.343630    9.163273    3.115582
  287  H       1    0.97   0.00         0    0    0   0.084    6.965543   41.744598    6.596272
  288  H       1    0.98   0.00         0    0    0   0.085   34.322224    6.870133   30.291639
  289  H       1    0.98   0.00         0    0    0   0.079   32.343744    4.885167   34.052128
  290  H       1    0.98   0.00         0    0    0   0.082   17.363362    4.719460   20.865306
  291  H       1    0.98   0.00         0    0    0   0.080   27.582205   29.719594    2.312886
  292  H       1    0.98   0.00         0    0    0   0.084  -14.848091   27.826582    6.611057
  293  H       1    0.98   0.00         0    0    0   0.081    2.950343   13.248342   34.008579
  294  H       1    0.98   0.00         0    0    0   0.081  -14.771733   33.457272   33.830290
  295  H       1    0.97   0.00         0    0    0   0.083    9.301902   14.995067   29.907691
  296  H       1    0.97   0.00         0    0    0   0.078   35.130772   24.386097   36.625093
  297  H       1    0.97   0.00         0    0    0   0.078   17.238264    9.593065   12.704151
  298  H       1    0.97   0.00         0    0    0   0.078   32.500899   10.090735   12.689255
  299  H       1    0.97   0.00         0    0    0   0.078   24.345246   23.085639   12.763276
  300  H       1    0.97   0.00         0    0    0   0.078    7.547405   32.741351   31.425119
  301  H       1    0.97   0.00         0    0    0   0.078   -7.629262   33.009265   31.111439
  302  H       1    0.97   0.00         0    0    0   0.079   28.315164    0.099793   36.661700
  303  H       1    0.97   0.00         0    0    0   0.078   -0.103674   19.742445   31.422401
  304  H       1    0.97   0.00         0    0    0   0.079   -7.850245   32.562680   23.998678
  305  H       1    0.97   0.00         0    0    0   0.079    7.324279   32.956706   23.591504
  306  H       1    0.97   0.00         0    0    0   0.078   24.851755   23.044332    5.650397
  307  H       1    0.97   0.00         0    0    0   0.080   32.342131    9.669409    5.590124
  308  H       1    0.97   0.00         0    0    0   0.078   17.024927    9.964110    5.566690
  309  H       1    0.97   0.00         0    0    0   0.084   39.564576   15.047341   25.044702
  310  H       1    0.97   0.00         0    0    0   0.078    0.224096   19.690144   23.592239
  311  H       1    0.97   0.00         0    0    0   0.078   10.561690   18.296388   36.670269
  312  H       1    0.97   0.00         0    0    0   0.079  -10.336461   18.351463   18.554703
  313  H       1    0.97   0.00         0    0    0   0.080   -3.630153   42.436214   18.562083
  314  H       1    0.98   0.00         0    0    0   0.081    4.983198   16.907569    2.241280
  315  H       1    0.97   0.00         0    0    0   0.083   -5.696898   28.086296   33.330611
  316  H       1    0.97   0.00         0    0    0   0.083   32.698102   26.855530   30.090675
  317  H       1    0.98   0.00         0    0    0   0.081  -12.502488   29.836400    1.925642
  318  H       1    0.98   0.00         0    0    0   0.081   11.663351   38.557482   33.719285
  319  H       1    0.97   0.00         0    0    0   0.083    2.494218   33.508324   33.419754
  320  H       1    0.97   0.00         0    0    0   0.083   31.711208    0.597347   29.850076
  321  H       1    0.98   0.00         0    0    0   0.081    7.552593   38.606113    2.220998
  322  H       1    0.97   0.00         0    0    0   0.079   10.615711   18.206120   18.029452
  323  H       1    0.97   0.00         0    0    0   0.079   28.177625    0.070017   18.099052
  324  H       1    0.97   0.00         0    0    0   0.078   34.855007   24.143532   18.188565
  325  H       1    0.97   0.00         0    0    0   0.079   13.977786   24.487148    0.110079
  326  H       1    0.97   0.00         0    0    0   0.078   -3.518536   42.602350    0.050287
  327  H       1    0.97   0.00         0    0    0   0.078  -10.196431   18.536886    0.128027
  328  H       1    0.97   0.00         0    0    0   0.078   13.911250   24.490552   18.507540
  329  H       1    0.97   0.00         0    0    0   0.083    3.045784   23.855255   33.378956
  330  H       1    0.97   0.00         0    0    0   0.084   -3.053844   23.550447   21.661167
  331  H       1    0.97   0.00         0    0    0   0.084   21.500412   19.008325    3.317528
  332  H       1    0.97   0.00         0    0    0   0.085   -2.880926    8.301999   19.185645
  333  H       1    0.97   0.00         0    0    0   0.084   16.324685   27.452836   30.189556
  334  H       1    0.97   0.00         0    0    0   0.085   11.563434   33.121044    6.586886
  335  H       1    0.98   0.00         0    0    0   0.080   12.060877   30.375820    2.794390
  336  H       1    0.97   0.00         0    0    0   0.085  -15.892577   40.819949   35.866193
  337  H       1    0.98   0.00         0    0    0   0.079  -11.929177   38.749113   34.428543
  338  H       1    0.97   0.00         0    0    0   0.084   -2.574620   33.491377   33.499026
  339  H       1    0.97   0.00         0    0    0   0.084    5.590428   28.239175   33.507531
  340  H       1    0.98   0.00         0    0    0   0.084   17.782646    0.946065   30.057786
  341  H       1    0.98   0.00         0    0    0   0.079   -7.575435   37.821253    2.626223
  342  H       1    0.97   0.00         0    0    0   0.088   -3.123636    8.228374   35.723823
  343  H       1    0.97   0.00         0    0    0   0.081   -2.983387   12.722658   34.348364
  344  H       1    0.97   0.00         0    0    0   0.084   -3.123487   23.711967   33.476009
  345  H       1    0.98   0.00         0    0    0   0.084   39.601793   14.921409   30.110498
  346  H       1    0.97   0.00         0    0    0   0.085   -1.770362   16.115767    6.602174
  347  H       1    0.98   0.00         0    0    0   0.085   -9.554392   35.862396    6.400080
  348  H       1    0.98   0.00         0    0    0   0.080   14.956671   33.649827   34.307904
  349  H       1    0.98   0.00         0    0    0   0.085   18.727548   36.038584   35.769225
  350  H       1    0.98   0.00         0    0    0   0.081   29.582297   25.782724   20.192348
  351  H       1    0.98   0.00         0    0    0   0.080   -2.985870   12.713596   20.799814
  352  H       1    0.98   0.00         0    0    0   0.085    5.760870    6.669166   17.484317
  353  H       1    0.98   0.00         0    0    0   0.080    9.516936    8.985562   15.869957
  354  H       1    0.97   0.00         0    0    0   0.085   18.838944   14.415755   15.014703
  355  H       1    0.97   0.00         0    0    0   0.085    8.138226   15.870069   11.627342
  356  H       1    0.98   0.00         0    0    0   0.085   12.217243   12.542931   20.173013
  357  H       1    0.97   0.00         0    0    0   0.085   40.587585    1.676479   17.512871
  358  H       1    0.98   0.00         0    0    0   0.079   36.686208    3.754474   15.917288
  359  H       1    0.97   0.00         0    0    0   0.085   27.421845    9.152663   14.949263
  360  H       1    0.97   0.00         0    0    0   0.084    6.817182   41.804368   11.658025
  361  H       1    0.98   0.00         0    0    0   0.085   32.312095    4.334618   20.200334
  362  H       1    0.97   0.00         0    0    0   0.088   27.938476   34.567326   17.396414
  363  H       1    0.97   0.00         0    0    0   0.082   27.816544   30.146563   15.787433
  364  H       1    0.97   0.00         0    0    0   0.084   27.745656   19.164758   15.005316
  365  H       1    0.97   0.00         0    0    0   0.084  -14.893820   27.740236   11.675278
  366  H       1    0.98   0.00         0    0    0   0.080   -4.399772   17.028732    2.805732
  367  H       1    0.98   0.00         0    0    0   0.081    2.961596   13.393340   20.999678
  368  H       2    1.79   0.03         1    0    0   0.205   33.362968    3.365591   13.342065
  369  H       1    0.97   0.00         0    0    0   0.084    9.036158   14.831225   24.844928
  370  H       1    0.98   0.00         0    0    0   0.081   37.158841   12.936749   34.785600
  371  H       1    0.98   0.00         0    0    0   0.081   12.992882    3.984394    2.836096
  372  H       1    0.97   0.00         0    0    0   0.083   22.274227    9.155566    3.243770
  373  H       1    0.97   0.00         0    0    0   0.083   -7.063695   42.027122    6.716628
  374  H       1    0.98   0.00         0    0    0   0.081   17.275454    4.133385   34.771367
  375  H       1    0.98   0.00         0    0    0   0.085   18.794515   36.005806   19.267246
  376  H       1    0.98   0.00         0    0    0   0.080   14.981463   33.697277   20.752717
  377  H       1    0.97   0.00         0    0    0   0.084    5.588849   28.260724   21.636331
  378  H       1    0.97   0.00         0    0    0   0.083   16.328068   27.119728   25.126296
  379  H       1    0.98   0.00         0    0    0   0.081   12.446766   30.000928   16.166431
  380  H       1    0.97   0.00         0    0    0   0.085  -16.102015   41.311738   19.048746
  381  H       1    0.97   0.00         0    0    0   0.085   -2.829551   33.534646   21.713020
  382  H       1    0.97   0.00         0    0    0   0.085   17.840075    0.870542   24.993919
  383  H       1    0.98   0.00         0    0    0   0.085   -7.738389   38.326620   16.492282
  384  H       1    0.97   0.00         0    0    0   0.084    3.046841   23.876871   21.519778
  385  H       1    0.97   0.00         0    0    0   0.084   -7.992205   15.806410    6.701441
  386  H       1    0.97   0.00         0    0    0   0.084   30.409538   14.569739    3.320863
  387  H       1    0.97   0.00         0    0    0   0.080  -12.329889   39.151875   20.760978
  388  H       1    0.98   0.00         0    0    0   0.085   19.804127   25.812946   34.803212
  389  H       1    0.98   0.00         0    0    0   0.085   39.124020    9.444719    2.755698
  390  H       1    0.98   0.00         0    0    0   0.080    4.454045   17.092258   15.461718
  391  H       1    0.97   0.00         0    0    0   0.085    1.786919   16.127969   11.701367
  392  H       1    0.97   0.00         0    0    0   0.085   -5.631769   27.921579   21.549193
  393  H       1    0.98   0.00         0    0    0   0.085   32.574531   26.850674   25.028295
  394  H       1    0.97   0.00         0    0    0   0.088  -11.379999   32.708735   12.011892
  395  H       1    0.98   0.00         0    0    0   0.082  -11.861396   29.920575   15.793032
  396  H       1    0.98   0.00         0    0    0   0.085  -14.246714   33.231260   20.937473
  397  H       1    0.97   0.00         0    0    0   0.084    2.243856   33.495530   21.571123
  398  H       1    0.97   0.00         0    0    0   0.084   31.928811    0.424678   24.789548
  399  H       1    0.97   0.00         0    0    0   0.085    9.764865   36.210257   11.758449
  400  H       1    0.98   0.00         0    0    0   0.080    7.581758   38.018794   15.519555
  401  H       1    0.98   0.00         0    0    0   0.081   21.607341   29.468452    2.828236
  402  H       1    0.98   0.00         0    0    0   0.081   11.552241   38.549554   21.034814
  403  H       1    0.97   0.00         0    0    0   0.084   14.992376   27.709248    6.703736
  404  H       2    2.00   0.07         1    0    0   0.205   32.899506    6.196745   13.342065
  405  N       3    2.85   0.00         2    0    1  -0.108   18.835184    3.275581   11.317711
  406  N       3    2.82   0.00         2    0    1  -0.119   17.141000    7.286722   16.056533
  407  N       3    2.83   0.00         2    0    1  -0.118    7.373509   16.162531   35.321960
  408  N       3    2.86   0.00         2    0    1  -0.101    6.811219   22.198276   33.521565
  409  N       3    2.83   0.00         2    0    1  -0.118  -14.437875   28.199094   35.239087
  410  N       3    2.82   0.00         2    0    1  -0.118    2.139868   18.354514   34.495659
  411  N       3    2.85   0.00         2    0    1  -0.101  -12.685177   28.036920   29.539165
  412  N       3    2.82   0.00         2    0    1  -0.118   -9.947268   31.718431   34.165472
  413  N       3    2.85   0.00         2    0    1  -0.106   22.842887    5.036002   15.296523
  414  N       3    2.83   0.00         2    0    1  -0.118    7.035978   41.004356   35.253731
  415  N       3    2.85   0.00         2    0    1  -0.102    6.427428   17.930728   29.494196
  416  N       3    2.83   0.00         2    0    1  -0.123   17.728760    1.660277   17.140231
  417  N       3    2.83   0.00         2    0    1  -0.119   17.208155   26.496400   17.229947
  418  N       3    2.84   0.00         2    0    1  -0.107   37.397801   14.699852   11.373685
  419  N       3    2.85   0.00         2    0    1  -0.108   33.594720   17.211083   15.249009
  420  N       3    2.83   0.00         2    0    1  -0.124   39.027232   14.517615   17.199393
  421  N       3    2.81   0.00         2    0    1  -0.120   22.451527   24.366468   16.138348
  422  N       3    2.84   0.00         2    0    1  -0.102   17.956156   24.962298   11.388162
  423  N       3    2.85   0.00         2    0    1  -0.101   17.629150   20.463066   15.230222
  424  N       3    2.82   0.00         2    0    1  -0.120   26.804001   24.267792    2.295978
  425  N       3    2.85   0.00         2    0    1  -0.107   31.616491   20.616777    3.077247
  426  N       3    2.83   0.00         2    0    1  -0.125   31.910480   26.634133    1.079870
  427  N       3    2.82   0.00         2    0    1  -0.120   32.535140    7.377065    2.223773
  428  N       3    2.84   0.00         2    0    1  -0.102   30.744909    3.086922    6.968115
  429  N       3    2.85   0.00         2    0    1  -0.104   26.898656    5.072744    3.014743
  430  N       3    2.86   0.00         2    0    1  -0.101    2.021752   37.592196   33.568745
  431  N       3    2.82   0.00         2    0    1  -0.119   34.501855   11.180500   16.062166
  432  N       3    2.85   0.00         2    0    1  -0.102    5.900971   39.341265   29.467441
  433  N       3    2.79   0.00         2    0    1   0.274    8.253287   29.296563   27.557110
  434  N       3    2.79   0.00         2    0    1   0.274   12.959503   20.803417   14.618741
  435  N       3    2.79   0.00         2    0    1   0.276  -17.626464   36.759244   20.070741
  436  N       3    2.79   0.00         2    0    1   0.275   42.428656    5.938163    1.690224
  437  N       3    2.79   0.00         2    0    1   0.276   12.132413   10.573129   24.733570
  438  N       3    2.79   0.00         2    0    1   0.275   34.034236    5.251018   24.767965
  439  N       3    2.79   0.00         2    0    1   0.275   -9.379778   37.366607   11.907505
  440  N       3    2.79   0.00         2    0    1   0.275   21.498416   26.916277   30.264171
  441  N       3    2.79   0.00         2    0    1   0.272   20.062735    7.312182    9.205641
  442  N       3    2.79   0.00         2    0    1   0.273   33.290026   13.609300    9.285092
  443  N       3    2.79   0.00         2    0    1   0.273   20.976367   21.967645    9.312459
  444  N       3    2.79   0.00         2    0    1   0.272    4.704502   35.253339   27.461038
  445  N       3    2.79   0.00         2    0    1   0.273   -8.617940   29.073621   27.431363
  446  N       3    2.79   0.00         2    0    1   0.272    3.452715   20.958412   27.449579
  447  N       3    2.79   0.00         2    0    1   0.274   -3.508203   20.539791   27.611466
  448  N       3    2.79   0.00         2    0    1   0.276   -5.018369   35.465327   27.618709
  449  N       3    2.83   0.00         2    0    1  -0.121   31.933698    1.660292    1.078783
  450  N       3    2.79   0.00         2    0    1   0.274   28.338872   22.081964    9.054394
  451  N       3    2.79   0.00         2    0    1   0.275   29.687192    7.209233    9.037359
  452  N       3    2.79   0.00         2    0    1   0.276   16.072761   13.451261    9.032047
  453  N       3    2.79   0.00         2    0    1   0.274   24.825933    0.868507    3.602179
  454  N       3    2.79   0.00         2    0    1   0.274   36.284525   20.963349    3.694089
  455  N       3    2.79   0.00         2    0    1   0.274   13.038382   20.947632    3.728905
  456  N       3    2.79   0.00         2    0    1   0.275   -0.218994   41.819504   21.942859
  457  N       3    2.79   0.00         2    0    1   0.274  -11.504989   21.537300   22.027175
  458  N       3    2.79   0.00         2    0    1   0.273   11.494274   21.904120   21.916718
  459  N       3    2.79   0.00         2    0    1   0.273  -11.560603   21.678419   33.019653
  460  N       3    2.79   0.00         2    0    1   0.273   -0.063954   41.795722   33.107225
  461  N       3    2.79   0.00         2    0    1   0.273   11.494184   21.886233   33.071353
  462  N       3    2.79   0.00         2    0    1   0.273   36.216431   21.094938   14.688017
  463  N       3    2.79   0.00         2    0    1   0.274   24.924502    0.831303   14.773954
  464  N       3    2.82   0.00         2    0    1  -0.118    7.675343   35.397777   34.479123
  465  N       3    2.81   0.00         2    0    1  -0.121   14.870694   10.934877    2.241948
  466  N       3    2.86   0.00         2    0    1  -0.101   -8.988108   25.615185   33.440705
  467  N       3    2.85   0.00         2    0    1  -0.102   15.647848   17.056103    3.108946
  468  N       3    2.82   0.00         2    0    1  -0.120    2.146429   18.380090   20.240333
  469  N       3    2.84   0.00         2    0    1  -0.103    6.352543   17.913495   25.320791
  470  N       3    2.85   0.00         2    0    1  -0.103    6.813979   22.222124   21.376727
  471  N       3    2.83   0.00         2    0    1  -0.118    7.361134   16.199498   19.413670
  472  N       3    2.82   0.00         2    0    1  -0.125   -2.048919   18.365637   34.734230
  473  N       3    2.84   0.00         2    0    1  -0.107   -6.578799   17.620856   29.710716
  474  N       3    2.85   0.00         2    0    1  -0.108   -6.879876   22.033501   33.556305
  475  N       3    2.84   0.00         2    0    1  -0.120   -7.099273   16.129479   35.649380
  476  N       3    2.82   0.00         2    0    1  -0.121   -7.805065   35.319371   34.464294
  477  N       3    2.84   0.00         2    0    1  -0.101   -6.026325   39.597878   29.683346
  478  N       3    2.85   0.00         2    0    1  -0.104   -2.135358   37.582005   33.640453
  479  N       3    2.83   0.00         2    0    1  -0.121   -7.086504   40.936172   35.633739
  480  N       3    2.82   0.00         2    0    1  -0.121    9.736452   31.753686   34.728238
  481  N       3    2.84   0.00         2    0    1  -0.103   12.328908   28.290745   29.695207
  482  N       3    2.85   0.00         2    0    1  -0.103    8.897789   25.792368   33.635133
  483  N       3    2.83   0.00         2    0    1  -0.119   14.359270   28.383771   35.613721
  484  N       3    2.82   0.00         2    0    1  -0.123   26.634928   24.494487   15.785764
  485  N       3    2.85   0.00         2    0    1  -0.106   31.314905   25.056551   11.145839
  486  N       3    2.86   0.00         2    0    1  -0.107   31.517402   20.808275   15.109809
  487  N       3    2.84   0.00         2    0    1  -0.118   31.902894   26.680191   16.947813
  488  N       3    3.00   0.00         2    0    1  -0.115   32.555985    7.472648   15.785587
  489  N       3    2.85   0.00         2    0    1  -0.100   30.735508    3.138876   11.138152
  490  N       3    2.86   0.00         2    0    1  -0.101   26.996126    5.062436   15.133761
  491  N       3    2.83   0.00         2    0    1  -0.118   31.793922    1.628300   17.002354
  492  N       3    2.81   0.00         2    0    1  -0.115   14.884734   10.813730   15.774396
  493  N       3    2.85   0.00         2    0    1  -0.100   12.005153   14.538297   11.119095
  494  N       3    2.85   0.00         2    0    1  -0.101   15.536806   16.871239   15.081697
  495  N       3    2.83   0.00         2    0    1  -0.118   10.143188   14.297703   16.934920
  496  N       3    2.84   0.00         2    0    1  -0.101   11.978834   14.589303    6.948995
  497  N       3    2.83   0.00         2    0    1  -0.121  -14.319761   28.007605   19.446877
  498  N       3    2.85   0.00         2    0    1  -0.106   -8.921733   25.450550   21.479716
  499  N       3    2.84   0.00         2    0    1  -0.108   31.405237   25.038640    6.981011
  500  N       3    2.82   0.00         2    0    1  -0.117   -9.843368   31.450703   20.629249
  501  N       3    2.83   0.00         2    0    1  -0.121   10.278948   14.360426    1.055322
  502  N       3    2.84   0.00         2    0    1  -0.107  -12.738018   27.952331   25.373033
  503  N       3    2.82   0.00         2    0    1  -0.119   -2.035137   18.255479   20.549573
  504  N       3    2.85   0.00         2    0    1  -0.101   -6.550484   17.623391   25.538206
  505  N       3    2.86   0.00         2    0    1  -0.101   -6.812638   21.871219   21.580124
  506  N       3    2.83   0.00         2    0    1  -0.119   -7.235935   15.946461   19.696339
  507  N       3    2.81   0.00         2    0    1  -0.114   -7.930961   35.178893   20.902005
  508  N       3    2.85   0.00         2    0    1  -0.100   -6.077913   39.535327   25.513213
  509  N       3    2.85   0.00         2    0    1  -0.100   -2.345973   37.619321   21.558035
  510  N       3    2.82   0.00         2    0    1  -0.119    9.719880   31.742308   20.557479
  511  N       3    2.85   0.00         2    0    1  -0.102   12.361604   28.202374   25.523149
  512  N       3    2.85   0.00         2    0    1  -0.102    8.897105   25.817881   21.479358
  513  N       3    2.83   0.00         2    0    1  -0.120   14.370736   28.387654   19.651380
  514  N       3    2.82   0.00         2    0    1  -0.118   16.957557    7.299190    2.524061
  515  N       3    2.82   0.00         2    0    1  -0.118   -7.308984   41.039518   19.674736
  516  N       3    2.85   0.00         2    0    1  -0.101   22.739473    5.069657    3.122897
  517  N       3    2.83   0.00         2    0    1  -0.118    6.902431   40.948094   19.471719
  518  N       3    2.85   0.00         2    0    1  -0.102   18.849176    3.247259    7.151285
  519  N       3    2.84   0.00         2    0    1  -0.104    5.911240   39.262924   25.294017
  520  N       3    2.82   0.00         2    0    1  -0.120    7.546101   35.319542   20.269890
  521  N       3    2.83   0.00         2    0    1  -0.117   17.199513   26.588445    1.429225
  522  N       3    2.85   0.00         2    0    1  -0.100   17.727973   20.654367    3.270947
  523  N       3    2.85   0.00         2    0    1  -0.101   18.026176   24.967846    7.218440
  524  N       3    2.85   0.00         2    0    1  -0.101    1.814145   37.587431   21.441520
  525  N       3    2.83   0.00         2    0    1  -0.114   39.145618   14.688902    1.434740
  526  N       3    2.83   0.00         2    0    1  -0.118   17.704663    1.610867    1.439592
  527  N       3    2.86   0.00         2    0    1  -0.100   33.708452   17.031042    3.236781
  528  N       3    2.85   0.00         2    0    1  -0.100   37.377939   14.641872    7.206633
  529  N       3    2.82   0.00         2    0    1  -0.116   34.636783   11.002029    2.537242
  530  N       3    2.81   0.00         2    0    1  -0.115   22.615485   24.387419    2.545113
  531  O       1    0.98   0.00         2    0    1  -0.289   35.742511   22.885196   32.788144
  532  O       1    0.98   0.00         2    0    1  -0.289    2.602139   21.648687   29.510282
  533  O       1    0.98   0.00         2    0    1  -0.289   11.406696   19.566918   32.798170
  534  O       1    0.98   0.00         2    0    1  -0.289   20.501185    8.359508   11.243130
  535  O       1    0.98   0.00         2    0    1  -0.290   -1.728399   42.354661   15.043810
  536  O       1    0.98   0.00         2    0    1  -0.289  -11.076208   19.886713   14.772595
  537  O       1    0.99   0.00         2    0    1  -0.289   21.610623   21.015401   11.344112
  538  O       1    0.98   0.00         2    0    1  -0.290   13.010906   23.139215   14.686971
  539  O       1    0.99   0.00         2    0    1  -0.289   27.738274   21.087060    7.033557
  540  O       1    0.98   0.00         2    0    1  -0.289  -13.076425   23.299427    3.705217
  541  O       1    0.99   0.00         2    0    1  -0.289   -7.608750   29.629463   29.460082
  542  O       1    0.99   0.00         2    0    1  -0.289   32.131343   13.562822   11.307962
  543  O       1    0.98   0.00         2    0    1  -0.289   26.633931    0.213304   32.942477
  544  O       3    2.64   0.00         3    0    0  -0.386   34.095995    4.939100   12.814965
  545  O       1    0.98   0.00         2    0    1  -0.295   22.025644   26.163956   28.120088
  546  O       1    0.98   0.00         2    0    1  -0.295   19.713113   28.356646   30.704398
  547  O       1    0.98   0.00         2    0    1  -0.295   -9.771690   39.636673   12.296883
  548  O       1    0.98   0.00         2    0    1  -0.295   -8.867649   36.510431    9.798421
  549  O       1    0.98   0.00         2    0    1  -0.295   33.645304    6.097327   26.907192
  550  O       1    0.98   0.00         2    0    1  -0.295   34.342750    2.976085   24.336023
  551  O       1    0.98   0.00         2    0    1  -0.295   13.030429   10.425566   26.882429
  552  O       1    0.98   0.00         2    0    1  -0.295   10.032776   11.496439   24.292366
  553  O       1    0.98   0.00         2    0    1  -0.295   44.031968    4.414806    0.931376
  554  O       1    0.98   0.00         2    0    1  -0.295   40.604780    5.296233    3.012810
  555  O       1    0.98   0.00         2    0    1  -0.295  -19.215638   38.300301   19.316587
  556  O       1    0.98   0.00         2    0    1  -0.295  -15.869439   37.353297   21.500588
  557  O       1    0.99   0.00         2    0    1  -0.290   29.227548    8.244212    6.999978
  558  O       1    0.99   0.00         2    0    1  -0.289    4.518545   34.196145   29.533267
  559  O       1    0.98   0.00         2    0    1  -0.290    2.231920   42.445622    3.733558
  560  O       1    0.98   0.00         2    0    1  -0.289   37.886008   19.236960   22.431136
  561  O       1    0.98   0.00         2    0    1  -0.290   11.043024   19.731045    3.770726
  562  O       1    0.98   0.00         2    0    1  -0.290   11.003159   19.590799   14.210763
  563  O       1    0.99   0.00         2    0    1  -0.290   17.216542   13.363210    7.002750
  564  O       1    0.98   0.00         2    0    1  -0.290    2.287711   42.465003   14.211122
  565  O       1    0.99   0.00         2    0    1  -0.290   29.588079    8.335939   11.077107
  566  O       1    0.98   0.00         2    0    1  -0.289  -13.148583   23.396956   14.288295
  567  O       1    0.99   0.00         2    0    1  -0.289   27.336030   21.515506   11.083063
  568  O       1    0.98   0.00         2    0    1  -0.289   13.492083   23.095877   33.005450
  569  O       1    0.98   0.00         2    0    1  -0.290    7.148215   29.537872   29.596985
  570  O       1    0.98   0.00         2    0    1  -0.289   22.529970    0.213752   32.938533
  571  O       1    0.99   0.00         2    0    1  -0.290   -4.532079   34.439630   29.655140
  572  O       1    0.98   0.00         2    0    1  -0.289   37.813050   19.343632   32.943061
  573  O       1    0.99   0.00         2    0    1  -0.290   -2.827375   21.459516   29.643308
  574  O       1    0.98   0.00         2    0    1  -0.289    2.727768   21.824822   25.408338
  575  O       1    0.98   0.00         2    0    1  -0.289   35.773542   22.721337   21.938142
  576  O       1    0.99   0.00         2    0    1  -0.290   17.084067   12.947432   11.072080
  577  O       1    0.98   0.00         2    0    1  -0.290   26.476858    0.248673   21.844118
  578  O       1    0.99   0.00         2    0    1  -0.290   -2.590777   21.168155   25.560693
  579  O       1    0.99   0.00         2    0    1  -0.289   -7.469697   29.110472   25.402926
  580  O       1    0.99   0.00         2    0    1  -0.290   -4.954775   34.326313   25.584987
  581  O       1    0.98   0.00         2    0    1  -0.290   22.402569    0.231801   22.337594
  582  O       1    0.98   0.00         2    0    1  -0.290    7.223440   29.650371   25.493724
  583  O       1    0.98   0.00         2    0    1  -0.289   13.442456   23.130373   22.320691
  584  O       1    0.98   0.00         2    0    1  -0.289   11.459404   19.569308   21.838791
  585  O       1    0.98   0.00         2    0    1  -0.290   -1.871179   42.459069    3.823342
  586  O       1    0.99   0.00         2    0    1  -0.289   32.291196   13.068117    7.247611
  587  O       1    0.98   0.00         2    0    1  -0.289  -11.034931   19.754130    4.027484
  588  O       1    0.99   0.00         2    0    1  -0.289   21.927632   21.346517    7.275114
  589  O       1    0.98   0.00         2    0    1  -0.289    4.311296   34.173106   25.430692
  590  O       1    0.99   0.00         2    0    1  -0.289   20.184851    8.420526    7.155752
  591  O       1    0.98   0.00         2    0    1  -0.290   13.115110   23.265385    4.023075
  592  Zn      4    3.45   0.14         3    2    0   0.211   13.224417   14.186079    3.382248
  593  Zn      4    3.45   0.14         3    2    0   0.211   30.574220    4.318216    3.376520
  594  Zn      4    3.47   0.14         3    2    0   0.212   30.418139   24.147125    3.439464
  595  Zn      4    3.46   0.13         3    2    0   0.212   19.190969    4.311298   14.928021
  596  Zn      4    3.46   0.14         3    2    0   0.213   36.083394   14.431230   14.910003
  597  Zn      4    3.46   0.13         3    2    0   0.211    5.650385   18.666559   33.117408
  598  Zn      4    3.48   0.14         3    2    0   0.211  -11.427867   28.424594   33.050017
  599  Zn      4    3.46   0.13         3    2    0   0.211    5.660348   38.285016   33.083845
  600  Zn      4    3.45   0.14         3    2    0   0.211   18.844924   24.012716   14.953948
  601  Zn      4    3.47   0.14         3    2    0   0.211   -5.544177   18.376741   21.976877
  602  Zn      4    3.47   0.13         3    2    0   0.211   19.089575    4.362989    3.577835
  603  Zn      4    3.46   0.14         3    2    0   0.211   11.359568   28.604414   21.899517
  604  Zn      4    3.47   0.13         3    2    0   0.212   36.178244   14.271423    3.666664
  605  Zn      4    3.46   0.14         3    2    0   0.212   18.987501   24.161988    3.665883
  606  Zn      4    3.45   0.14         3    2    0   0.211    5.515452   38.225858   21.661588
  607  Zn      4    3.46   0.14         3    2    0   0.211    5.654253   18.674521   21.665365
  608  Zn      4    3.47   0.15         3    2    0   0.212   -5.557418   18.536445   33.259983
  609  Zn      4    3.45   0.14         3    2    0   0.211   -5.799039   38.328720   33.260925
  610  Zn      4    3.46   0.14         3    2    0   0.211   11.356727   28.608835   33.350630
  611  Zn      4    3.49   0.15         3    2    0   0.213   30.224456   24.279476   14.647587
  612  Zn      7    4.29   0.08         0    2    0   0.181   30.648840    4.374798   14.698335
  613  Zn      4    3.46   0.15         3    2    0   0.212   13.141242   14.010204   14.675667
  614  Zn      4    3.46   0.15         3    2    0   0.212   -6.029125   38.303233   21.946042
  615  Zn      4    3.46   0.14         3    2    0   0.213  -11.439285   28.203748   21.817315

          #atoms :   615
          #bonds :   713
          #angl  :   1241
          #tors  :   2478
          #nmol  :   1
          #optfrag :   1
           ------------------------------------------------- 
          |                   G F N - F F                   |
          |          A general generic force-field          |
          |                  Version 1.0.3                  | 
           ------------------------------------------------- 
          Number of HB bonds (bound hydrogen)     5774517
          Number of HB bonds (unbound hydrogen)   331992
          Number of XB bonds                      91850

 E+G (total)                   0 d,  0 h,  0 min, 16.482 sec
 distance/D3 list               ...        0 min,  0.005 sec (  0.032%)
 non bonded repulsion           ...        0 min,  0.041 sec (  0.247%)
 dCN                            ...        0 min,  0.185 sec (  1.122%)
 EEQ energy and q               ...        0 min,  0.999 sec (  6.059%)
                                ...        0 min,  0.000 sec (  0.000%)
 EEQ gradient                   ...        0 min,  3.183 sec ( 19.312%)
 bonds                          ...        0 min,  0.034 sec (  0.208%)
 bend and torsion               ...        0 min,  0.001 sec (  0.003%)
 bonded ATM                     ...        0 min,  0.001 sec (  0.005%)
 HB/XB (incl list setup)        ...        0 min, 11.795 sec ( 71.562%)

         :::::::::::::::::::::::::::::::::::::::::::::::::::::
         ::                     SUMMARY                     ::
         :::::::::::::::::::::::::::::::::::::::::::::::::::::
         :: total energy            -130.779895080629 Eh    ::
         :: gradient norm              0.165201844091 Eh/a0 ::
         ::.................................................::
         :: bond energy             -136.043480276876 Eh    ::
         :: angle energy               1.171331667054 Eh    ::
         :: torsion energy             0.044887579228 Eh    ::
         :: repulsion energy           8.674405074392 Eh    ::
         :: electrostat energy        -3.193026113943 Eh    ::
         :: dispersion energy         -1.261564258375 Eh    ::
         :: HB energy                 -0.197513216673 Eh    ::
         :: XB energy                 -0.004772101148 Eh    ::
         :: bonded atm energy          0.029836565711 Eh    ::
         :: external energy            0.000000000000 Eh    ::
         :: add. restraining           0.000000000000 Eh    ::
         :: total charge              -0.000000000000 e     ::
         :::::::::::::::::::::::::::::::::::::::::::::::::::::


........................................................................
.............................. CYCLE    1 ..............................
........................................................................
     iter. time                 ...        0 min, 16.823 sec
          total energy        -130.779895080628791 Eh
            energy change       -0.18+309 Eh
 
          gradient norm          0.166367592119383 Eh/a0
            max. gradient        0.105116763696163 Eh/a0
 
            step length          0.000000000000000 a0
            max. step            0.000000000000000 a0
 
       unit cell volume      11435.739834589374368 A^3
 
       current lattice:  
       49.291616234599566        0.000000000000000        0.000000000000000
      -24.645808117299772       42.687791852756682        0.000000000000000
        0.000000000000000        0.000000000000000       36.676182571858433

........................................................................
.............................. CYCLE    2 ..............................
........................................................................
     iter. time                 ...        0 min, 15.786 sec
          total energy        -130.779904644137133 Eh
            energy change       -0.96E-05 Eh
 
          gradient norm          0.166328497074758 Eh/a0
            max. gradient        0.105095887921191 Eh/a0
 
            step length          0.000055437384911 a0
            max. step            0.105116763696163 a0
 
       unit cell volume      11435.736668990977705 A^3
 
       current lattice:  
       49.291612587936989       -0.000001916354626        0.000000127053270
      -24.645807589802082       42.687788294320043       -0.000000063873573
        0.000000551987097       -0.000000136091563       36.676179013201221

........................................................................
.............................. CYCLE    3 ..............................
........................................................................
     iter. time                 ...        0 min, 16.534 sec
          total energy        -130.780117180281167 Eh
            energy change       -0.21E-03 Eh
 
          gradient norm          0.165917386568549 Eh/a0
            max. gradient        0.104609525792462 Eh/a0
 
            step length          0.001397101797105 a0
            max. step            0.105095887921191 a0
 
       unit cell volume      11435.901085480296388 A^3
 
       current lattice:  
       49.291782194931365        0.000105598383792       -0.000027364002379
      -24.645823483041841       42.687961872462267        0.000024528296039
       -0.000061697329439        0.000021647160143       36.676384800907563

........................................................................
.............................. CYCLE    4 ..............................
........................................................................
     iter. time                 ...        0 min, 16.009 sec
          total energy        -130.780770534348505 Eh
            energy change       -0.65E-03 Eh
 
          gradient norm          0.163455824494272 Eh/a0
            max. gradient        0.103267368328105 Eh/a0
 
            step length          0.004092236691801 a0
            max. step            0.104609525792462 a0
 
       unit cell volume      11435.743347271492894 A^3
 
       current lattice:  
       49.291642694205152       -0.000032626800828        0.000037231353877
      -24.645824630657557       42.687826004240605       -0.000032421186156
        0.000073062717941       -0.000025894344221       36.676158823983691

........................................................................
.............................. CYCLE    5 ..............................
........................................................................
     iter. time                 ...        0 min, 17.709 sec
          total energy        -130.781965168387188 Eh
            energy change       -0.12E-02 Eh
 
          gradient norm          0.159649053304077 Eh/a0
            max. gradient        0.100923797270101 Eh/a0
 
            step length          0.008014158489248 a0
            max. step            0.103267368328105 a0
 
       unit cell volume      11435.584422952775640 A^3
 
       current lattice:  
       49.291248302384084        0.000100123188650       -0.000321284638671
      -24.645688293805893       42.687300466220677        0.000215238939719
       -0.000577672428841        0.000148012402181       36.676337086434700

........................................................................
.............................. CYCLE    6 ..............................
........................................................................
     iter. time                 ...        0 min, 16.924 sec
          total energy        -130.785437055736736 Eh
            energy change       -0.35E-02 Eh
 
          gradient norm          0.151317802154357 Eh/a0
            max. gradient        0.094087816045622 Eh/a0
 
            step length          0.025664451131898 a0
            max. step            0.100923797270101 a0
 
       unit cell volume      11435.813744545861482 A^3
 
       current lattice:  
       49.291657440655172       -0.000959866984672        0.001278551613898
      -24.645803204602597       42.689877579517479       -0.000456286704951
        0.002435416490917        0.000157771606761       36.675009406247774

........................................................................
.............................. CYCLE    7 ..............................
........................................................................
     iter. time                 ...        0 min, 16.102 sec
          total energy        -130.790149976080727 Eh
            energy change       -0.47E-02 Eh
 
          gradient norm          0.138367289015678 Eh/a0
            max. gradient        0.084949415496710 Eh/a0
 
            step length          0.038082291610884 a0
            max. step            0.094087816045622 a0
 
       unit cell volume      11435.254761807347677 A^3
 
       current lattice:  
       49.293678903486764       -0.000342566138944        0.001134113347351
      -24.646769414412592       42.685958952155865       -0.001347114958264
        0.001629031486437       -0.003082976815127       36.674814206416656

........................................................................
.............................. CYCLE    8 ..............................
........................................................................
     iter. time                 ...        0 min, 16.219 sec
          total energy        -130.798777758676295 Eh
            energy change       -0.86E-02 Eh
 
          gradient norm          0.120914273684654 Eh/a0
            max. gradient        0.067105642779544 Eh/a0
 
            step length          0.083471428478410 a0
            max. step            0.084949415496710 a0
 
       unit cell volume      11433.655299953457870 A^3
 
       current lattice:  
       49.284085990417452       -0.003326778825162       -0.001809367910541
      -24.644853333787186       42.687675011287446        0.001684475853986
       -0.001890214232856        0.005189734188277       36.676629847261673

........................................................................
.............................. CYCLE    9 ..............................
........................................................................
     iter. time                 ...        0 min, 16.649 sec
          total energy        -130.804295490468377 Eh
            energy change       -0.55E-02 Eh
 
          gradient norm          0.097263238780734 Eh/a0
            max. gradient        0.055061382425913 Eh/a0
 
            step length          0.063520911354895 a0
            max. step            0.067105642779544 a0
 
       unit cell volume      11433.006058331737222 A^3
 
       current lattice:  
       49.285235912128428        0.000169297462532       -0.000757339851103
      -24.642013252127413       42.687092626010340        0.001817227502501
       -0.001355061042874        0.004010439764151       36.672689921848274

........................................................................
.............................. CYCLE   10 ..............................
........................................................................
     iter. time                 ...        0 min, 16.293 sec
          total energy        -130.811071871820133 Eh
            energy change       -0.68E-02 Eh
 
          gradient norm          0.117686752439036 Eh/a0
            max. gradient        0.059998069437121 Eh/a0
 
            step length          0.116418854711166 a0
            max. step            0.055061382425913 a0
 
       unit cell volume      11432.432862915153237 A^3
 
       current lattice:  
       49.284170617590341       -0.012811591548649       -0.000559092992311
      -24.652861386960513       42.682725108191107        0.001900579309050
        0.001777222862369       -0.001729366810243       36.680976365791096

........................................................................
.............................. CYCLE   11 ..............................
........................................................................
     iter. time                 ...        0 min, 16.649 sec
          total energy        -130.815698794116031 Eh
            energy change       -0.46E-02 Eh
 
          gradient norm          0.068463492379449 Eh/a0
            max. gradient        0.037057965661931 Eh/a0
 
            step length          0.090335745096881 a0
            max. step            0.059998069437121 a0
 
       unit cell volume      11431.039969919855139 A^3
 
       current lattice:  
       49.284199252800327       -0.009766860383915       -0.001344525993954
      -24.649348702365373       42.682003209767721       -0.002143848523939
       -0.001227943637016        0.000973204240414       36.675796921984933

........................................................................
.............................. CYCLE   12 ..............................
........................................................................
     iter. time                 ...        0 min, 17.124 sec
          total energy        -130.818213822197549 Eh
            energy change       -0.25E-02 Eh
 
          gradient norm          0.073777916700801 Eh/a0
            max. gradient        0.037253006899101 Eh/a0
 
            step length          0.086653918062124 a0
            max. step            0.037057965661931 a0
 
       unit cell volume      11430.444922386654071 A^3
 
       current lattice:  
       49.279685059112737       -0.003041244401807        0.000425059882327
      -24.644607175111346       42.678795492561477        0.006610391872761
        0.005317085528429       -0.001907849756488       36.677112709389540

........................................................................
.............................. CYCLE   13 ..............................
........................................................................
     iter. time                 ...        0 min, 16.273 sec
          total energy        -130.820469937390925 Eh
            energy change       -0.23E-02 Eh
 
          gradient norm          0.050646425639698 Eh/a0
            max. gradient        0.023414604868169 Eh/a0
 
            step length          0.114776904997903 a0
            max. step            0.037253006899101 a0
 
       unit cell volume      11428.162779810347274 A^3
 
       current lattice:  
       49.282775300609970       -0.007635401808771        0.000931205186696
      -24.645300482524181       42.680937247725332        0.007744207501248
       -0.004034878608452       -0.001897680766798       36.667624133880850

........................................................................
.............................. CYCLE   14 ..............................
........................................................................
     iter. time                 ...        0 min, 16.649 sec
          total energy        -130.819858330193000 Eh
            energy change        0.61E-03 Eh
 
          gradient norm          0.133349922029636 Eh/a0
            max. gradient        0.096050209695997 Eh/a0
 
            step length          0.169146464453633 a0
            max. step            0.023414604868169 a0
 
       unit cell volume      11427.663654755464449 A^3
 
       current lattice:  
       49.277402405355232       -0.005350734618302       -0.005171366128399
      -24.636891609780807       42.673284385521733       -0.023735662025035
        0.002740547448883        0.004294008152057       36.675612301143794

........................................................................
.............................. CYCLE   15 ..............................
........................................................................
     iter. time                 ...        0 min, 16.120 sec
          total energy        -130.821839153527407 Eh
            energy change       -0.20E-02 Eh
 
          gradient norm          0.084212530760503 Eh/a0
            max. gradient        0.042822147193546 Eh/a0
 
            step length          0.037518057660156 a0
            max. step            0.096050209695997 a0
 
       unit cell volume      11426.134042576304637 A^3
 
       current lattice:  
       49.278517480054269        0.000111111895794       -0.000107744634533
      -24.651245528875066       42.673530036609840       -0.001357127400997
        0.001370318364854        0.007159071259364       36.667318462462958

........................................................................
.............................. CYCLE   16 ..............................
........................................................................
     iter. time                 ...        0 min, 16.507 sec
          total energy        -130.818681918317822 Eh
            energy change        0.32E-02 Eh
 
          gradient norm          0.197051890401174 Eh/a0
            max. gradient        0.088409411558857 Eh/a0
 
            step length          0.084840251551525 a0
            max. step            0.042822147193546 a0
 
       unit cell volume      11426.365269671570786 A^3
 
       current lattice:  
       49.279649262796589       -0.020480168898744        0.003346066692693
      -24.625156915855253       42.685106176004425        0.030681412066355
       -0.010889354993489       -0.020145157351678       36.666097125133120

........................................................................
.............................. CYCLE   17 ..............................
........................................................................
     iter. time                 ...        0 min, 16.408 sec
          total energy        -130.823692245307399 Eh
            energy change       -0.50E-02 Eh
 
          gradient norm          0.036248815616223 Eh/a0
            max. gradient        0.012243330663075 Eh/a0
 
            step length          0.070087091459825 a0
            max. step            0.088409411558857 a0
 
       unit cell volume      11425.740546713577714 A^3
 
       current lattice:  
       49.276910706028367       -0.007197846952876        0.000255694303040
      -24.642492940299611       42.676868243418951        0.005296788971780
       -0.002835030788755       -0.002217589621855       36.667523508332067

........................................................................
.............................. CYCLE   18 ..............................
........................................................................
     iter. time                 ...        0 min, 16.941 sec
          total energy        -130.824545032590180 Eh
            energy change       -0.85E-03 Eh
 
          gradient norm          0.051301374648936 Eh/a0
            max. gradient        0.025074772856477 Eh/a0
 
            step length          0.054233893801192 a0
            max. step            0.012243330663075 a0
 
       unit cell volume      11424.820890543724090 A^3
 
       current lattice:  
       49.279747432544042       -0.008753919726162        0.001166464177687
      -24.641893962231318       42.670948935105173        0.003559161530655
       -0.000507898573818        0.004991032675959       36.668217049083417

........................................................................
.............................. CYCLE   19 ..............................
........................................................................
     iter. time                 ...        0 min, 17.081 sec
          total energy        -130.827262014210334 Eh
            energy change       -0.27E-02 Eh
 
          gradient norm          0.093213991189879 Eh/a0
            max. gradient        0.049000759486487 Eh/a0
 
            step length          0.258131769146073 a0
            max. step            0.025074772856477 a0
 
       unit cell volume      11420.485299637735807 A^3
 
       current lattice:  
       49.267384597367077       -0.004170343802160       -0.003586452163055
      -24.651048683142001       42.665165279372474       -0.010181215024183
        0.000860618640488        0.007253702943982       36.666498864096390

........................................................................
.............................. CYCLE   20 ..............................
........................................................................
     iter. time                 ...        0 min, 16.550 sec
          total energy        -130.828943852574753 Eh
            energy change       -0.17E-02 Eh
 
          gradient norm          0.063607257731828 Eh/a0
            max. gradient        0.029475924399982 Eh/a0
 
            step length          0.139136950553383 a0
            max. step            0.049000759486487 a0
 
       unit cell volume      11418.438397214671568 A^3
 
       current lattice:  
       49.265029042882844       -0.008873546510540        0.000348144960400
      -24.646480898455156       42.661830766249857       -0.006636387097146
       -0.001156513348117        0.006659873979301       36.666568837706059

........................................................................
.............................. CYCLE   21 ..............................
........................................................................
     iter. time                 ...        0 min, 16.752 sec
          total energy        -130.830051494460861 Eh
            energy change       -0.11E-02 Eh
 
          gradient norm          0.045614719711154 Eh/a0
            max. gradient        0.032333159967821 Eh/a0
 
            step length          0.194934445522899 a0
            max. step            0.029475924399982 a0
 
       unit cell volume      11414.762682442453297 A^3
 
       current lattice:  
       49.262965028587352       -0.017204239121473       -0.009823115592823
      -24.639821898476011       42.658844600256245        0.002132939715497
       -0.000136505025598        0.002519500149440       36.662448923837452

........................................................................
.............................. CYCLE   22 ..............................
........................................................................
     iter. time                 ...        0 min, 16.454 sec
          total energy        -130.830435630046225 Eh
            energy change       -0.38E-03 Eh
 
          gradient norm          0.048295749689094 Eh/a0
            max. gradient        0.031748159037616 Eh/a0
 
            step length          0.059562442738536 a0
            max. step            0.032333159967821 a0
 
       unit cell volume      11413.312318643762410 A^3
 
       current lattice:  
       49.254326487254858       -0.017013599131281        0.008929616991055
      -24.638483834943603       42.657948913136806        0.001494480411510
       -0.008752216375248       -0.002105875619690       36.664907020610052

........................................................................
.............................. CYCLE   23 ..............................
........................................................................
     iter. time                 ...        0 min, 16.301 sec
          total energy        -130.830838571152299 Eh
            energy change       -0.40E-03 Eh
 
          gradient norm          0.019055535734221 Eh/a0
            max. gradient        0.006914153411109 Eh/a0
 
            step length          0.036802335143127 a0
            max. step            0.031748159037616 a0
 
       unit cell volume      11412.933196146417686 A^3
 
       current lattice:  
       49.256494959007981       -0.018655947530026        0.001717953706075
      -24.638136923485266       42.656851039988126        0.002077958886575
       -0.006019408686478       -0.000371514563383       36.663726235672485

........................................................................
.............................. CYCLE   24 ..............................
........................................................................
     iter. time                 ...        0 min, 16.665 sec
          total energy        -130.830894112826741 Eh
            energy change       -0.56E-04 Eh
 
          gradient norm          0.066071852543159 Eh/a0
            max. gradient        0.036263949542226 Eh/a0
 
            step length          0.035274883780691 a0
            max. step            0.006914153411109 a0
 
       unit cell volume      11408.437545813410907 A^3
 
       current lattice:  
       49.249753548385996       -0.021049339820130        0.006096033067856
      -24.637273388633101       42.651870068019505        0.001791626529450
       -0.006881127757616       -0.001811697084263       36.659611525151043

........................................................................
.............................. CYCLE   25 ..............................
........................................................................
     iter. time                 ...        0 min, 16.057 sec
          total energy        -130.832048359534895 Eh
            energy change       -0.12E-02 Eh
 
          gradient norm          0.029087014700649 Eh/a0
            max. gradient        0.017421347272227 Eh/a0
 
            step length          0.157124718026084 a0
            max. step            0.036263949542226 a0
 
       unit cell volume      11408.172021548049088 A^3
 
       current lattice:  
       49.249630863742752       -0.022987365722269        0.000836748258197
      -24.635439681626206       42.648890154118305        0.003308017769312
       -0.007917043474800        0.000369842488453       36.662245493966765

........................................................................
.............................. CYCLE   26 ..............................
........................................................................
     iter. time                 ...        0 min, 16.684 sec
          total energy        -130.832577746363739 Eh
            energy change       -0.53E-03 Eh
 
          gradient norm          0.035632681065833 Eh/a0
            max. gradient        0.018449057081069 Eh/a0
 
            step length          0.080940522814319 a0
            max. step            0.017421347272227 a0
 
       unit cell volume      11403.065121192232255 A^3
 
       current lattice:  
       49.243029879362744       -0.025957963550632        0.002150671401828
      -24.635871001649861       42.643664654186480        0.001395140319761
       -0.006290335201077       -0.000757758210042       36.656517359428989

........................................................................
.............................. CYCLE   27 ..............................
........................................................................
     iter. time                 ...        0 min, 16.381 sec
          total energy        -130.832915963633809 Eh
            energy change       -0.34E-03 Eh
 
          gradient norm          0.050153099051890 Eh/a0
            max. gradient        0.024493308676237 Eh/a0
 
            step length          0.138441232641509 a0
            max. step            0.018449057081069 a0
 
       unit cell volume      11400.136954545112530 A^3
 
       current lattice:  
       49.240122837243923       -0.028442037737385       -0.005946194358364
      -24.633062851566592       42.634201022095432        0.004330241372213
       -0.011191832748198        0.002289159669273       36.658475578949258

........................................................................
.............................. CYCLE   28 ..............................
........................................................................
     iter. time                 ...        0 min, 16.655 sec
          total energy        -130.832896985257918 Eh
            energy change        0.19E-04 Eh
 
          gradient norm          0.103336143997115 Eh/a0
            max. gradient        0.082953597045301 Eh/a0
 
            step length          0.114933510896820 a0
            max. step            0.024493308676237 a0
 
       unit cell volume      11399.760985664976033 A^3
 
       current lattice:  
       49.232764574360253       -0.032717494912488        0.005694911464541
      -24.632141821530155       42.644122299859156        0.002668102459442
       -0.005173308205186        0.002643826894534       36.656051842841457

........................................................................
.............................. CYCLE   29 ..............................
........................................................................
     iter. time                 ...        0 min, 17.292 sec
          total energy        -130.833163318352177 Eh
            energy change       -0.27E-03 Eh
 
          gradient norm          0.104584648067424 Eh/a0
            max. gradient        0.064627824126632 Eh/a0
 
            step length          0.081228728343184 a0
            max. step            0.082953597045301 a0
 
       unit cell volume      11394.992122471414405 A^3
 
       current lattice:  
       49.238405488337357       -0.032084752259966        0.005237103666584
      -24.634016391499216       42.627003751691255        0.000186631619243
       -0.006047025137002       -0.009694267101869       36.650964464291704

........................................................................
.............................. CYCLE   30 ..............................
........................................................................
     iter. time                 ...        0 min, 16.046 sec
          total energy        -130.834337167054599 Eh
            energy change       -0.12E-02 Eh
 
          gradient norm          0.058238745335038 Eh/a0
            max. gradient        0.030055892624901 Eh/a0
 
            step length          0.099480785506562 a0
            max. step            0.064627824126632 a0
 
       unit cell volume      11388.391651056412229 A^3
 
       current lattice:  
       49.223535022672806       -0.040971651505704       -0.006593673021767
      -24.631431115521274       42.620088556849247        0.004285335801029
       -0.009553301068210        0.001270197115017       36.650578687786123

........................................................................
.............................. CYCLE   31 ..............................
........................................................................
     iter. time                 ...        0 min, 16.314 sec
          total energy        -130.834728580288441 Eh
            energy change       -0.39E-03 Eh
 
          gradient norm          0.055747932171622 Eh/a0
            max. gradient        0.035105155160404 Eh/a0
 
            step length          0.136179362016654 a0
            max. step            0.030055892624901 a0
 
       unit cell volume      11386.532340921579816 A^3
 
       current lattice:  
       49.216325154816829       -0.035547846740022        0.001423429148347
      -24.624198601321620       42.617790078554506        0.005379643618098
       -0.017190005326389        0.001493044421460       36.649601782517180

........................................................................
.............................. CYCLE   32 ..............................
........................................................................
     iter. time                 ...        0 min, 16.110 sec
          total energy        -130.835052427884960 Eh
            energy change       -0.32E-03 Eh
 
          gradient norm          0.058911907328101 Eh/a0
            max. gradient        0.033817401399169 Eh/a0
 
            step length          0.203144337373239 a0
            max. step            0.035105155160404 a0
 
       unit cell volume      11382.642870599454909 A^3
 
       current lattice:  
       49.213186762451471       -0.050962158303876       -0.000381414103503
      -24.626415074507637       42.610807344143140        0.007234216378714
       -0.009950474849573       -0.001032643571725       36.652065949111766

........................................................................
.............................. CYCLE   33 ..............................
........................................................................
     iter. time                 ...        0 min, 16.028 sec
          total energy        -130.835481453273985 Eh
            energy change       -0.43E-03 Eh
 
          gradient norm          0.021502134511827 Eh/a0
            max. gradient        0.012908253578815 Eh/a0
 
            step length          0.041624606370107 a0
            max. step            0.033817401399169 a0
 
       unit cell volume      11379.323376666630793 A^3
 
       current lattice:  
       49.209331059542137       -0.049758318530816       -0.000785268993797
      -24.625126678447423       42.607562587924129        0.004886028019843
       -0.012996404029084       -0.000080703164824       36.646522866355838

........................................................................
.............................. CYCLE   34 ..............................
........................................................................
     iter. time                 ...        0 min, 16.203 sec
          total energy        -130.835735402663289 Eh
            energy change       -0.25E-03 Eh
 
          gradient norm          0.037979818231255 Eh/a0
            max. gradient        0.024967898007801 Eh/a0
 
            step length          0.090420484634304 a0
            max. step            0.012908253578815 a0
 
       unit cell volume      11376.821828862788607 A^3
 
       current lattice:  
       49.202429470949973       -0.050096192357917        0.000466417349709
      -24.622309327344869       42.601454270589961        0.007048353960875
       -0.010556816915310       -0.000654776619751       36.649008833147320

........................................................................
.............................. CYCLE   35 ..............................
........................................................................
     iter. time                 ...        0 min, 16.304 sec
          total energy        -130.836276430767185 Eh
            energy change       -0.54E-03 Eh
 
          gradient norm          0.037781913217863 Eh/a0
            max. gradient        0.022369924993723 Eh/a0
 
            step length          0.237898734193200 a0
            max. step            0.024967898007801 a0
 
       unit cell volume      11366.872306501694766 A^3
 
       current lattice:  
       49.189321802615247       -0.062251502241425       -0.000722473336845
      -24.618252714274899       42.588974966359224        0.005475263260852
       -0.021548009156947        0.000159026714442       36.642693664174445

........................................................................
.............................. CYCLE   36 ..............................
........................................................................
     iter. time                 ...        0 min, 16.464 sec
          total energy        -130.836407698924603 Eh
            energy change       -0.13E-03 Eh
 
          gradient norm          0.050174147824526 Eh/a0
            max. gradient        0.022303206594746 Eh/a0
 
            step length          0.081813259904536 a0
            max. step            0.022369924993723 a0
 
       unit cell volume      11363.730093777377988 A^3
 
       current lattice:  
       49.187222369916228       -0.061133040933249       -0.004925633569837
      -24.611719713325076       42.585318629410047        0.005869959999783
       -0.014418484958009        0.002386054977035       36.636789055437120

........................................................................
.............................. CYCLE   37 ..............................
........................................................................
     iter. time                 ...        0 min, 16.378 sec
          total energy        -130.836822462311403 Eh
            energy change       -0.41E-03 Eh
 
          gradient norm          0.040421910151806 Eh/a0
            max. gradient        0.023342502064371 Eh/a0
 
            step length          0.082124188524808 a0
            max. step            0.022303206594746 a0
 
       unit cell volume      11362.474402160354657 A^3
 
       current lattice:  
       49.179526131842657       -0.061318725814478        0.001692550208792
      -24.617519324644036       42.581414048557747        0.007303254268800
       -0.020451944556769       -0.001592731977832       36.641923219511838

........................................................................
.............................. CYCLE   38 ..............................
........................................................................
     iter. time                 ...        0 min, 16.014 sec
          total energy        -130.837085558306853 Eh
            energy change       -0.26E-03 Eh
 
          gradient norm          0.028097931495089 Eh/a0
            max. gradient        0.017880172193820 Eh/a0
 
            step length          0.095053626525589 a0
            max. step            0.023342502064371 a0
 
       unit cell volume      11361.280161348862748 A^3
 
       current lattice:  
       49.178984565154536       -0.065103500246777        0.000405531191142
      -24.612144143374632       42.578576522415254        0.002773177964477
       -0.020072521944869       -0.000249670539476       36.642545487110915

........................................................................
.............................. CYCLE   39 ..............................
........................................................................
     iter. time                 ...        0 min, 16.422 sec
          total energy        -130.837218471072930 Eh
            energy change       -0.13E-03 Eh
 
          gradient norm          0.055333040507150 Eh/a0
            max. gradient        0.026533349697901 Eh/a0
 
            step length          0.102179760546167 a0
            max. step            0.017880172193820 a0
 
       unit cell volume      11355.339422164051939 A^3
 
       current lattice:  
       49.173229057999336       -0.067316944763743        0.004104923372446
      -24.614143765473472       42.568879381267863        0.011159812123077
       -0.020976142480424        0.005111104413609       36.636981952468879

........................................................................
.............................. CYCLE   40 ..............................
........................................................................
     iter. time                 ...        0 min, 16.159 sec
          total energy        -130.837677530397400 Eh
            energy change       -0.46E-03 Eh
 
          gradient norm          0.036863413014769 Eh/a0
            max. gradient        0.017126903887787 Eh/a0
 
            step length          0.133969043809542 a0
            max. step            0.026533349697901 a0
 
       unit cell volume      11349.802806607478487 A^3
 
       current lattice:  
       49.161692998451329       -0.073086977935224       -0.003206062986428
      -24.606868285173942       42.564308138367473        0.008551013222337
       -0.021784543877137       -0.002521803327990       36.634135299398210

........................................................................
.............................. CYCLE   41 ..............................
........................................................................
     iter. time                 ...        0 min, 16.042 sec
          total energy        -130.837667023922762 Eh
            energy change        0.11E-04 Eh
 
          gradient norm          0.058994125907311 Eh/a0
            max. gradient        0.032927923032354 Eh/a0
 
            step length          0.086174265755162 a0
            max. step            0.017126903887787 a0
 
       unit cell volume      11346.332469062575910 A^3
 
       current lattice:  
       49.158819213194498       -0.080427617953641        0.006465943752964
      -24.601677820282678       42.552170160817674        0.004193688974503
       -0.025433447745491        0.004059202627509       36.638688576185778

........................................................................
.............................. CYCLE   42 ..............................
........................................................................
     iter. time                 ...        0 min, 16.366 sec
          total energy        -130.837985611616944 Eh
            energy change       -0.32E-03 Eh
 
          gradient norm          0.050861454710510 Eh/a0
            max. gradient        0.028013653118356 Eh/a0
 
            step length          0.115567897108490 a0
            max. step            0.032927923032354 a0
 
       unit cell volume      11345.590133318015432 A^3
 
       current lattice:  
       49.155501132045877       -0.077802959589441        0.000199729117589
      -24.609113053799067       42.552436095933523        0.001469657835599
       -0.024180601454540        0.004794015915907       36.637418427654026

........................................................................
.............................. CYCLE   43 ..............................
........................................................................
     iter. time                 ...        0 min, 15.971 sec
          total energy        -130.838277211967750 Eh
            energy change       -0.29E-03 Eh
 
          gradient norm          0.032605326754486 Eh/a0
            max. gradient        0.021494118367026 Eh/a0
 
            step length          0.074378487007335 a0
            max. step            0.028013653118356 a0
 
       unit cell volume      11340.127676025136680 A^3
 
       current lattice:  
       49.147544350026934       -0.084627350247020        0.001053592960850
      -24.599626166671069       42.547321344736467        0.012857738685269
       -0.026239306035071       -0.001188560984678       36.633049598182396

........................................................................
.............................. CYCLE   44 ..............................
........................................................................
     iter. time                 ...        0 min, 16.218 sec
          total energy        -130.838616959859934 Eh
            energy change       -0.34E-03 Eh
 
          gradient norm          0.016558810320746 Eh/a0
            max. gradient        0.006605302319670 Eh/a0
 
            step length          0.065231810852270 a0
            max. step            0.021494118367026 a0
 
       unit cell volume      11337.100701720042707 A^3
 
       current lattice:  
       49.142599782760314       -0.086372542134832        0.001675319140187
      -24.599914342856863       42.541048039071356        0.006136838298714
       -0.025951732058735        0.002095623333139       36.633120311567893

........................................................................
.............................. CYCLE   45 ..............................
........................................................................
     iter. time                 ...        0 min, 15.990 sec
          total energy        -130.838971909768020 Eh
            energy change       -0.35E-03 Eh
 
          gradient norm          0.026269034392933 Eh/a0
            max. gradient        0.013556729171051 Eh/a0
 
            step length          0.118665276378398 a0
            max. step            0.006605302319670 a0
 
       unit cell volume      11332.207791770581025 A^3
 
       current lattice:  
       49.134783060732794       -0.092398943426292        0.001624122673482
      -24.595576005063030       42.532445719130699        0.010767368206023
       -0.029052410153470        0.000039889151225       36.633149905630745

........................................................................
.............................. CYCLE   46 ..............................
........................................................................
     iter. time                 ...        0 min, 15.976 sec
          total energy        -130.839483941403586 Eh
            energy change       -0.51E-03 Eh
 
          gradient norm          0.037777667805162 Eh/a0
            max. gradient        0.017121628415678 Eh/a0
 
            step length          0.184178815925147 a0
            max. step            0.013556729171051 a0
 
       unit cell volume      11322.623185401846058 A^3
 
       current lattice:  
       49.119671507370619       -0.097528664496598        0.002879325438388
      -24.594807150590583       42.516799606392780        0.003089344158222
       -0.027620227247955        0.005997656840786       36.629141322801445

........................................................................
.............................. CYCLE   47 ..............................
........................................................................
     iter. time                 ...        0 min, 15.839 sec
          total energy        -130.840161889489337 Eh
            energy change       -0.68E-03 Eh
 
          gradient norm          0.021834688893888 Eh/a0
            max. gradient        0.009297630906638 Eh/a0
 
            step length          0.248432494183356 a0
            max. step            0.017121628415678 a0
 
       unit cell volume      11311.210772589696717 A^3
 
       current lattice:  
       49.101051476532774       -0.110058831551904        0.002106159840825
      -24.584668796366611       42.496717057641170        0.010188811864987
       -0.035024243774979        0.002567216323398       36.628829381546424

........................................................................
.............................. CYCLE   48 ..............................
........................................................................
     iter. time                 ...        0 min, 16.203 sec
          total energy        -130.840695202463280 Eh
            energy change       -0.53E-03 Eh
 
          gradient norm          0.027685771975108 Eh/a0
            max. gradient        0.011764984121087 Eh/a0
 
            step length          0.210562847195237 a0
            max. step            0.009297630906638 a0
 
       unit cell volume      11301.112372344727191 A^3
 
       current lattice:  
       49.085927695406937       -0.117748228598812        0.003905161358811
      -24.581807943603874       42.480512292216332        0.005424448268149
       -0.034928154795597        0.006742454100768       36.624718686164293

........................................................................
.............................. CYCLE   49 ..............................
........................................................................
     iter. time                 ...        0 min, 15.874 sec
          total energy        -130.841194441178033 Eh
            energy change       -0.50E-03 Eh
 
          gradient norm          0.041753624542913 Eh/a0
            max. gradient        0.018628844620492 Eh/a0
 
            step length          0.194570482955633 a0
            max. step            0.011764984121087 a0
 
       unit cell volume      11291.507439846272973 A^3
 
       current lattice:  
       49.068867719868955       -0.125820405306373        0.001301388930594
      -24.572044538315716       42.462479270286011        0.009488146444274
       -0.042666917247031        0.004986623745851       36.625371818324020

........................................................................
.............................. CYCLE   50 ..............................
........................................................................
     iter. time                 ...        0 min, 16.184 sec
          total energy        -130.841542738318992 Eh
            energy change       -0.35E-03 Eh
 
          gradient norm          0.062585414357028 Eh/a0
            max. gradient        0.043461704072135 Eh/a0
 
            step length          0.357364491294969 a0
            max. step            0.018628844620492 a0
 
       unit cell volume      11276.259939396890331 A^3
 
       current lattice:  
       49.045302149417509       -0.145099029811783        0.009850311231356
      -24.566013041108008       42.444310515368116        0.010567418934242
       -0.042582248935472        0.003677968437004       36.617525056918666

........................................................................
.............................. CYCLE   51 ..............................
........................................................................
     iter. time                 ...        0 min, 16.301 sec
          total energy        -130.841633372633538 Eh
            energy change       -0.91E-04 Eh
 
          gradient norm          0.101889618439182 Eh/a0
            max. gradient        0.059207950414222 Eh/a0
 
            step length          0.157719781629563 a0
            max. step            0.043461704072135 a0
 
       unit cell volume      11271.768967799693201 A^3
 
       current lattice:  
       49.045715575624989       -0.139752142247347        0.003549475719403
      -24.564622284273419       42.422423412577302        0.002269888604860
       -0.046152396392038        0.007657622165607       36.619234744766935

........................................................................
.............................. CYCLE   52 ..............................
........................................................................
     iter. time                 ...        0 min, 16.150 sec
          total energy        -130.841633761399407 Eh
            energy change       -0.39E-06 Eh
 
          gradient norm          0.119582126237723 Eh/a0
            max. gradient        0.078709834809124 Eh/a0
 
            step length          0.161627415593289 a0
            max. step            0.059207950414222 a0
 
       unit cell volume      11263.382583025198983 A^3
 
       current lattice:  
       49.018230119651427       -0.154487358131938       -0.003729673946077
      -24.555351235779952       42.419091871036692        0.006165158109327
       -0.048756603130265        0.022033696714836       36.621790360946505
 
Geometry optimization converged after    52 steps.
================
 final structure:
================
 xtb: 6.7.1 (edcfbbe)
    1.00000000000000
   49.01823011965143   -0.15448735813194   -0.00372967394608
  -24.55535123577995   42.41909187103669    0.00616515810933
   -0.04875660313026    0.02203369671484   36.62179036094651
 C    Cl   H    N    O    Zn  
 240 18 146 126 61 24
Direct
    0.31709515094481    0.29528136377323    0.47752152054009
    0.97671219480028    0.29526379160763    0.47843983031938
    0.97175972628243    0.20134735812709    0.47401377414364
    0.94883436769544    0.23733010468222    0.45408899564266
    0.83105284719085    0.39623573128319    0.42061785236707
    0.99231875751052    0.36228590608540    0.28954262526734
    0.82699832276560    0.24470162119612    0.51041343296779
    0.83539943330358    0.22367480771357    0.62765703705127
    0.85773270863310    0.26227995521713    0.57263724222715
    0.32467784210894    0.03375551309583    0.47616044804385
    0.23671217753148    0.04053201233346    0.46811741746220
    0.29598032471892    0.06230223425579    0.45005492917424
    0.57544603446408    0.17986837671846    0.41832517593643
    0.75626352629098    0.60388056573917    0.56887892768207
    0.42051666998799    0.18271319206588    0.50380665413106
    0.40986119013244    0.15276444704447    0.56650043756791
    0.29697501659934    0.32198040530436    0.97301375418907
    0.20344074486462    0.23170448052338    0.97420356161392
    0.23773045485590    0.29080198532673    0.95331877912623
    0.38924262405823    0.56934164478342    0.91889932170381
    0.35535909370805    0.37967996095193    0.78179696373138
    0.24034456462120    0.41527233397571    0.00819591178727
    0.23126808160616    0.38991804674162    0.12736379895871
    0.26290821766248    0.40228384395765    0.06604391886338
    0.02815090797905    0.71203041894698    0.96979289966999
    0.03133470779848    0.80516456309881    0.97041845036975
    0.05528330024268    0.77074770915196    0.94826566586751
    0.39512924302348    0.17508572251877    0.62272061075781
    0.18010084894524    0.61872195214058    0.91676419990744
    0.79264354554465    0.61480557236603    0.62504558969917
    0.64808659595954    0.63195973427869    0.28975694982709
    0.28708140363438    0.23505944148419    0.03391914670928
    0.56714093770517    0.39114523265649    0.08089146057220
    0.37663801532146    0.36002676787264    0.21099967624686
    0.41650994320849    0.23135784360953    0.99693514523414
    0.39518506602042    0.21430278996017    0.87714944417940
    0.40533589768294    0.24982487532610    0.93387022211512
    0.71726417401156    0.02878275224333    0.01416212900931
    0.80617234025680    0.02379495977045    0.00870426785535
    0.77664087786909    0.05148237413643    0.03325184900783
    0.62375791814603    0.18069779219554    0.07717125368156
    0.64279965897295    0.01685550106375    0.20856660605845
    0.78052468544927    0.18801666901813    0.99697824129763
    0.77489734543083    0.59419769909723    0.50521081961708
    0.79718955322959    0.18406942119348    0.87724606846212
    0.97870518230687    0.68868039500188    0.01552433422567
    0.98052929184397    0.78114985113845    0.01249743492337
    0.95408133395399    0.72327800148695    0.03560861324717
    0.83048226978954    0.44314077088505    0.07974795602119
    0.99222980992509    0.63362775667399    0.21205961255459
    0.82459241959814    0.59055576455432    0.99812862297653
    0.83258922259926    0.61542943172684    0.87905712148695
    0.85505441710886    0.60146752808481    0.93585067293912
    0.71254069549781    0.68529074859600    0.48100750666767
    0.80672904265224    0.77470193503248    0.47840203758227
    0.77122799204884    0.71536028322903    0.45924667858030
    0.61491820632707    0.43877059313390    0.41973352994950
    0.76203355932701    0.15816398364908    0.93412273066626
    0.01799558416836    0.64675436795204    0.78423236720900
    0.17610479412998    0.76737596291461    1.00027151049668
    0.16059396138924    0.77241554069143    0.12033504924864
    0.92525949526700    0.46526533666568    0.08748506407241
    0.54995804593312    0.08624692372851    0.08513225577626
    0.44078916607984    0.33250775870566    0.24617911269854
    0.66512250457914    0.10746097729506    0.24338428353755
    0.90009648185539    0.56912807386176    0.24679160098447
    0.56260378691619    0.67754840925616    0.75347442648054
    0.33150090138205    0.89687302346124    0.75468467136908
    0.11152657095295    0.43871264369838    0.75451589111390
    0.33393081652349    0.44862784174537    0.74798962320691
    0.10878072377291    0.67083585234593    0.74800228623509
    0.55897172536700    0.89282021107535    0.74726976748444
    0.67447408949658    0.56684634806606    0.25520734731059
    0.54584710038196    0.46411683186578    0.08851699263191
    0.90132496628957    0.33833774474256    0.25411028834989
    0.44491288782940    0.21900536266377    0.39681082688198
    0.78932077643446    0.23569577039827    0.40457600619030
    0.78482129197035    0.57010592880115    0.39762260231968
    0.56508657471125    0.78730005559734    0.90527285007702
    0.22062045046291    0.78690959684939    0.89760794867128
    0.22377330521755    0.44292519464243    0.90556617812441
    0.22431490758216    0.44147298498331    0.59561545679625
    0.21650247980062    0.78008503718073    0.60496070367261
    0.56343907642943    0.78817888260995    0.59576603579400
    0.78823785337433    0.56674101725678    0.10516172467152
    0.79064455301681    0.22333219484473    0.10436974097457
    0.44279777139392    0.22213623191238    0.10390766414740
    0.45176047839106    0.11450335664303    0.25274187523500
    0.45770748005082    0.92257401628254    0.58730154272343
    0.08450984399624    0.53936553968099    0.58845688675201
    0.46336111516069    0.54984621576207    0.58650425754617
    0.14084414146863    0.74295355953088    0.05788894840495
    0.68848497476979    0.97844567170957    0.96913291996497
    0.77710555740435    0.97277289995847    0.96632161510911
    0.71821484469786    0.95010775319708    0.94598915299264
    0.44022715072290    0.82771216183617    0.92012421016285
    0.63074981302917    0.98271493289999    0.78012506753293
    0.59385029205281    0.83304542837851    0.00743199384981
    0.61956562944712    0.85010307727472    0.12645810185432
    0.60718944878577    0.86907319353862    0.06490474330600
    0.38945674642627    0.38960621175811    0.49396668171434
    0.62238675097807    1.00790592288520    0.49505409319632
    1.00254518542182    0.61693309580476    0.49564179219054
    0.61780256484972    0.62151084128447    0.00591572011781
    0.38946463743511    1.00206733367120    0.00594132084568
    0.01135934246422    0.39447867568416    0.00617884555403
    0.61740134976953    0.61983446428630    0.50520739880351
    0.38725392523456    1.00211438488011    0.50584434546384
    0.00604606963722    0.38979658522296    0.50543352751765
    0.39158208613942    0.38957400495523    0.99698118709057
    0.62316114841054    0.00711644188275    0.99673067033186
    1.00308710691555    0.61835353063396    0.99647991709827
    0.54197475716685    0.46013036347158    0.41236915883669
    0.55462168253777    0.08593538141291    0.41151532025899
    0.92561629271915    0.46991007629137    0.41329065643975
    0.46314846894627    0.54916758163607    0.91507244942816
    0.46115581111444    0.92219608461513    0.91567316052378
    0.08592022026271    0.54365101413383    0.91377698069713
    0.22862708202326    0.20412235336351    0.01272045892251
    0.32159846107331    0.29496662238456    0.01516851552796
    0.37978017600270    0.02643526571764    0.28959234623201
    0.16115744538093    0.38874210391531    0.37442561790260
    0.29463261260714    0.97756304935515    0.98729814604139
    0.20428863724645    0.97993086922550    0.99016135659320
    0.23515605585545    0.95307578825909    0.96734837936045
    0.38734470814745    0.82767084931242    0.92213884148324
    0.36123679621371    0.98935565083757    0.78912137492021
    0.23135993360971    0.82258916477421    0.00487348001599
    0.21504141635890    0.82640516290652    0.12484724246674
    0.25039228376565    0.85196755194153    0.06799970620250
    0.03087387067745    0.32057333080078    0.98741151017870
    0.02103466671536    0.22446858260200    0.98882485174770
    0.05127129465548    0.28276475050645    0.96636118706326
    0.18087586512418    0.56624224896830    0.91887912440950
    0.60692741537382    0.76006446584559    0.07343622975574
    0.01948357408197    0.37567528305297    0.79024432514381
    0.17718296920308    0.38998198426229    0.13075497969200
    0.15384762390128    0.40196745347682    0.07332879694563
    0.29500673498271    0.32398544947091    0.52090958431248
    0.20145188198240    0.23401039575855    0.52674645729074
    0.23695386651578    0.29364554256142    0.54480179816700
    0.38991150194186    0.57058121821462    0.58062773228455
    0.35387991398370    0.37975103079717    0.71100841788642
    0.23416272858986    0.41502947699044    0.48891110250432
    0.21617904398705    0.39077288375844    0.36941272463180
    0.25255262823207    0.40336129562448    0.42604206762842
    0.03399382540798    0.71154340726961    0.52379807107581
    0.04469948349157    0.80785275469550    0.52713989436271
    0.18546441180035    0.41509973709062    0.01133709459845
    0.61911225295115    0.79579464259818    0.13049952964506
    0.59386022227383    0.77827641770985    0.01121192622674
    0.63063386431627    0.65639623404276    0.79076162545993
    0.22406597388571    0.20495132570070    0.48645413953960
    0.28130935911490    0.23496763418507    0.46127495551480
    0.56168645350647    0.38593191628475    0.41688779561503
    0.37618519789189    0.35920997227331    0.28181121199848
    0.41619529374738    0.23496907858665    0.49866411898367
    0.39006983832640    0.22609385051618    0.61695028514487
    0.40077596509367    0.25640890204086    0.55543949101009
    0.71656722815575    0.02879559621518    0.48190431584002
    0.80508189659650    0.02333316550461    0.49167728229136
    0.77681636975685    0.05207650778671    0.46633834245534
    0.62842533125454    0.18036054719024    0.41385958535554
    0.63728478222997    0.01556389741654    0.27910427978076
    0.77370574533521    0.18873403611087    0.50472786577915
    0.78287957658784    0.16845404678207    0.62119266850310
    0.14184502459776    0.39934370943287    0.43669198300875
    0.98574515598783    0.69249045662476    0.47760094909396
    0.99527222652628    0.78830917697350    0.48426596011986
    0.96550760812856    0.73100081136437    0.45871752678222
    0.83106625181580    0.44906394070829    0.41695562058604
    0.99177766419848    0.63438721168743    0.28286195400503
    0.83073082600752    0.59657538466609    0.49946871843857
    0.84764982290653    0.61694001898892    0.61938796818251
    0.86707985060433    0.60814605104494    0.55636475713268
    0.68869557663887    0.71551285515353    0.98618408726946
    0.78236946348551    0.80562583188991    0.98819477703492
    0.72414037535644    0.77497015083312    0.96610218586930
    0.44222536567363    0.62245496119423    0.92129952002625
    0.06400242733246    0.76954439920548    0.54804660665465
    0.17896717250633    0.61362616768608    0.58228743582249
    0.75163180669629    0.15058558039362    0.56022434532911
    0.18160252067836    0.76723222317116    0.49707529582199
    0.41698529847860    0.17715790860162    0.00159056526459
    0.39512871148148    0.16024537650541    0.88175678226238
    0.40572044190134    0.14110025193544    0.94410628700911
    0.68973982159668    0.71390502516655    0.52346039954966
    0.78342757712886    0.80380703515039    0.51746107074473
    0.72553406576745    0.77401159686128    0.54065868428392
    0.44297731578325    0.62360678074139    0.58305004789846
    0.63079583470111    0.65506861561630    0.71997353316090
    0.59335682428612    0.77211539167392    0.49437153331749
    0.61909653456737    0.78035263838442    0.37542957489729
    0.60739357232241    0.74961886047949    0.43739077606041
    0.29452025418033    0.98445233971304    0.52198285072482
    0.57096861529652    0.18077830717798    0.08031901824113
    0.20623668838459    0.99024145139378    0.51092008673838
    0.38255262688360    0.82853310824507    0.58565317566295
    0.36017778798430    0.98879489443466    0.71830944212644
    0.23371370508936    0.82424208613841    0.50246457035446
    0.22609857567960    0.84114895209202    0.38381502920699
    0.25562186854133    0.86121636646597    0.44568399659848
    0.02608177295715    0.31654496618182    0.52371415221056
    0.02233147952120    0.22335903897663    0.51590803206803
    0.04964113516789    0.28044222441226    0.54154540002610
    0.17925717259235    0.56092071579896    0.58491088151892
    0.01918789884415    0.37509173874725    0.71940228368409
    0.17836459288123    0.41280296457645    0.49380029678573
    0.01730280079382    0.64574318147742    0.71341364522136
    0.23469753825293    0.96237256282822    0.53834127476367
    0.29085597173205    0.05571000166435    0.05326570945198
    0.37927500749596    0.02520187791076    0.21879013961914
    0.32195156288160    0.02825855875808    0.03195724372890
    0.17535653880011    0.78456421172866    0.37765695273104
    0.15246840953096    0.74742773605173    0.43396537844863
    0.68596778975889    0.97775299657144    0.52520988885924
    0.77407797401926    0.97134523483454    0.53177997075508
    0.71452587751253    0.94849065568437    0.54931839057118
    0.43490115270835    0.82755631237959    0.58298048534811
    0.62969117014508    0.98097660513699    0.70932910051227
    0.59159024682115    0.82594155143274    0.48971451844176
    0.61753234948739    0.83362476563471    0.37065807837949
    0.60436536232363    0.85686052078649    0.42718173768072
    0.71247437658047    0.68869911146249    0.02998675608584
    0.23214390626474    0.03177342821559    0.03149229565719
    0.77143859803913    0.71958607708239    0.05074249046010
    0.62002044498710    0.44432943666621    0.08392766286395
    0.80643187325562    0.77836520091003    0.02918598073348
    0.64897115166638    0.63229279109116    0.21894492211700
    0.87004271093998    0.26881891436154    0.94369809563692
    0.85085224391058    0.23883778710155    0.88146030587613
    0.99210866426452    0.36132978792247    0.21874318910001
    0.83085729969277    0.39049135599764    0.08289406248333
    0.95154280393634    0.24102782610931    0.05450305715779
    0.83499977631952    0.24396284024932    0.00140283364059
    0.98202374239789    0.29995244341212    0.03340025476115
    0.74984334396216    0.60793936074573    0.94497376497284
    0.78096846048095    0.61946117736428    0.88403306509107
    0.77146368890972    0.59338064811335    0.00231993734025
    0.97097426874028    0.20352095757103    0.03128268282342
    0.63525160242570    0.89429028109316    0.19791064482424
    0.93603075113717    0.12827398488434    0.44864522907609
    0.81446382131951    0.93747517566875    0.94061927855599
    0.06666444124739    0.87918326072740    0.94898611653541
    0.25979599432069    0.37472146104174    0.19925720266648
    0.12868313195308    0.19388366815521    0.95640797895431
    0.20101439539653    0.07689917166801    0.43965049154431
    0.88071453168427    0.81166379308183    0.45680719852031
    0.11716807860741    0.74121911258987    0.19183720352585
    0.63489404518124    0.75143578128553    0.30442447396927
    0.38205557989143    0.11634619012957    0.81055485565523
    0.19404054401789    0.06738144572126    0.05301442105704
    0.89426637507471    0.26989732557638    0.80994481038462
    0.88018083431632    0.81686252078213    0.05171990266664
    0.80939753018125    0.93393005350004    0.55734937988927
    0.12840160597651    0.19627092081848    0.55214032208949
    0.89204838502821    0.62963185358194    0.69019283340733
    0.11668216840802    0.37392106076705    0.30326863835069
    0.78946582613816    0.69271224554031    0.43085633192163
    0.65928448036956    0.44519692035883    0.41591228726808
    0.63638836442769    0.65786511458210    0.32282516344608
    0.77892831679882    0.62103484594979    0.67513334967371
    0.71426774558806    0.60252634713359    0.57277028674239
    0.90974353499109    0.22018047692760    0.42215709474869
    0.79326683077223    0.35160713892876    0.41662126869364
    0.31938340468298    0.10129967571669    0.41822296342114
    0.85941017170641    0.23316729352397    0.67565182704052
    0.89933282724126    0.30356985611676    0.57542245694505
    0.89562022509461    0.59988591597971    0.93345744449339
    0.56845828990432    0.21736201528547    0.41599324152230
    0.34794157769904    0.99298078268628    0.32416332230170
    0.38729339778554    0.15370369483105    0.67242413112387
    0.02937158267083    0.37271970406847    0.32262053522882
    0.85451705591157    0.62378904920401    0.82970912986784
    0.96172785396224    0.80865693450566    0.02522535317375
    0.79245745119464    0.44930624605182    0.08393520969357
    0.09911325359779    0.39631174990392    0.44040588252412
    0.20110133792584    0.15740413422023    0.02476094531877
    0.30697470958676    0.21414497481422    0.06283835636932
    0.56064554780726    0.34674303368025    0.08463204711950
    0.35134236557189    0.37238305265381    0.17764755947123
    0.38791548604807    0.22791028185282    0.82741796528365
    0.40503229272185    0.29104478133608    0.93085418727949
    0.85270991991870    0.04163682497526    0.02078620165701
    0.79875312346832    0.09048962580126    0.06540213033286
    0.66832470425550    0.21843106960762    0.08234238056370
    0.63913783811076    0.98173895870776    0.17558608135513
    0.78351176555187    0.16290755489902    0.82770656413086
    0.72121605392959    0.11594154100977    0.93146512668234
    0.41236929329978    0.11271616702898    0.56969149548181
    0.91458503218375    0.70387699543645    0.06701390067843
    0.02966016763500    0.65933447441821    0.17839458461239
    0.21812852302246    0.31253680261477    0.92555259814096
    0.09541439874515    0.78995651053129    0.91807440345725
    0.36522203521363    0.35229876958188    0.81490044057491
    1.00338803793985    0.57698963074465    0.99903414526926
    0.46639124195380    0.22883571386570    0.34713346447312
    0.77998775929562    0.24684138325212    0.35424244046548
    0.77179887999662    0.54814387685221    0.34828392169170
    0.54294528013957    0.77449083540946    0.85595660293066
    0.23349160004133    0.77800814913338    0.84824603071958
    0.58251117839964    0.00876574416740    0.99993368701867
    0.23322987661026    0.46477380425124    0.85608080611560
    0.22563930774917    0.76865308827513    0.65515117639190
    0.54123359610438    0.77858186106724    0.64503185736799
    0.77886528015531    0.54563936340576    0.15507314004246
    0.77763780553752    0.23146453972178    0.15411356226796
    0.46499575978286    0.23538895675592    0.15313003413173
    0.98165643662664    0.35165793677774    0.68571013621970
    0.23687451513490    0.46311515080010    0.64521249335579
    0.43357495126048    0.43103278086202    0.99869078350868
    0.00867522319824    0.43261081827380    0.50751204804082
    0.42648768232411    0.99795733404677    0.50867518107575
    0.30351391245982    0.40086682883526    0.06346186542579
    0.21741961802801    0.66329855968589    0.90964951564495
    0.98142990639595    0.63545365009008    0.81906757853002
    0.09844212521268    0.70251753836729    0.05439766825961
    0.69567256042201    0.91035304194575    0.91528386089437
    0.44648337171033    0.78991831830573    0.91342084906253
    0.66012719385529    0.01957093141827    0.81282981132284
    0.60915012761436    0.91135409628789    0.06190879943912
    0.43218064370168    0.43016432567971    0.49186987941756
    0.58210643132480    0.00993579001659    0.49029362987118
    0.99890804213231    0.57368972997032    0.49306902849597
    0.57562318194748    0.58024867744818    0.00449371085943
    0.43096959875838    1.00203939151239    0.00318896110435
    0.01295390124537    0.43675899057956    0.00322076308840
    0.57459300103734    0.57931147893842    0.50638556847166
    0.34502321165330    0.56275965153137    0.91206468988545
    0.21720098933431    0.55494725300855    0.59194760859550
    0.66434072978535    0.45107495822085    0.09027165225691
    0.04045939703792    0.19487859713947    0.52672793184282
    0.66022158675204    0.65144576891157    0.82558089527596
    0.62781688081885    0.78236285381877    0.17975723213437
    0.60727015900359    0.71883185960816    0.07540739793017
    0.15783720583283    0.96130585172838    0.97741328286435
    0.21447081669031    0.91336090171960    0.93627666418781
    0.34281159598074    0.78986118409318    0.91721890963619
    0.44881612878470    0.66683380749872    0.91662869544013
    0.37443159148900    0.02724522867169    0.82231791224529
    0.29187496397264    0.89353271621257    0.07097374325087
    0.03588716407269    0.19402095544174    0.97428224578026
    0.08976249298282    0.29937587810870    0.93354440729492
    0.21904099688906    0.56040956782251    0.91370515860627
    0.98214589007225    0.35080109901660    0.82431548945706
    0.15466444307730    0.38107828124316    0.17976391631475
    0.22922037087558    0.84700071175952    0.17462993925118
    0.70527031432040    0.79573964371597    0.93508399636364
    0.81068930632617    0.85194145991315    0.97489257359940
    0.90975850949041    0.61116168557508    0.55216978825334
    0.08909506205178    0.29813695211474    0.57298495376888
    0.19573973149736    0.15800440494876    0.47642199533189
    0.29932431719875    0.21285854773045    0.43135335490962
    0.55487976250829    0.34159749244981    0.41059741743782
    0.35207142271218    0.37235903007934    0.31591988875834
    0.39551267113403    0.29477545683458    0.55145690950039
    0.85177367197047    0.04060296219418    0.48137867800089
    0.80022868350433    0.09215496424821    0.43611230814133
    0.67228613777524    0.21875982100678    0.40775283463813
    0.62366192261275    0.97776619363324    0.31301384218452
    0.71231468581141    0.10749586304955    0.55442438931065
    0.98030155304807    0.81911699819899    0.47168913011570
    0.92720006260561    0.71548535513665    0.42568519991089
    0.79321473532444    0.45518720450715    0.40969820635183
    0.02873933031096    0.65880495335418    0.31705028206530
    0.11202928720361    0.40115078185386    0.07477717429873
    0.21933516797527    0.31605849926536    0.57476556905322
    0.72322435394996    0.07101024038979    0.36748307810261
    0.35830946110466    0.34979681906050    0.67639393784190
    0.91196095749720    0.30982823715447    0.94698544017175
    0.31237893206763    0.09598733003918    0.08320868890772
    0.56484368732571    0.21865591537505    0.08710021321924
    0.34989532682667    0.98882115954295    0.18551656542357
    0.40399861909462    0.09897551681822    0.94767524266902
    0.81183967420971    0.85061295501934    0.52820292807920
    0.70711309188923    0.79609999416059    0.56989954166436
    0.44949419932169    0.66778420398929    0.58990041173142
    0.65782107478593    0.64470225612654    0.68703177474091
    0.60994249763057    0.70965611437971    0.44095841804580
    0.15933138391576    0.97254397576732    0.52064521372529
    0.33802805014243    0.79132147763479    0.59320389801594
    0.37418540229261    0.02612348231484    0.68366735167961
    0.29355785966989    0.90533915461550    0.45001441628206
    0.34550037177275    0.56389198948159    0.58527193850665
    0.02897274753116    0.37288449889221    0.18428141879136
    0.79332459196739    0.34605042016936    0.08999370724058
    0.21130795899296    0.92333658480462    0.57028334217002
    0.71114655875522    0.61266619583668    0.94842519196662
    0.91176270870537    0.22394384049554    0.08510158863615
    0.29442049846611    0.40436037430866    0.42322335127954
    0.22963632134196    0.38296451279909    0.31975314571076
    0.21654941025430    0.65833052917916    0.58703075173019
    0.98016431428933    0.63521746562355    0.68045758991533
    0.15451996334351    0.77077694783526    0.32769691800953
    0.11261115760162    0.70444037141729    0.43051444392868
    0.10287223534901    0.78522615175384    0.58009406003412
    0.44064789101961    0.78933860950623    0.58845876626341
    0.66048745497440    0.01465056793733    0.67417935560346
    0.62616992231491    0.85556850220163    0.32125201442571
    0.60378586514142    0.89796302581451    0.42454940797193
    0.79023653100296    0.69792267195863    0.08017668565960
    0.69066359871751    0.90804378783102    0.57873322680379
    0.63656689061723    0.65690234472886    0.18451997575077
    0.75201033862666    0.14521357463499    0.32962667585105
    0.42488848266188    0.08182476017150    0.31024730848185
    0.43797556839268    0.17404250804224    0.43847050701971
    0.34286830948829    0.38120145964935    0.96263849553412
    0.40275604586378    0.52430144397525    0.91551171702390
    0.04131373767088    0.66632716844608    0.95921343205951
    0.26221960840163    0.43229965310104    0.94072620984418
    0.07504687187138    0.66278092590101    0.80496883822496
    0.17139164138834    0.74735439067340    0.93210459482182
    0.53001156231867    0.12126839388992    0.41688112351564
    0.62998335435844    0.96720234246649    0.95972810323786
    0.34237754014314    0.42233581299870    0.80430365792546
    0.38251402614077    0.04287016227422    0.46760124860480
    0.66540598139316    0.62675448279936    0.47065976280466
    0.93574814871519    0.34776495704208    0.31105941926258
    0.88973081106619    0.40971341847744    0.41841867165643
    0.96646135072151    0.34301147920343    0.46829214228995
    0.74802827046895    0.57813935765623    0.44025747326569
    0.66427213963448    0.59138492251230    0.31188588261353
    0.60221056092011    0.48442130017690    0.41716858616890
    0.83396263442217    0.57496998265724    0.06417998589914
    0.88909317814942    0.48903605524449    0.08246645101682
    0.96504948555854    0.63059963672731    0.03094313342796
    0.75479533033145    0.17714012863433    0.06243564547693
    0.66030823809944    0.07409124520434    0.18697728841491
    0.61023932684100    0.12197606421732    0.07997176612840
    0.48557475835106    0.88645837963367    0.91650160887170
    0.83584097294568    0.27205170256395    0.44571782129160
    0.58686734391769    0.92748509848185    0.80317399221143
    0.51616746127431    0.69256566672734    0.75235882858353
    0.51104663957976    0.49264453328131    0.40022745886405
    0.07938663635919    0.87010855797547    0.54807372632367
    0.93498279654866    0.14026482141419    0.04735784172977
    0.37002858339647    0.24697310890551    0.67499133482265
    0.76151957021080    0.12503750369826    0.67688174232037
    0.24777531648590    0.88230435592241    0.32578896652698
    0.76066780562756    0.64016790009317    0.82597852268823
    0.49853503480816    0.17624014953756    0.25149013663214
    0.84014411164810    0.32514732870547    0.25257354366053
    0.68876038023345    0.51977604978223    0.25485828629281
    0.51203884066790    0.83123949680926    0.74907631767105
    0.17046261153426    0.68577398272853    0.74844479135622
    0.31919393069397    0.49527036768150    0.74903431709930
    0.17336726188805    0.48520811663185    0.75344713259839
    0.31627854084203    0.83515373318153    0.75453146261293
    0.67478214927639    0.04474159296715    0.03021045230359
    0.83817978867253    0.52252512366264    0.24737980091182
    0.69078199806535    0.17153973434868    0.24371062381660
    0.48784276288342    0.31822218888976    0.24686072155769
    0.51801070874012    0.02273301822806    0.09824953213835
    0.98879220309438    0.49782728986057    0.10054294537454
    0.51357948796983    0.49522516265142    0.10090300334853
    0.49113717652316    0.98633576604173    0.59844609598401
    0.02075745659617    0.50751803801754    0.59986118960146
    0.49486009973700    0.51786920488967    0.59820925636894
    0.02221978721100    0.51083096590858    0.90195697904152
    0.49312068729638    0.98584345256856    0.90365021517190
    0.49506432292817    0.51772299809722    0.90280532176073
    0.98930526375560    0.50072814250903    0.40148973206323
    0.52102132972640    0.02205929704445    0.40345867315111
    0.57602373442917    0.83673680064767    0.93986874200960
    0.43234357245319    0.25800644704592    0.06226120430120
    0.12112048999741    0.60415261630045    0.91404169525451
    0.52150747375068    0.40387128484282    0.08357693028414
    0.26095589228826    0.43250398582939    0.55385826995216
    0.34058954462302    0.42260018953370    0.69040891323792
    0.40307073689184    0.52523081631240    0.58246564272337
    0.34210903070359    0.38273233289229    0.52999069456524
    0.17659103215068    0.43187565014218    0.94586342340959
    0.07704188223557    0.41502363158772    0.81164280496647
    0.12237056518924    0.52007972503274    0.91727302258102
    0.04743505847167    0.37972728972163    0.97175194351235
    0.25708669553100    0.83295499531812    0.93939234707961
    0.34301195466265    0.93204744841892    0.81125494496084
    0.40082685726097    0.88636667548114    0.91949670946594
    0.33848694414935    0.96329752044238    0.97208659843333
    0.57629636758990    0.75151071784592    0.94603682445401
    0.58833463916417    0.67045134780740    0.81114516979473
    0.48768122409043    0.60945380577896    0.91918896080924
    0.62980425654592    0.67186865069092    0.97222644397619
    0.83507050035463    0.58171032049785    0.43105215632329
    0.93423650069415    0.59468484984119    0.30366982995880
    0.88984875756692    0.49434955385171    0.41298745959359
    0.96775972776063    0.63318238082904    0.46102423087984
    0.75189638686468    0.18470160141663    0.43782302065002
    0.65229725283124    0.07233499604882    0.30038746509112
    0.61507738118070    0.12180154754041    0.40978135449560
    0.67496496385785    0.04548446005816    0.46367926447176
    0.43136826572905    0.25595519187384    0.43088697503612
    0.41568287987833    0.34145423142450    0.30308776244801
    0.51679276851962    0.39963673294219    0.41275958839387
    0.37589301131197    0.33800284842207    0.46163505067627
    0.41660609966009    0.34299476782288    0.18926576573835
    0.04246811739098    0.66284190979165    0.53375306955495
    0.12013187822784    0.59968242362545    0.58434321452792
    0.93512155426580    0.59329895575651    0.19014923849615
    0.17206737838443    0.74159247814814    0.56292025013633
    0.38029757916138    0.33891013775316    0.02931935080217
    0.07389472290983    0.66092802714353    0.69141811608159
    0.17403747423341    0.42907154217057    0.56175547260455
    0.07674191348524    0.41395771280881    0.69785821703977
    0.12058265759070    0.51531342289447    0.58826875151431
    0.04247929299691    0.37526819410934    0.53965226887434
    0.25397714683011    0.83048202331254    0.57059891076529
    0.34103659322877    0.93103340373982    0.69757700151187
    0.39715214816492    0.88755203579925    0.58795997015460
    0.57604538028965    0.75057314046767    0.56191807583879
    0.58873488219182    0.66890936815710    0.69726489374665
    0.48813812522263    0.61024230366424    0.58627474458132
    0.63054447625257    0.67123769133075    0.53772750606208
    0.43313923104992    0.17298085610940    0.06954791020899
    0.33538971846595    0.96659533724913    0.53935714781757
    0.52563671968590    0.12208315042668    0.08473873402795
    0.62743673224998    0.96691947934988    0.53233265155078
    0.42387962521641    0.08034245152658    0.19654077961438
    0.58509198672956    0.92514889598322    0.68933028553794
    0.57327169964152    0.83447596695222    0.55439511593093
    0.66616558281599    0.62985798637055    0.04104437434805
    0.60630724762492    0.48919401586325    0.08817377048633
    0.66590561607076    0.59211892988191    0.19809138584267
    0.48114944865909    0.88601953641641    0.58362193074755
    0.97167177404768    0.34735550571482    0.04367956244495
    0.38097072750526    0.04122720600613    0.04224327584329
    0.88972832293988    0.40484359417590    0.08721780194882
    0.93535420587452    0.34597729509742    0.19754112566959
    0.83943024635468    0.26362662373960    0.06971888643167
    0.75024571529351    0.57823259156902    0.07003858116238
    0.99579407834904    0.53901378611841    0.89655727184538
    0.31159869000204    0.51248017655531    0.80547724352658
    0.46608508285932    0.46290876820030    0.89551611132887
    0.51948084511169    0.20154004719967    0.30698678385875
    0.46640847129207    0.99619918814126    0.41262736212146
    0.01524519440255    0.47199544360928    0.40572946174629
    0.69139879300576    0.49801608015060    0.31048058507891
    0.53976246811756    0.54777055143531    0.40313228003129
    0.81407675092673    0.49878003370080    0.19227307432022
    0.01477242910287    0.55297994593467    0.10112323829240
    0.19700490992336    0.69704341852762    0.80421767074228
    0.81614449746160    0.32581562555650    0.30722891727971
    0.54821430870103    0.01204036335877    0.89914511785675
    0.76021541646767    0.10788458966841    0.33683387208301
    0.76486166178375    0.62453126882187    0.76718469067725
    0.73986061910565    0.67281807514852    0.83821821550796
    0.26865392671517    0.93596920369651    0.33783098097950
    0.24482200142232    0.86244652275061    0.26722045613624
    0.76529674323602    0.14260589192100    0.73661217918273
    0.74067597296797    0.07176735609317    0.66265702818112
    0.38212431612950    0.23879687003531    0.73411380128284
    0.34143904948718    0.27221896533626    0.66246281483966
    0.94779510650424    0.10489480559690    0.02052389682564
    0.89179363152553    0.12398613819452    0.08647495505099
    0.06686634921816    0.90650397318926    0.52344387815376
    0.12113734720691    0.88458381729194    0.58903797685288
    0.69333815226594    0.19711366934634    0.18890586525413
    0.49551980561489    0.80658131256356    0.80580031989806
    0.54654862849771    0.99642387176110    0.10227281605475
    0.99578081543789    0.45356973216809    0.61356323501827
    0.45841616549853    0.46600912000365    0.10255783650168
    0.45692289771527    0.46411011059380    0.38772314094905
    0.50993628354020    0.31588293949831    0.19144173360819
    0.54764943802597    0.99535762096826    0.38835961372052
    0.71082269660498    0.19836351799671    0.29863953318172
    0.01517170403252    0.55464186864980    0.38743330740719
    0.81140575295797    0.50847901889644    0.30300999006038
    0.55019101970670    0.54674563918622    0.90034085403527
    0.49567233879934    0.69713969000927    0.80796173753770
    0.46439547476755    0.01190832997089    0.89862530188981
    0.31413616339442    0.81092105594016    0.81013559265670
    0.99684921021883    0.45578713428952    0.89857410281969
    0.19848891503973    0.50688618903086    0.80882587798098
    0.31418602710722    0.51551952696259    0.69333476498662
    0.99386569365695    0.53531594722546    0.59567806357574
    0.50393379758298    0.30839516665999    0.30288375491574
    0.54623702937287    0.01249271123896    0.59399561887820
    0.19881078612802    0.50121230957024    0.69713166244771
    0.19459921475021    0.68733940292593    0.69305390064195
    0.30558570719936    0.80877430686174    0.69877168040078
    0.46351653121608    0.01245651527378    0.61172266300712
    0.49937245630259    0.70085544515394    0.69595718903213
    0.54896010426670    0.54684462314605    0.61076605396146
    0.46665244672257    0.46275919877174    0.59490589454118
    0.46306552262531    0.99686113062860    0.10467625266726
    0.81391238624545    0.31314850864416    0.19655114420226
    0.01450863507135    0.46933585312817    0.10972976294811
    0.69832792582488    0.50343144208556    0.19893731060205
    0.49098139829968    0.80564833676764    0.69373424218509
    0.51507605181388    0.20155752120038    0.19511016137671
    0.54229110611750    0.54996859336985    0.10907786639652
    0.43858505041578    0.33518568114295    0.09229065464382
    0.67742688196950    0.10658530113631    0.09120864949407
    0.90547403822236    0.57139454219476    0.09416108754394
    0.44665167480215    0.10485914723730    0.40884289321060
    0.90687362465678    0.34424711245151    0.40717680292536
    0.33779324209495    0.44077612584861    0.90323648568085
    0.10417111353484    0.66955586101817    0.90043897652701
    0.56813227049826    0.90384859434964    0.90164864452620
    0.66946569454178    0.56807184948935    0.40912579463355
    0.10517208164640    0.43326166808915    0.60100758845700
    0.44320315348126    0.10523302516704    0.09928343839176
    0.57146738684472    0.67621099665487    0.59841538047526
    0.90728283883454    0.34049246167349    0.10204370544018
    0.67343585802048    0.57190142530552    0.10095464398966
    0.56458452868379    0.90218172649237    0.59019151207881
    0.33714000153707    0.44154714613373    0.59085771581910
    0.10772645927699    0.43762908118808    0.90802029777512
    0.33436202002557    0.90250920202040    0.90801690106680
    0.57097981606859    0.67657427270505    0.91051634529029
    0.90488898072161    0.57607146298969    0.39934495090246
    0.68336024346779    0.10824030485900    0.39637102137544
    0.43404631413510    0.33150382505336    0.40059234730173
    0.32983635474520    0.90269238501408    0.60058053136213
    0.10302857442370    0.66497680435510    0.59573978432835

 Bond Distances (Angstroems)
 ---------------------------
C1-C139=1.4221       C1-C154=1.3948       C1-N495=1.3952       C2-C4=1.3819         C2-N420=1.4050       C3-C4=1.3897         
C3-Cl242=1.7101      C4-C2=1.3819         C4-C3=1.3897         C4-H264=1.0740       C5-C171=1.3718       C5-H265=1.0787       
C5-N419=1.3802       C6-C232=1.3723       C6-N418=1.3833       C7-C9=1.3893         C7-C165=1.4173       C7-N431=1.4008       
C8-C9=1.3746         C8-C166=1.3990       C8-H267=1.0762       C9-C7=1.3893         C9-C8=1.3746         C9-H268=1.0724       
C10-C12=1.3826       C10-N416=1.4062      C11-C12=1.3897       C11-Cl247=1.7113     C12-C10=1.3826       C12-C11=1.3897       
C12-H266=1.0738      C13-C163=1.3707      C13-H270=1.0761      C13-N413=1.3767      C14-C30=1.3726       C14-C44=1.3942       
C14-H263=1.0748      C15-C16=1.3922       C15-C157=1.4185      C15-N406=1.4014      C16-C15=1.3922       C16-C28=1.3762       
C16-H290=1.0747      C17-C19=1.3815       C17-N407=1.4052      C18-C19=1.3894       C18-Cl246=1.7100     C19-C17=1.3815       
C19-C18=1.3894       C19-H293=1.0738      C20-C179=1.3716      C20-H329=1.0792      C20-N408=1.3801      C21-C143=1.3723      
C21-H295=1.0783      C21-N415=1.3801      C22-C24=1.3815       C22-C149=1.4227      C23-C24=1.3875       C23-C137=1.4054      
C23-Cl245=1.7128     C24-C22=1.3815       C24-C23=1.3875       C24-H314=1.0735      C25-C27=1.3813       C25-N409=1.4044      
C26-C27=1.3883       C26-Cl244=1.7101     C27-C25=1.3813       C27-C26=1.3883       C27-H294=1.0736      C28-C16=1.3762       
C28-C158=1.3980      C28-H272=1.0781      C29-C134=1.3720      C29-H315=1.0795      C29-N466=1.3797      C30-C14=1.3726       
C30-C174=1.4042      C30-H262=1.0743      C31-C229=1.3725      C31-H261=1.0776      C31-N422=1.3824      C32-C119=1.3730      
C32-C120=1.3950      C32-H279=1.0747      C33-C227=1.3717      C33-H280=1.0790      C33-N467=1.3808      C34-C156=1.3724      
C34-H281=1.0776      C34-N496=1.3822      C35-C37=1.3944       C36-C37=1.3726       C36-C185=1.4041      C36-H282=1.0745      
C37-C35=1.3944       C37-C36=1.3726       C37-H283=1.0746      C38-C40=1.3932       C38-N449=1.3940      C39-C40=1.3729       
C39-H284=1.0784      C40-C38=1.3932       C40-C39=1.3729       C40-H285=1.0756      C41-C196=1.3718      C41-H286=1.0791      
C41-N429=1.3811      C42-C164=1.3733      C42-N428=1.3801      C43-C58=1.3929       C44-C14=1.3942       C44-C173=1.4227      
C44-N421=1.3965      C45-C58=1.3717       C45-C231=1.4036      C45-H288=1.0738      C46-C48=1.3942       C46-N426=1.3949      
C47-C48=1.3733       C47-H275=1.0766      C48-C46=1.3942       C48-C47=1.3733       C48-H291=1.0746      C49-C233=1.3718      
C49-H276=1.0790      C49-N425=1.3813      C50-C172=1.3724      C50-N499=1.3810      C51-C53=1.3920       C52-C53=1.3754       
C52-C238=1.3981      C52-H274=1.0779      C53-C51=1.3920       C53-C52=1.3754       C53-H269=1.0746      C54-C56=1.3815       
C54-C187=1.4222      C54-N417=1.4036      C55-C56=1.3883       C55-C188=1.4038      C55-Cl248=1.7103     C56-C54=1.3815       
C56-C55=1.3883       C56-H259=1.0738      C57-C155=1.3717      C57-H260=1.0792      C57-N423=1.3806      C58-C43=1.3929       
C58-C45=1.3717       C58-H289=1.0746      C59-C209=1.3726      C59-N411=1.3796      C60-N412=1.4025      C61-C92=1.3846       
C61-C129=1.4039      C61-Cl249=1.7108     C62-N425=1.3609      C62-N454=1.4458      C62-N527=1.3603      C63-N429=1.3617      
C63-N453=1.4455      C63-N516=1.3611      C64-N452=1.4432      C64-N493=1.3599      C64-N496=1.3613      C65-N428=1.3612      
C65-N451=1.4460      C65-N489=1.3617      C66-N450=1.4439      C66-N485=1.3588      C66-N499=1.3604      C67-N433=1.4407      
C67-N481=1.3600      C67-N511=1.3609      C68-N448=1.4428      C68-N477=1.3604      C68-N508=1.3596      C69-N447=1.4419      
C69-N473=1.3604      C69-N504=1.3592      C70-N415=1.3609      C70-N446=1.4408      C70-N469=1.3604      C71-N411=1.3587      
C71-N445=1.4442      C71-N502=1.3605      C72-N432=1.3604      C72-N444=1.4407      C72-N519=1.3602      C73-N422=1.3616      
C73-N443=1.4435      C73-N523=1.3596      C74-N455=1.4459      C74-N467=1.3623      C74-N522=1.3620      C75-N418=1.3613      
C75-N442=1.4455      C75-N528=1.3588      C76-H297=1.0770      C76-N406=1.3530      C76-N492=1.3489      C77-H298=1.0783      
C77-N431=1.3542      C77-N488=1.3464      C78-H299=1.0768      C78-N421=1.3565      C78-N484=1.3462      C79-H300=1.0774      
C79-N464=1.3451      C79-N480=1.3563      C80-H301=1.0766      C80-N412=1.3457      C80-N476=1.3561      C81-H303=1.0771      
C81-N410=1.3451      C81-N472=1.3560      C82-H310=1.0777      C82-N468=1.3556      C82-N503=1.3455      C83-H304=1.0768      
C83-N500=1.3525      C83-N507=1.3478      C84-H305=1.0778      C84-N510=1.3462      C84-N520=1.3562      C85-H306=1.0768      
C85-N424=1.3529      C85-N530=1.3479      C86-H307=1.0774      C86-N427=1.3559      C86-N529=1.3464      C87-H308=1.0768      
C87-N465=1.3572      C87-N514=1.3460      C88-N405=1.3604      C88-N441=1.4420      C88-N518=1.3598      C89-N456=1.4454      
C89-N509=1.3621      C89-N524=1.3619      C90-N457=1.4458      C90-N498=1.3606      C90-N505=1.3612      C91-N458=1.4452      
C91-N470=1.3614      C91-N512=1.3611      C92-C61=1.3846       C92-H317=1.0734      C93-C95=1.3817       C93-N414=1.4052      
C94-C95=1.3887       C94-Cl243=1.7093     C95-C93=1.3817       C95-C94=1.3887       C95-H318=1.0735      C96-C126=1.3718      
C96-H319=1.0792      C96-N430=1.3801      C97-C220=1.3726      C97-N432=1.3800      C98-C100=1.3818      C98-C151=1.4225      
C99-C100=1.3873      C99-C150=1.4048      C99-Cl241=1.7115     C100-C98=1.3818      C100-C99=1.3873      C100-H321=1.0734     
C101-H322=1.0780     C101-N471=1.3450     C101-N495=1.3546     C102-N517=1.3443     C103-H324=1.0784     C103-N487=1.3500     
C104-H325=1.0787     C104-N521=1.3448     C105-H326=1.0784     C106-H327=1.0778     C107-H328=1.0782     C107-N417=1.3446     
C107-N513=1.3545     C108-H313=1.0774     C108-N515=1.3538     C109-H312=1.0785     C109-N506=1.3532     C110-H311=1.0788     
C110-N407=1.3448     C111-H302=1.0785     C112-H296=1.0779     C113-N423=1.3620     C113-N434=1.4459     C113-N494=1.3624     
C114-N413=1.3594     C114-N463=1.4403     C114-N490=1.3624     C115-N419=1.3601     C115-N462=1.4459     C115-N486=1.3620     
C116-N408=1.3610     C116-N461=1.4451     C116-N482=1.3616     C117-N430=1.3609     C117-N460=1.4448     C117-N478=1.3613     
C118-N459=1.4456     C118-N466=1.3612     C118-N474=1.3618     C119-C32=1.3730      C119-H278=1.0773     C120-C32=1.3950      
C120-N501=1.3943     C121-C212=1.3724     C121-N405=1.3784     C122-C145=1.4049     C122-C167=1.3871     C122-Cl258=1.7119    
C123-C125=1.3946     C123-N479=1.3940     C124-C125=1.3731     C124-H336=1.0767     C125-C123=1.3946     C125-C124=1.3731     
C125-H337=1.0749     C126-C96=1.3718      C126-H338=1.0788     C126-N478=1.3806     C127-C199=1.3725     C127-N477=1.3812     
C128-C130=1.3938     C129-C61=1.4039      C129-C130=1.3721     C129-H347=1.0742     C130-C128=1.3938     C130-C129=1.3721     
C130-H341=1.0746     C131-C133=1.3901     C131-N475=1.4021     C132-C133=1.3767     C132-H342=1.0765     C133-C131=1.3901     
C133-C132=1.3767     C133-H343=1.0746     C134-C29=1.3720      C134-H344=1.0790     C134-N474=1.3810     C135-C150=1.3741     
C135-C151=1.3967     C135-H335=1.0746     C136-C207=1.3730     C136-N473=1.3809     C137-C23=1.4054      C137-C138=1.3742     
C137-H346=1.0778     C138-C137=1.3742     C138-C149=1.3972     C138-H366=1.0746     C139-C1=1.4221       C139-C141=1.3815     
C139-N471=1.4036     C140-C141=1.3887     C140-C153=1.4036     C140-Cl256=1.7099    C141-C139=1.3815     C141-C140=1.3887     
C141-H367=1.0739     C142-C190=1.3716     C142-H384=1.0790     C142-N470=1.3805     C143-C21=1.3723      C143-H369=1.0762     
C143-N469=1.3776     C144-C146=1.3970     C144-C208=1.4225     C144-N468=1.3980     C145-C122=1.4049     C145-C146=1.3744     
C145-H391=1.0778     C146-C144=1.3970     C146-C145=1.3744     C146-H390=1.0747     C147-C180=1.3824     C147-N497=1.4000     
C148-C180=1.3790     C148-N435=1.4555     C149-C22=1.4227      C149-C138=1.3972     C150-C99=1.4048      C150-C135=1.3741     
C150-H334=1.0777     C151-C98=1.4225      C151-C135=1.3967     C152-C191=1.3724     C152-H333=1.0763     C152-N481=1.3775     
C153-C140=1.4036     C153-C154=1.3731     C153-H352=1.0767     C154-C1=1.3948       C154-C153=1.3731     C154-H353=1.0747     
C155-C57=1.3717      C155-H354=1.0789     C155-N494=1.3804     C156-C34=1.3724      C156-H355=1.0776     C156-N493=1.3804     
C157-C15=1.4185      C157-C159=1.3808     C157-N492=1.4001     C158-C28=1.3980      C158-C159=1.3765     C158-N437=1.4545     
C159-C157=1.3808     C159-C158=1.3765     C159-H356=1.0731     C160-C162=1.3958     C160-N491=1.3949     C161-C162=1.3723     
C161-H357=1.0776     C162-C160=1.3958     C162-C161=1.3723     C162-H358=1.0751     C163-C13=1.3707      C163-H359=1.0765     
C163-N490=1.3797     C164-C42=1.3733      C164-N489=1.3833     C165-C7=1.4173       C165-C182=1.3754     C165-N488=1.3967     
C166-C8=1.3990       C166-C182=1.3741     C166-N438=1.4525     C167-C122=1.3871     C167-C208=1.3817     C167-H277=1.0735     
C168-C170=1.3907     C168-N487=1.4018     C169-C170=1.3767     C169-H362=1.0773     C170-C168=1.3907     C170-C169=1.3767     
C170-H363=1.0748     C171-C5=1.3718       C171-H364=1.0797     C171-N486=1.3807     C172-C50=1.3724      C172-N485=1.3795     
C173-C44=1.4227      C173-C175=1.3812     C173-N484=1.4017     C174-C30=1.4042      C174-C175=1.3842     C174-Cl257=1.7124    
C175-C173=1.3812     C175-C174=1.3842     C175-H350=1.0730     C176-C178=1.3950     C176-N483=1.3949     C177-C178=1.3734     
C177-H349=1.0770     C178-C176=1.3950     C178-C177=1.3734     C178-H348=1.0747     C179-C20=1.3716      C179-H339=1.0788     
C179-N482=1.3807     C180-C147=1.3824     C180-C148=1.3790     C180-H396=1.0740     C181-C206=1.3717     C181-H392=1.0791     
C181-N498=1.3804     C182-C165=1.3754     C182-C166=1.3741     C182-H361=1.0740     C183-C200=1.4181     C183-C215=1.3924     
C183-N500=1.4017     C184-N514=1.4020     C185-C36=1.4041      C185-C186=1.3845     C185-Cl251=1.7115    C186-C185=1.3845     
C186-H374=1.0729     C187-C54=1.4222      C187-C189=1.3949     C187-N513=1.3955     C188-C55=1.4038      C188-C189=1.3734     
C188-H375=1.0766     C189-C187=1.3949     C189-C188=1.3734     C189-H376=1.0747     C190-C142=1.3716     C190-H377=1.0790     
C190-N512=1.3803     C191-C152=1.3724     C191-H378=1.0784     C191-N511=1.3805     C192-C194=1.3818     C192-C221=1.4225     
C192-N510=1.4051     C193-C194=1.3871     C193-C222=1.4055     C193-Cl250=1.7140    C194-C192=1.3818     C194-C193=1.3871     
C194-H379=1.0735     C195-C210=1.3936     C195-N515=1.3946     C196-C41=1.3718      C196-H372=1.0795     C196-N516=1.3799     
C197-C210=1.3731     C197-H380=1.0791     C198-C219=1.3719     C198-H381=1.0789     C198-N509=1.3801     C199-C127=1.3725     
C199-N508=1.3799     C200-C183=1.4181     C200-C202=1.3796     C200-N507=1.3996     C201-C202=1.3757     C201-C214=1.3981     
C201-N439=1.4540     C202-C200=1.3796     C202-C201=1.3757     C202-H383=1.0726     C203-C205=1.3945     C203-N506=1.3944     
C204-C205=1.3730     C204-H332=1.0770     C205-C203=1.3945     C205-C204=1.3730     C205-H351=1.0747     C206-C181=1.3717     
C206-H330=1.0791     C206-N505=1.3807     C207-C136=1.3730     C207-N504=1.3798     C208-C144=1.4225     C208-C167=1.3817     
C208-N503=1.4052     C209-C59=1.3726      C209-N502=1.3822     C210-C195=1.3936     C210-C197=1.3731     C210-H387=1.0756     
C211-C213=1.3814     C211-C225=1.3890     C211-H371=1.0737     C212-C121=1.3724     C212-N518=1.3794     C213-C211=1.3814     
C213-N526=1.4061     C214-C201=1.3981     C214-C215=1.3762     C214-H394=1.0780     C215-C183=1.3924     C215-C214=1.3762     
C215-H395=1.0748     C216-C218=1.3812     C216-N517=1.4049     C217-C218=1.3898     C217-Cl255=1.7087    C218-C216=1.3812     
C218-C217=1.3898     C218-H402=1.0742     C219-C198=1.3719     C219-H397=1.0792     C219-N524=1.3806     C220-C97=1.3726      
C220-N519=1.3776     C221-C192=1.4225     C221-C223=1.3973     C221-N520=1.3980     C222-C193=1.4055     C222-C223=1.3747     
C222-H399=1.0778     C223-C221=1.3973     C223-C222=1.3747     C223-H400=1.0749     C224-C226=1.3812     C224-N521=1.4039     
C225-C211=1.3890     C225-Cl252=1.7104    C226-C224=1.3812     C226-C228=1.3885     C226-H401=1.0739     C227-C33=1.3717      
C227-H331=1.0791     C227-N522=1.3801     C228-C226=1.3885     C228-Cl254=1.7093    C229-C31=1.3725      C229-H403=1.0776     
C229-N523=1.3801     C230-C231=1.3849     C230-H370=1.0736     C231-C45=1.4036      C231-C230=1.3849     C231-Cl253=1.7104    
C232-C6=1.3723       C232-N528=1.3794     C233-C49=1.3718      C233-H386=1.0793     C233-N527=1.3801     C234-C236=1.3821     
C234-C240=1.3779     C234-H389=1.0738     C235-N529=1.4030     C236-C234=1.3821     C236-N525=1.3989     C237-C238=1.3764     
C237-H388=1.0730     C238-C52=1.3981      C238-C237=1.3764     C238-N440=1.4537     C239-N530=1.4008     C240-C234=1.3779     
C240-N436=1.4549     Cl241-C99=1.7115     Cl242-C3=1.7101      Cl243-C94=1.7093     Cl244-C26=1.7101     Cl245-C23=1.7128     
Cl246-C18=1.7100     Cl247-C11=1.7113     Cl248-C55=1.7103     Cl249-C61=1.7108     Cl250-C193=1.7140    Cl251-C185=1.7115    
Cl252-C225=1.7104    Cl253-C231=1.7104    Cl254-C228=1.7093    Cl255-C217=1.7087    Cl256-C140=1.7099    Cl257-C174=1.7124    
Cl258-C122=1.7119    H259-C56=1.0738      H260-C57=1.0792      H261-C31=1.0776      H262-C30=1.0743      H263-C14=1.0748      
H264-C4=1.0740       H265-C5=1.0787       H266-C12=1.0738      H267-C8=1.0762       H268-C9=1.0724       H269-C53=1.0746      
H270-C13=1.0761      H272-C28=1.0781      H274-C52=1.0779      H275-C47=1.0766      H276-C49=1.0790      H277-C167=1.0735     
H278-C119=1.0773     H279-C32=1.0747      H280-C33=1.0790      H281-C34=1.0776      H282-C36=1.0745      H283-C37=1.0746      
H284-C39=1.0784      H285-C40=1.0756      H286-C41=1.0791      H288-C45=1.0738      H289-C58=1.0746      H290-C16=1.0747      
H291-C48=1.0746      H293-C19=1.0738      H294-C27=1.0736      H295-C21=1.0783      H296-C112=1.0779     H297-C76=1.0770      
H298-C77=1.0783      H299-C78=1.0768      H300-C79=1.0774      H301-C80=1.0766      H302-C111=1.0785     H303-C81=1.0771      
H304-C83=1.0768      H305-C84=1.0778      H306-C85=1.0768      H307-C86=1.0774      H308-C87=1.0768      H310-C82=1.0777      
H311-C110=1.0788     H312-C109=1.0785     H313-C108=1.0774     H314-C24=1.0735      H315-C29=1.0795      H317-C92=1.0734      
H318-C95=1.0735      H319-C96=1.0792      H321-C100=1.0734     H322-C101=1.0780     H324-C103=1.0784     H325-C104=1.0787     
H326-C105=1.0784     H327-C106=1.0778     H328-C107=1.0782     H329-C20=1.0792      H330-C206=1.0791     H331-C227=1.0791     
H332-C204=1.0770     H333-C152=1.0763     H334-C150=1.0777     H335-C135=1.0746     H336-C124=1.0767     H337-C125=1.0749     
H338-C126=1.0788     H339-C179=1.0788     H341-C130=1.0746     H342-C132=1.0765     H343-C133=1.0746     H344-C134=1.0790     
H346-C137=1.0778     H347-C129=1.0742     H348-C178=1.0747     H349-C177=1.0770     H350-C175=1.0730     H351-C205=1.0747     
H352-C153=1.0767     H353-C154=1.0747     H354-C155=1.0789     H355-C156=1.0776     H356-C159=1.0731     H357-C161=1.0776     
H358-C162=1.0751     H359-C163=1.0765     H361-C182=1.0740     H362-C169=1.0773     H363-C170=1.0748     H364-C171=1.0797     
H366-C138=1.0746     H367-C141=1.0739     H368-O544=1.1242     H368-Zn612=1.8232    H369-C143=1.0762     H370-C230=1.0736     
H371-C211=1.0737     H372-C196=1.0795     H374-C186=1.0729     H375-C188=1.0766     H376-C189=1.0747     H377-C190=1.0790     
H378-C191=1.0784     H379-C194=1.0735     H380-C197=1.0791     H381-C198=1.0789     H383-C202=1.0726     H384-C142=1.0790     
H386-C233=1.0793     H387-C210=1.0756     H388-C237=1.0730     H389-C234=1.0738     H390-C146=1.0747     H391-C145=1.0778     
H392-C181=1.0791     H394-C214=1.0780     H395-C215=1.0748     H396-C180=1.0740     H397-C219=1.0792     H399-C222=1.0778     
H400-C223=1.0749     H401-C226=1.0739     H402-C218=1.0742     H403-C229=1.0776     H404-O544=1.0997     N405-C88=1.3604      
N405-C121=1.3784     N405-Zn595=1.9967    N406-C15=1.4014      N406-C76=1.3530      N406-Zn595=2.0025    N407-C17=1.4052      
N407-C110=1.3448     N407-Zn597=1.9824    N408-C20=1.3801      N408-C116=1.3610     N408-Zn597=1.9779    N409-C25=1.4044      
N409-Zn598=1.9571    N410-C81=1.3451      N410-Zn597=1.9971    N411-C59=1.3796      N411-C71=1.3587      N411-Zn598=1.9718    
N412-C60=1.4025      N412-C80=1.3457      N412-Zn598=1.9860    N413-C13=1.3767      N413-C114=1.3594     N413-Zn595=1.9882    
N414-C93=1.4052      N414-Zn599=1.9710    N415-C21=1.3801      N415-C70=1.3609      N415-Zn597=1.9948    N416-C10=1.4062      
N416-Zn595=1.9888    N417-C54=1.4036      N417-C107=1.3446     N417-Zn600=1.9790    N418-C6=1.3833       N418-C75=1.3613      
N418-Zn596=1.9934    N419-C5=1.3802       N419-C115=1.3601     N419-Zn596=1.9724    N420-C2=1.4050       N420-Zn596=1.9590    
N421-C44=1.3965      N421-C78=1.3565      N421-Zn600=2.0115    N422-C31=1.3824      N422-C73=1.3616      N422-Zn600=2.0033    
N423-C57=1.3806      N423-C113=1.3620     N423-Zn600=1.9904    N424-C85=1.3529      N424-Zn594=1.9893    N425-C49=1.3813      
N425-C62=1.3609      N425-Zn594=1.9702    N426-C46=1.3949      N426-Zn594=1.9639    N427-C86=1.3559      N427-Zn593=1.9970    
N428-C42=1.3801      N428-C65=1.3612      N428-Zn593=1.9933    N429-C41=1.3811      N429-C63=1.3617      N429-Zn593=1.9859    
N430-C96=1.3801      N430-C117=1.3609     N430-Zn599=1.9750    N431-C7=1.4008       N431-C77=1.3542      N431-Zn596=1.9959    
N432-C72=1.3604      N432-C97=1.3800      N432-Zn599=1.9883    N433-C67=1.4407      N433-O569=1.2342     N433-O582=1.2342     
N434-C113=1.4459     N434-O538=1.2367     N434-O562=1.2370     N435-C148=1.4555     N435-O555=1.2376     N435-O556=1.2381     
N436-C240=1.4549     N436-O553=1.2375     N436-O554=1.2382     N437-C158=1.4545     N437-O551=1.2335     N437-O552=1.2353     
N438-C166=1.4525     N438-O549=1.2301     N438-O550=1.2350     N439-C201=1.4540     N439-O547=1.2354     N439-O548=1.2333     
N440-C238=1.4537     N440-O545=1.2331     N440-O546=1.2353     N441-C88=1.4420      N441-O534=1.2343     N441-O590=1.2348     
N442-C75=1.4455      N442-O542=1.2339     N442-O586=1.2345     N443-C73=1.4435      N443-O537=1.2338     N443-O588=1.2344     
N444-C72=1.4407      N444-O558=1.2347     N444-O589=1.2346     N445-C71=1.4442      N445-O541=1.2344     N445-O579=1.2337     
N446-C70=1.4408      N446-O532=1.2349     N446-O574=1.2348     N447-C69=1.4419      N447-O573=1.2341     N447-O578=1.2344     
N448-C68=1.4428      N448-O571=1.2339     N448-O580=1.2340     N449-C38=1.3940      N449-Zn593=1.9670    N450-C66=1.4439      
N450-O539=1.2339     N450-O567=1.2343     N451-C65=1.4460      N451-O557=1.2355     N451-O565=1.2343     N452-C64=1.4432      
N452-O563=1.2339     N452-O576=1.2341     N453-C63=1.4455      N454-C62=1.4458      N455-C74=1.4459      N455-O561=1.2371     
N455-O591=1.2372     N456-C89=1.4454      N457-C90=1.4458      N458-C91=1.4452      N458-O583=1.2371     N458-O584=1.2366     
N459-C118=1.4456     N460-C117=1.4448     N461-C116=1.4451     N461-O533=1.2369     N461-O568=1.2367     N462-C115=1.4459     
N463-C114=1.4403     N464-C79=1.3451      N464-Zn599=1.9939    N465-C87=1.3572      N465-Zn592=2.0121    N466-C29=1.3797      
N466-C118=1.3612     N466-Zn598=1.9724    N467-C33=1.3808      N467-C74=1.3623      N467-Zn592=1.9922    N468-C82=1.3556      
N468-C144=1.3980     N468-Zn607=2.0010    N469-C70=1.3604      N469-C143=1.3776     N469-Zn607=2.0032    N470-C91=1.3614      
N470-C142=1.3805     N470-Zn607=1.9806    N471-C101=1.3450     N471-C139=1.4036     N471-Zn607=1.9845    N472-C81=1.3560      
N472-Zn608=2.0039    N473-C69=1.3604      N473-C136=1.3809     N473-Zn608=1.9986    N474-C118=1.3618     N474-C134=1.3810     
N474-Zn608=1.9830    N475-C131=1.4021     N475-Zn608=1.9650    N476-C80=1.3561      N476-Zn609=1.9999    N477-C68=1.3604      
N477-C127=1.3812     N477-Zn609=1.9945    N478-C117=1.3613     N478-C126=1.3806     N478-Zn609=1.9807    N479-C123=1.3940     
N479-Zn609=1.9682    N480-C79=1.3563      N480-Zn610=2.0009    N481-C67=1.3600      N481-C152=1.3775     N481-Zn610=2.0029    
N482-C116=1.3616     N482-C179=1.3807     N482-Zn610=1.9845    N483-C176=1.3949     N483-Zn610=1.9888    N484-C78=1.3462      
N484-C173=1.4017     N484-Zn611=1.9872    N485-C66=1.3588      N485-C172=1.3795     N485-Zn611=1.9702    N486-C115=1.3620     
N486-C171=1.3807     N486-Zn611=1.9699    N487-C103=1.3500     N487-C168=1.4018     N487-Zn611=1.9616    N488-C77=1.3464      
N488-C165=1.3967     N488-Zn612=2.0462    N489-C65=1.3617      N489-C164=1.3833     N489-Zn612=2.0545    N490-C114=1.3624     
N490-C163=1.3797     N490-Zn612=1.9894    N491-C160=1.3949     N491-Zn612=2.0091    N492-C76=1.3489      N492-C157=1.4001     
N492-Zn613=2.0122    N493-C64=1.3599      N493-C156=1.3804     N493-Zn613=1.9960    N494-C113=1.3624     N494-C155=1.3804     
N494-Zn613=1.9910    N495-C1=1.3952       N495-C101=1.3546     N495-Zn613=1.9912    N496-C34=1.3822      N496-C64=1.3613      
N496-Zn592=2.0046    N497-C147=1.4000     N497-Zn615=1.9548    N498-C90=1.3606      N498-C181=1.3804     N498-Zn615=1.9677    
N499-C50=1.3810      N499-C66=1.3604      N499-Zn594=1.9832    N500-C83=1.3525      N500-C183=1.4017     N500-Zn615=1.9938    
N501-C120=1.3943     N501-Zn592=1.9815    N502-C71=1.3605      N502-C209=1.3822     N502-Zn615=1.9859    N503-C82=1.3455      
N503-C208=1.4052     N503-Zn601=1.9953    N504-C69=1.3592      N504-C207=1.3798     N504-Zn601=1.9867    N505-C90=1.3612      
N505-C206=1.3807     N505-Zn601=1.9727    N506-C109=1.3532     N506-C203=1.3944     N506-Zn601=1.9636    N507-C83=1.3478      
N507-C200=1.3996     N507-Zn614=2.0011    N508-C68=1.3596      N508-C199=1.3799     N508-Zn614=1.9862    N509-C89=1.3621      
N509-C198=1.3801     N509-Zn614=1.9888    N510-C84=1.3462      N510-C192=1.4051     N510-Zn603=2.0001    N511-C67=1.3609      
N511-C191=1.3805     N511-Zn603=1.9971    N512-C91=1.3611      N512-C190=1.3803     N512-Zn603=1.9821    N513-C107=1.3545     
N513-C187=1.3955     N513-Zn603=1.9882    N514-C87=1.3460      N514-C184=1.4020     N514-Zn602=1.9867    N515-C108=1.3538     
N515-C195=1.3946     N515-Zn614=1.9825    N516-C63=1.3611      N516-C196=1.3799     N516-Zn602=1.9755    N517-C102=1.3443     
N517-C216=1.4049     N517-Zn606=1.9942    N518-C88=1.3598      N518-C212=1.3794     N518-Zn602=1.9733    N519-C72=1.3602      
N519-C220=1.3776     N519-Zn606=2.0025    N520-C84=1.3562      N520-C221=1.3980     N520-Zn606=2.0045    N521-C104=1.3448     
N521-C224=1.4039     N521-Zn605=1.9808    N522-C74=1.3620      N522-C227=1.3801     N522-Zn605=1.9830    N523-C73=1.3596      
N523-C229=1.3801     N523-Zn605=1.9909    N524-C89=1.3619      N524-C219=1.3806     N524-Zn606=1.9903    N525-C236=1.3989     
N525-Zn604=1.9509    N526-C213=1.4061     N526-Zn602=1.9707    N527-C62=1.3603      N527-C233=1.3801     N527-Zn604=1.9595    
N528-C75=1.3588      N528-C232=1.3794     N528-Zn604=1.9667    N529-C86=1.3464      N529-C235=1.4030     N529-Zn604=1.9824    
N530-C85=1.3479      N530-C239=1.4008     N530-Zn605=2.0073    O532-N446=1.2349     O533-N461=1.2369     O534-N441=1.2343     
O537-N443=1.2338     O538-N434=1.2367     O539-N450=1.2339     O541-N445=1.2344     O542-N442=1.2339     O544-H368=1.1242     
O544-H404=1.0997     O544-Zn612=2.3088    O545-N440=1.2331     O546-N440=1.2353     O547-N439=1.2354     O548-N439=1.2333     
O549-N438=1.2301     O550-N438=1.2350     O551-N437=1.2335     O552-N437=1.2353     O553-N436=1.2375     O554-N436=1.2382     
O555-N435=1.2376     O556-N435=1.2381     O557-N451=1.2355     O558-N444=1.2347     O561-N455=1.2371     O562-N434=1.2370     
O563-N452=1.2339     O565-N451=1.2343     O567-N450=1.2343     O568-N461=1.2367     O569-N433=1.2342     O571-N448=1.2339     
O573-N447=1.2341     O574-N446=1.2348     O576-N452=1.2341     O578-N447=1.2344     O579-N445=1.2337     O580-N448=1.2340     
O582-N433=1.2342     O583-N458=1.2371     O584-N458=1.2366     O586-N442=1.2345     O588-N443=1.2344     O589-N444=1.2346     
O590-N441=1.2348     O591-N455=1.2372     Zn592-N465=2.0121    Zn592-N467=1.9922    Zn592-N496=2.0046    Zn592-N501=1.9815    
Zn593-N427=1.9970    Zn593-N428=1.9933    Zn593-N429=1.9859    Zn593-N449=1.9670    Zn594-N424=1.9893    Zn594-N425=1.9702    
Zn594-N426=1.9639    Zn594-N499=1.9832    Zn595-N405=1.9967    Zn595-N406=2.0025    Zn595-N413=1.9882    Zn595-N416=1.9888    
Zn596-N418=1.9934    Zn596-N419=1.9724    Zn596-N420=1.9590    Zn596-N431=1.9959    Zn597-N407=1.9824    Zn597-N408=1.9779    
Zn597-N410=1.9971    Zn597-N415=1.9948    Zn598-N409=1.9571    Zn598-N411=1.9718    Zn598-N412=1.9860    Zn598-N466=1.9724    
Zn599-N414=1.9710    Zn599-N430=1.9750    Zn599-N432=1.9883    Zn599-N464=1.9939    Zn600-N417=1.9790    Zn600-N421=2.0115    
Zn600-N422=2.0033    Zn600-N423=1.9904    Zn601-N503=1.9953    Zn601-N504=1.9867    Zn601-N505=1.9727    Zn601-N506=1.9636    
Zn602-N514=1.9867    Zn602-N516=1.9755    Zn602-N518=1.9733    Zn602-N526=1.9707    Zn603-N510=2.0001    Zn603-N511=1.9971    
Zn603-N512=1.9821    Zn603-N513=1.9882    Zn604-N525=1.9509    Zn604-N527=1.9595    Zn604-N528=1.9667    Zn604-N529=1.9824    
Zn605-N521=1.9808    Zn605-N522=1.9830    Zn605-N523=1.9909    Zn605-N530=2.0073    Zn606-N517=1.9942    Zn606-N519=2.0025    
Zn606-N520=2.0045    Zn606-N524=1.9903    Zn607-N468=2.0010    Zn607-N469=2.0032    Zn607-N470=1.9806    Zn607-N471=1.9845    
Zn608-N472=2.0039    Zn608-N473=1.9986    Zn608-N474=1.9830    Zn608-N475=1.9650    Zn609-N476=1.9999    Zn609-N477=1.9945    
Zn609-N478=1.9807    Zn609-N479=1.9682    Zn610-N480=2.0009    Zn610-N481=2.0029    Zn610-N482=1.9845    Zn610-N483=1.9888    
Zn611-N484=1.9872    Zn611-N485=1.9702    Zn611-N486=1.9699    Zn611-N487=1.9616    Zn612-H368=1.8232    Zn612-N488=2.0462    
Zn612-N489=2.0545    Zn612-N490=1.9894    Zn612-N491=2.0091    Zn612-O544=2.3088    Zn613-N492=2.0122    Zn613-N493=1.9960    
Zn613-N494=1.9910    Zn613-N495=1.9912    Zn614-N507=2.0011    Zn614-N508=1.9862    Zn614-N509=1.9888    Zn614-N515=1.9825    
Zn615-N497=1.9548    Zn615-N498=1.9677    Zn615-N500=1.9938    Zn615-N502=1.9859    
 C  H  Rav=1.0764 sigma=0.0021  Rmin=1.0724  Rmax=1.0797   127
 C  C  Rav=1.3862 sigma=0.0140  Rmin=1.3707  Rmax=1.4227   140
 N  C  Rav=1.3844 sigma=0.0311  Rmin=1.3443  Rmax=1.4555   200
 O  H  Rav=1.1120 sigma=0.0122  Rmin=1.0997  Rmax=1.1242     2
 O  N  Rav=1.2350 sigma=0.0016  Rmin=1.2301  Rmax=1.2382    44
 Cl C  Rav=1.7108 sigma=0.0013  Rmin=1.7087  Rmax=1.7140    18
 Zn H  Rav=1.8232 sigma=0.0000  Rmin=1.8232  Rmax=1.8232     1
 Zn N  Rav=1.9872 sigma=0.0167  Rmin=1.9509  Rmax=2.0545    96
 Zn O  Rav=2.3088 sigma=0.0000  Rmin=2.3088  Rmax=2.3088     1

 selected bond angles (degree)
 --------------------
C154-C1-C139=120.34            N495-C1-C139=106.43            N495-C1-C154=133.19            N420-C2-C4=133.10              
Cl242-C3-C4=119.23             C3-C4-C2=117.98                H264-C4-C2=121.00              H264-C4-C3=121.00              
H265-C5-C171=127.67            N419-C5-C171=107.46            N419-C5-H265=124.02            N418-C6-C232=107.67            
C165-C7-C9=120.40              N431-C7-C9=133.59              N431-C7-C165=106.00            C166-C8-C9=120.80              
H267-C8-C9=121.34              H267-C8-C166=117.67            C8-C9-C7=118.16                H268-C9-C7=119.59              
H268-C9-C8=122.10              N416-C10-C12=133.09            

 selected dihedral angles (degree)
 ---------------------------------
C3-C4-C2-N420=178.90          H264-C4-C2-N420=356.84        C2-C4-C3-Cl242=176.53         H264-C4-C3-Cl242=358.59       
C8-C9-C7-C165=  0.82          C8-C9-C7-N431=178.83          H268-C9-C7-C165=176.40        H268-C9-C7-N431=354.41        
C7-C9-C8-C166=359.46          C7-C9-C8-H267=174.34          H268-C9-C8-C166=184.00        H268-C9-C8-H267=358.88        

 CMA Distance (Angstroems)
 ---------------------------
R(CMA):  0.1355
           -------------------------------------------------
          |                Final Singlepoint                |
           -------------------------------------------------
         :::::::::::::::::::::::::::::::::::::::::::::::::::::
         ::                     SUMMARY                     ::
         :::::::::::::::::::::::::::::::::::::::::::::::::::::
         :: total energy            -130.841633761399 Eh    ::
         :: gradient norm              0.043738723464 Eh/a0 ::
         ::.................................................::
         :: bond energy             -136.054286706562 Eh    ::
         :: angle energy               1.157367618432 Eh    ::
         :: torsion energy             0.047083951199 Eh    ::
         :: repulsion energy           8.648416859984 Eh    ::
         :: electrostat energy        -3.192151586980 Eh    ::
         :: dispersion energy         -1.273763198470 Eh    ::
         :: HB energy                 -0.200372680007 Eh    ::
         :: XB energy                 -0.004656169642 Eh    ::
         :: bonded atm energy          0.030728150645 Eh    ::
         :: external energy            0.000000000000 Eh    ::
         :: add. restraining           0.000000000000 Eh    ::
         :: total charge              -0.000000000000 e     ::
         :::::::::::::::::::::::::::::::::::::::::::::::::::::

           -------------------------------------------------
          |                Property Printout                |
           -------------------------------------------------
 Periodic properties
           -------------------------------------------------
          |                Geometry Summary                 |
           -------------------------------------------------

 * 615 atoms in unit cell

     #   Z                                     position/Å        charge
     1   6 C        4.3759907     6.6078902     9.2544270     4.0000000
     2   6 C       21.4862213     6.5535820     9.2709214     4.0000000
     3   6 C       22.5782344     4.4457726     9.1848504     4.0000000
     4   6 C       21.5165154     5.2551270     8.7988824     4.0000000
     5   6 C       16.3973640     8.8313549     8.1509820     4.0000000
     6   6 C       21.0250245     8.0545637     5.6103912     4.0000000
     7   6 C       18.2589300     5.4312140     9.8906817     4.0000000
     8   6 C       18.7470494     4.9599008    12.1627094     4.0000000
     9   6 C       18.8261388     5.8240117    11.0965397     4.0000000
    10   6 C        7.9710176     0.7367265     9.2271820     4.0000000
    11   6 C        5.6013997     0.8959376     9.0715085     4.0000000
    12   6 C        6.8563568     1.3795627     8.7214220     4.0000000
    13   6 C       12.5786593     3.9953790     8.1063498     4.0000000
    14   6 C       11.7553890    13.5002467    11.0250204     4.0000000
    15   6 C        8.5207235     4.0728995     9.7632462     4.0000000
    16   6 C        8.6318679     3.4022356    10.9781386     4.0000000
    17   6 C        3.4943728     7.2146316    18.8569052     4.0000000
    18   6 C        2.2411829     5.1958486    18.8798531     4.0000000
    19   6 C        2.3632531     6.5193765    18.4752433     4.0000000
    20   6 C        2.6748842    12.7590295    17.8088239     4.0000000
    21   6 C        4.2639946     8.5028237    15.1513080     4.0000000
    22   6 C        0.8380620     9.3021561     0.1597125     4.0000000
    23   6 C        0.9290065     8.7351543     2.4690520     4.0000000
    24   6 C        1.5906298     9.0094305     1.2806863     4.0000000
    25   6 C       -8.5470241    15.9921088    18.7962900     4.0000000
    26   6 C       -9.6746521    18.0824583    18.8087104     4.0000000
    27   6 C       -8.6056528    17.3076795    18.3792428     4.0000000
    28   6 C        7.9582349     3.9051460    12.0677548     4.0000000
    29   6 C       -3.3917131    13.8845528    17.7680204     4.0000000
    30   6 C       12.5556522    13.7431635    12.1134615     4.0000000
    31   6 C        8.5916887    14.1361351     5.6161039     4.0000000
    32   6 C        4.3914311     5.2533570     0.6575336     4.0000000
    33   6 C        9.6265770     8.7347013     1.5677862     4.0000000
    34   6 C        5.0860589     8.0532692     4.0894823     4.0000000
    35   6 C        7.7719735     5.1709139    19.3199563     4.0000000
    36   6 C        7.4435266     4.7884221    16.9985655     4.0000000
    37   6 C        7.2437903     5.5856256    18.0978771     4.0000000
    38   6 C       18.2309817     0.5876207     0.2731321     4.0000000
    39   6 C       20.6021531     0.4683266     0.1671702     4.0000000
    40   6 C       19.4757194     1.0925325     0.6430366     4.0000000
    41   6 C       13.8298618     4.0060697     1.4948925     4.0000000
    42   6 C       16.4493904     0.3282413     4.0406859     4.0000000
    43   6 C       17.7774529     4.1682670    19.3199317     4.0000000
    44   6 C       12.3662009    13.2806276     9.7911012     4.0000000
    45   6 C       18.2641087     4.0769038    16.9995460     4.0000000
    46   6 C       16.4377538    15.3791302     0.3011677     4.0000000
    47   6 C       15.2835876    17.4546279     0.2428063     4.0000000
    48   6 C       15.3489435    16.1579975     0.6905509     4.0000000
    49   6 C       15.7818680     9.8803148     1.5452757     4.0000000
    50   6 C       17.4988642    14.1445375     4.1097009     4.0000000
    51   6 C       13.6898641    13.2005610    19.3434517     4.0000000
    52   6 C       13.5771562    13.7568635    17.0359806     4.0000000
    53   6 C       14.3398459    13.4422833    18.1365167     4.0000000
    54   6 C        9.5656603    15.3302287     9.3224753     4.0000000
    55   6 C       10.8470895    17.3295308     9.2720886     4.0000000
    56   6 C       10.6978035    16.0001547     8.9007454     4.0000000
    57   6 C       10.2382948     9.8038032     8.1344096     4.0000000
    58   6 C       17.6873369     3.4989360    18.1017675     4.0000000
    59   6 C       -7.9574530    14.5255096    15.2000419     4.0000000
    60   6 C       -5.4291527    17.2227223    19.3868364     4.0000000
    61   6 C       -5.8742752    17.3268550     2.3342263     4.0000000
    62   6 C       17.9526368    10.3692918     1.6951014     4.0000000
    63   6 C       13.1426442     1.8920365     1.6490096     4.0000000
    64   6 C        7.1067750     7.4307098     4.7710229     4.0000000
    65   6 C       15.8501921     2.3606633     4.7156838     4.0000000
    66   6 C       15.9462085    12.7046360     4.7827580     4.0000000
    67   6 C        5.7699720    15.1718692    14.6029965     4.0000000
    68   6 C       -3.0746471    20.1140038    14.6276220     4.0000000
    69   6 C       -2.8272330     9.8475587    14.6232905     4.0000000
    70   6 C        2.8131137    10.0518694    14.4964086     4.0000000
    71   6 C       -5.9145303    15.0582277    14.4978234     4.0000000
    72   6 C        2.8786483    20.0043470    14.4834633     4.0000000
    73   6 C       10.1231461    12.6719606     4.9462882     4.0000000
    74   6 C        8.1258297    10.3745405     1.7158447     4.0000000
    75   6 C       18.9768061     7.5240199     4.9238346     4.0000000
    76   6 C        8.6847204     4.8843158     7.6897995     4.0000000
    77   6 C       17.4013535     5.2309039     7.8396589     4.0000000
    78   6 C       12.9394491    12.7377686     7.7060059     4.0000000
    79   6 C        4.4043298    17.6370553    17.5451148     4.0000000
    80   6 C       -4.5256202    17.6563618    17.3972521     4.0000000
    81   6 C        0.0257367     9.9347037    17.5503495     4.0000000
    82   6 C        0.0666527     9.8984474    11.5436789     4.0000000
    83   6 C       -4.5362078    17.5000939    11.7259045     4.0000000
    84   6 C        4.3581608    17.6533085    11.5470588     4.0000000
    85   6 C       13.0793422    12.6585464     2.0382663     4.0000000
    86   6 C       17.6040909     4.9497674     2.0217931     4.0000000
    87   6 C        8.5967300     4.9513529     2.0135209     4.0000000
    88   6 C       10.2239725     2.5362968     4.8974726     4.0000000
    89   6 C       -0.1305762    20.6786505    11.3836690     4.0000000
    90   6 C       -4.8316416    12.1072088    11.4055452     4.0000000
    91   6 C        4.8593707    12.3114765    11.3669909     4.0000000
    92   6 C       -6.0021283    16.6664019     1.1240000     4.0000000
    93   6 C        5.1197827    21.9183994    18.7830659     4.0000000
    94   6 C        7.4923267    21.7837839    18.7283911     4.0000000
    95   6 C        6.2597795    21.2795917    18.3344020     4.0000000
    96   6 C        0.6400562    18.5545753    17.8333038     4.0000000
    97   6 C        3.5715723    22.0167486    15.1203315     4.0000000
    98   6 C        4.5791851    18.6510917     0.1455734     4.0000000
    99   6 C        5.0215034    19.0332740     2.4522351     4.0000000
   100   6 C        4.4555614    19.4593944     1.2594531     4.0000000
   101   6 C        5.0269082     8.7194968     9.5732896     4.0000000
   102   6 C        3.0346601    22.5795761     9.5959204     4.0000000
   103   6 C       17.9760541    13.7722520     9.6052838     4.0000000
   104   6 C        7.9492388    13.9007527     0.1154515     4.0000000
   105   6 C       -2.9186972    22.4618548     0.1176399     4.0000000
   106   6 C       -4.8314142     8.8540926     0.1210070     4.0000000
   107   6 C        7.9477325    13.8689771     9.7914293     4.0000000
   108   6 C       -2.9895509    22.4689204     9.8054744     4.0000000
   109   6 C       -4.9212785     8.7552482     9.7962677     4.0000000
   110   6 C        5.0694784     8.7244652    19.3214140     4.0000000
   111   6 C       16.0461958     0.1204218    19.3148543     4.0000000
   112   6 C       17.9587318    13.8099321    19.3112391     4.0000000
   113   6 C        8.0688287    10.2891480     7.9919061     4.0000000
   114   6 C       13.2592431     1.8884675     7.9741134     4.0000000
   115   6 C       17.8931315    10.4773229     8.0090389     4.0000000
   116   6 C        4.8541957    12.3000914    17.7344497     4.0000000
   117   6 C       -0.0446902    20.6737138    17.7473120     4.0000000
   118   6 C       -4.8591369    12.2070836    17.7100708     4.0000000
   119   6 C        3.2777126     4.5634369     0.2467298     4.0000000
   120   6 C        4.5088225     6.5950661     0.2942846     4.0000000
   121   6 C        9.5002692     0.5657273     5.6114680     4.0000000
   122   6 C       -0.8807107     8.7173700     7.2571010     4.0000000
   123   6 C       -5.0854846    21.9309967    19.1358719     4.0000000
   124   6 C       -7.4597886    21.9915668    19.1915453     4.0000000
   125   6 C       -6.3095613    21.3859555    18.7492945     4.0000000
   126   6 C       -0.7311942    18.5579947    17.8724504     4.0000000
   127   6 C       -3.5059380    22.1879522    15.2952283     4.0000000
   128   6 C       -4.6876369    18.4459818     0.0966722     4.0000000
   129   6 C       -5.1636093    18.5343733     2.4217387     4.0000000
   130   6 C       -4.5773258    19.1046250     1.3200801     4.0000000
   131   6 C       -3.3902011     7.2049687    19.1364460     4.0000000
   132   6 C       -2.3966621     5.0485052    19.1635416     4.0000000
   133   6 C       -2.3692727     6.3543582    18.7283394     4.0000000
   134   6 C       -2.6897360    12.7064907    17.8088336     4.0000000
   135   6 C        5.8650183    17.0125726     1.4244333     4.0000000
   136   6 C       -4.3965729     8.4404865    15.3156628     4.0000000
   137   6 C       -0.4748436     8.7410506     2.5348781     4.0000000
   138   6 C       -1.2344060     9.0113291     1.4220772     4.0000000
   139   6 C        3.4289277     7.2545288    10.0953997     4.0000000
   140   6 C        2.1711745     5.2425553    10.2084060     4.0000000
   141   6 C        2.3166994     6.5785067    10.5584325     4.0000000
   142   6 C        2.6848550    12.7828557    11.2533199     4.0000000
   143   6 C        4.2265286     8.5037145    13.7794703     4.0000000
   144   6 C        0.6684622     9.3028150     9.4757048     4.0000000
   145   6 C        0.5202540     8.7583988     7.1598521     4.0000000
   146   6 C        1.2987239     9.0386603     8.2572651     4.0000000
   147   6 C       -8.3776273    15.9754989    10.1531564     4.0000000
   148   6 C       -9.3514724    18.1365396    10.2182121     4.0000000
   149   6 C       -0.5833308     9.3028049     0.2206945     4.0000000
   150   6 C        5.7153299    17.8142849     2.5303794     4.0000000
   151   6 C        5.2910209    17.4217230     0.2186476     4.0000000
   152   6 C        7.8085190    14.6919349    15.3253974     4.0000000
   153   6 C        3.1364060     4.5879415     9.4274249     4.0000000
   154   6 C        4.2318750     5.2567509     8.9394519     4.0000000
   155   6 C        9.5441649     8.6220404     8.0791936     4.0000000
   156   6 C        5.0830997     8.0357971     5.4617669     4.0000000
   157   6 C        7.7297426     5.2461921     9.6637659     4.0000000
   158   6 C        7.1643398     5.0504829    11.9561056     4.0000000
   159   6 C        7.0497188     5.7293791    10.7641400     4.0000000
   160   6 C       18.2006684     0.5934197     9.3377052     4.0000000
   161   6 C       20.5674072     0.4636811     9.5269071     4.0000000
   162   6 C       19.4613772     1.1109045     9.0360027     4.0000000
   163   6 C       13.9466268     4.0020436     8.0197063     4.0000000
   164   6 C       16.3213015     0.3005217     5.4076717     4.0000000
   165   6 C       17.6039531     4.1791878     9.7804213     4.0000000
   166   6 C       18.1024321     3.7245664    12.0373572     4.0000000
   167   6 C       -1.5210272     8.9576513     8.4638597     4.0000000
   168   6 C       16.5589356    15.4694677     9.2559425     4.0000000
   169   6 C       15.5608083    17.6196303     9.3854003     4.0000000
   170   6 C       15.5340656    16.3353523     8.8901583     4.0000000
   171   6 C       15.7113494    10.0171575     8.0801824     4.0000000
   172   6 C       17.4754406    14.1624476     5.4818125     4.0000000
   173   6 C       13.7837364    13.3293686     9.6797201     4.0000000
   174   6 C       13.9548891    13.7865131    12.0037185     4.0000000
   175   6 C       14.5747871    13.5867897    10.7822983     4.0000000
   176   6 C        8.5413897    16.0164706    19.1126494     4.0000000
   177   6 C        9.8002359    18.0316218    19.1517245     4.0000000
   178   6 C        8.6887262    17.3479897    18.7235979     4.0000000
   179   6 C        3.3589977    13.9469724    17.8554071     4.0000000
   180   6 C       -8.3535225    17.2752893    10.6232089     4.0000000
   181   6 C       -3.3462748    13.7663594    11.2860407     4.0000000
   182   6 C       17.5256441     3.3253127    10.8558300     4.0000000
   183   6 C       -5.2716947    17.2131791     9.6351749     4.0000000
   184   6 C        8.5142658     3.9426318     0.0305792     4.0000000
   185   6 C        8.1443752     3.5750418    17.0876768     4.0000000
   186   6 C        8.6662832     3.1451481    18.2958906     4.0000000
   187   6 C        8.6013078    15.9748987    10.1453260     4.0000000
   188   6 C        9.8634617    17.9852197    10.0291709     4.0000000
   189   6 C        8.7483100    17.3213983    10.4787442     4.0000000
   190   6 C        3.3722630    13.9688221    11.3003312     4.0000000
   191   6 C        7.8317980    14.6612949    13.9535607     4.0000000
   192   6 C        5.3455544    17.2890998     9.5819808     4.0000000
   193   6 C        5.9092582    17.4705119     7.2769309     4.0000000
   194   6 C        6.0034513    16.7823033     8.4776258     4.0000000
   195   6 C       -5.1659139    22.0802259    10.1183547     4.0000000
   196   6 C       12.4594151     4.0122293     1.5559988     4.0000000
   197   6 C       -7.5308697    22.2172636     9.9041579     4.0000000
   198   6 C       -0.8580203    18.5738184    11.3515661     4.0000000
   199   6 C       -3.5242944    22.1746257    13.9229345     4.0000000
   200   6 C       -4.6608982    18.4886947     9.7396991     4.0000000
   201   6 C       -5.0750584    18.8674459     7.4404101     4.0000000
   202   6 C       -4.5715988    19.3162114     8.6394019     4.0000000
   203   6 C       -3.4501960     7.1095283    10.1502571     4.0000000
   204   6 C       -2.3364044     5.0179789     9.9986824     4.0000000
   205   6 C       -2.3704181     6.2974040    10.4956520     4.0000000
   206   6 C       -2.6539584    12.5832755    11.3367091     4.0000000
   207   6 C       -4.3948320     8.4265857    13.9427839     4.0000000
   208   6 C       -0.7500988     9.2574545     9.5705574     4.0000000
   209   6 C       -7.9604567    14.5020422    13.8276143     4.0000000
   210   6 C       -6.4311897    21.5896776    10.4354174     4.0000000
   211   6 C        6.8193323     1.2273778     1.0318662     4.0000000
   212   6 C        9.5050191     0.5372569     4.2393594     4.0000000
   213   6 C        7.9831887     0.6083787     0.6187696     4.0000000
   214   6 C       -5.6558444    17.6013523     7.3209857     4.0000000
   215   6 C       -5.7684437    16.7702694     8.4121343     4.0000000
   216   6 C        5.0749429    21.8978806    10.1800983     4.0000000
   217   6 C        7.4435561    21.7469176    10.3072279     4.0000000
   218   6 C        6.1953374    21.2389688    10.6471553     4.0000000
   219   6 C        0.5126271    18.5475813    11.2996644     4.0000000
   220   6 C        3.5685265    21.9769891    13.7483432     4.0000000
   221   6 C        4.6004264    18.4974375     9.4919097     4.0000000
   222   6 C        5.1765823    18.6663953     7.1846390     4.0000000
   223   6 C        4.5316526    19.1897088     8.2801364     4.0000000
   224   6 C        9.5312880    15.4014837     0.5819666     4.0000000
   225   6 C        5.6079773     0.6946142     0.6099479     4.0000000
   226   6 C       10.6588957    16.0902317     0.9841850     4.0000000
   227   6 C       10.3070752     9.9242512     1.6266952     4.0000000
   228   6 C       10.8033703    17.4065475     0.5665551     4.0000000
   229   6 C        8.6121327    14.1427133     4.2438073     4.0000000
   230   6 C       19.0509102     5.9741132    18.2874803     4.0000000
   231   6 C       18.9443069     5.3019635    17.0812882     4.0000000
   232   6 C       21.0338255     8.0322932     4.2383366     4.0000000
   233   6 C       16.4756484     8.6984879     1.6060729     4.0000000
   234   6 C       21.5490314     5.3332501     1.0551459     4.0000000
   235   6 C       18.4892151     5.4080414     0.0263340     4.0000000
   236   6 C       21.5745567     6.6532060     0.6463179     4.0000000
   237   6 C       11.5264096    13.5962654    18.3135457     4.0000000
   238   6 C       12.1856307    13.8516431    17.1325265     4.0000000
   239   6 C       12.3007261    13.2567042     0.0453723     4.0000000
   240   6 C       22.5410390     4.4894659     0.6049878     4.0000000
   241  17 Cl       4.8523691    20.0247046     3.8370571     7.0000000
   242  17 Cl      22.6016283     2.8081037     8.6930548     7.0000000
   243  17 Cl       8.9207017    20.9880944    18.2301058     7.0000000
   244  17 Cl      -9.7194782    19.7408341    18.3935360     7.0000000
   245  17 Cl       1.8646130     8.3925393     3.8621985     7.0000000
   246  17 Cl       0.7939281     4.3527806    18.5350092     7.0000000
   247  17 Cl       4.2035978     1.7148656     8.5200251     7.0000000
   248  17 Cl      12.2864936    18.1529215     8.8535677     7.0000000
   249  17 Cl      -6.5971879    16.6309657     3.7198804     7.0000000
   250  17 Cl       6.6966166    16.8192896     5.9007678     7.0000000
   251  17 Cl       8.3775358     2.5898657    15.7077074     7.0000000
   252  17 Cl       4.1563509     1.4972811     1.0272255     7.0000000
   253  17 Cl      19.6686939     5.9947807    15.6953751     7.0000000
   254  17 Cl      12.2155484    18.2649389     1.0032295     7.0000000
   255  17 Cl       8.8452399    20.9044616    10.8025564     7.0000000
   256  17 Cl       0.7660357     4.4016771    10.7005454     7.0000000
   257  17 Cl      14.9398119    14.0686054    13.3758294     7.0000000
   258  17 Cl      -1.8399472     8.3874850     5.8781595     7.0000000
   259   1 H       11.4659049    15.4899472     8.3504471     1.0000000
   260   1 H       11.3057204     9.9443848     8.0602896     1.0000000
   261   1 H        7.9507732    14.7189807     6.2570542     1.0000000
   262   1 H       12.1176520    13.8846986    13.0841806     1.0000000
   263   1 H       10.6835429    13.4733269    11.1005112     1.0000000
   264   1 H       20.7261937     4.8729890     8.1800819     1.0000000
   265   1 H       15.9972330     7.8326096     8.0734595     1.0000000
   266   1 H        6.9575004     2.2526624     8.1046180     1.0000000
   267   1 H       19.2452870     5.1715774    13.0928042     1.0000000
   268   1 H       19.3686198     6.7474867    11.1505681     1.0000000
   269   1 H       15.4127093    13.4034363    18.0900521     1.0000000
   270   1 H       11.9102647     4.8375509     8.0612944     1.0000000
   271   1 H       -3.8859162    22.2649919     6.2846496     1.0000000
   272   1 H        8.0315368     3.4263991    13.0309258     1.0000000
   273   1 H       -4.0896142     8.3678813     6.2533564     1.0000000
   274   1 H       14.0385968    13.9421457    16.0796292     1.0000000
   275   1 H       14.4381318    18.0737709     0.4895928     1.0000000
   276   1 H       14.7153065    10.0218699     1.6265174     1.0000000
   277   1 H       -2.5901590     8.8931290     8.5359073     1.0000000
   278   1 H        3.1704653     3.5171335     0.4799693     1.0000000
   279   1 H        5.1784695     4.7825962     1.2178636     1.0000000
   280   1 H       10.0349625     7.7385701     1.6401446     1.0000000
   281   1 H        4.2702080     8.3323125     3.4432279     1.0000000
   282   1 H        7.0794241     5.0938869    16.0348571     1.0000000
   283   1 H        6.7003758     6.5108875    18.0395632     1.0000000
   284   1 H       21.5771555     0.8651632     0.4012774     1.0000000
   285   1 H       19.5416013     1.9667040     1.2661740     1.0000000
   286   1 H       14.4954499     4.8494938     1.5951410     1.0000000
   287   1 H        3.8174317    21.9871062     3.4046976     1.0000000
   288   1 H       18.1855743     3.6024193    16.0394571     1.0000000
   289   1 H       17.1772707     2.5544655    18.0502075     1.0000000
   290   1 H        9.2172368     2.5030952    11.0398439     1.0000000
   291   1 H       14.5757248    15.7260939     1.2991817     1.0000000
   292   1 H       -7.8027180    14.7998805     3.4592759     1.0000000
   293   1 H        1.5730833     7.0085414    17.9372604     1.0000000
   294   1 H       -7.8135016    17.7352309    17.7941371     1.0000000
   295   1 H        4.8747735     7.8877717    15.7927254     1.0000000
   296   1 H       18.5039599    12.8814328    19.3606030     1.0000000
   297   1 H        9.1153994     5.1026448     6.7270708     1.0000000
   298   1 H       17.0157323     5.4812680     6.8642784     1.0000000
   299   1 H       12.8883072    12.2452710     6.7498050     1.0000000
   300   1 H        3.9977165    17.3507590    16.5893965     1.0000000
   301   1 H       -4.0748109    17.4549213    16.4405924     1.0000000
   302   1 H       14.9702488     0.1608045    19.3770125     1.0000000
   303   1 H       -0.0115931    10.4237941    16.5914044     1.0000000
   304   1 H       -4.1519512    17.2433167    12.6985113     1.0000000
   305   1 H        3.9055993    17.4402718    12.5018143     1.0000000
   306   1 H       13.1091339    12.1862211     3.0054702     1.0000000
   307   1 H       17.1597484     5.1339593     2.9858516     1.0000000
   308   1 H        8.9990533     5.2475989     2.9674212     1.0000000
   309   1 H       20.8763308     7.8214863    13.2878736     1.0000000
   310   1 H        0.1099397    10.3838054    12.5048864     1.0000000
   311   1 H        5.6199803     9.6516863    19.3545973     1.0000000
   312   1 H       -5.4094675     9.7161179     9.8366827     1.0000000
   313   1 H       -1.9179092    22.3724318     9.8602434     1.0000000
   314   1 H        2.6623939     8.9742727     1.2305628     1.0000000
   315   1 H       -3.0027400    14.8820399    17.6302137     1.0000000
   316   1 H       17.1793346    14.1934842    15.8731897     1.0000000
   317   1 H       -6.5764871    15.7621514     1.0562928     1.0000000
   318   1 H        6.1924179    20.3886938    17.7392661     1.0000000
   319   1 H        1.2936096    17.7056190    17.7032609     1.0000000
   320   1 H       16.8479799     0.3948242    15.7509302     1.0000000
   321   1 H        3.9570937    20.4082879     1.2015275     1.0000000
   322   1 H        5.6081742     9.6263965     9.5327027     1.0000000
   323   1 H       14.9576954     0.1811596     9.5004891     1.0000000
   324   1 H       18.4436855    12.8018260     9.5552913     1.0000000
   325   1 H        7.3913365    12.9779635     0.0878425     1.0000000
   326   1 H       -1.8416521    22.4578024     0.0642187     1.0000000
   327   1 H       -5.3393722     9.8030032     0.0638159     1.0000000
   328   1 H        7.3638431    12.9628622     9.8142139     1.0000000
   329   1 H        1.6135658    12.6148174    17.6764385     1.0000000
   330   1 H       -1.5922827    12.4461679    11.4729824     1.0000000
   331   1 H       11.3688979    10.0721202     1.7495726     1.0000000
   332   1 H       -1.4963788     4.3773164    10.2082371     1.0000000
   333   1 H        8.6394334    14.5787979    16.0001001     1.0000000
   334   1 H        6.1143857    17.5126413     3.4849040     1.0000000
   335   1 H        6.4096400    16.0870102     1.4624982     1.0000000
   336   1 H       -8.4223629    21.5771358    18.9445259     1.0000000
   337   1 H       -6.3292604    20.4957955    18.1470540     1.0000000
   338   1 H       -1.3949227    17.7128561    17.7770696     1.0000000
   339   1 H        2.9534135    14.9425608    17.7650210     1.0000000
   340   1 H        9.3372610     0.5905574    15.9353930     1.0000000
   341   1 H       -4.0414728    20.0342908     1.3777689     1.0000000
   342   1 H       -1.6153825     4.3636569    18.8815857     1.0000000
   343   1 H       -1.5858372     6.7237025    18.0923475     1.0000000
   344   1 H       -1.6238338    12.5723829    17.7084708     1.0000000
   345   1 H       20.8965846     7.8038287    15.9739610     1.0000000
   346   1 H       -0.9445277     8.5435996     3.4846582     1.0000000
   347   1 H       -5.0647225    18.9961074     3.3865376     1.0000000
   348   1 H        7.9301682    17.8153880    18.1225884     1.0000000
   349   1 H        9.9333455    19.0688085    18.8940308     1.0000000
   350   1 H       15.6427657    13.6509444    10.7009278     1.0000000
   351   1 H       -1.5777484     6.6917426    11.1049121     1.0000000
   352   1 H        3.0119356     3.5363124     9.2329105     1.0000000
   353   1 H        4.9872314     4.7586417     8.3594809     1.0000000
   354   1 H        9.9438536     7.6273390     7.9571586     1.0000000
   355   1 H        4.2858638     8.3333259     6.1228637     1.0000000
   356   1 H        6.4147551     6.5909854    10.6870954     1.0000000
   357   1 H       21.5544204     0.8474028     9.3272903     1.0000000
   358   1 H       19.5486721     2.0082879     8.4503243     1.0000000
   359   1 H       14.5855391     4.8603437     7.9013997     1.0000000
   360   1 H        3.4640736    21.9007962     6.0679853     1.0000000
   361   1 H       17.0658474     2.3612150    10.7433672     1.0000000
   362   1 H       14.7724825    18.3122574     9.1417987     1.0000000
   363   1 H       14.7428556    15.9898200     8.2500360     1.0000000
   364   1 H       14.6501271    10.1576175     7.9396326     1.0000000
   365   1 H       -7.8233006    14.7896862     6.1463428     1.0000000
   366   1 H       -2.3085712     8.9964327     1.4502258     1.0000000
   367   1 H        1.5676721     7.0834050    11.1392208     1.0000000
   368   1 H       17.8277592     1.5391427     7.1204127     1.0000000
   369   1 H        4.7315502     7.8305601    13.1085553     1.0000000
   370   1 H       19.6052762     6.8912699    18.3512382     1.0000000
   371   1 H        6.8534820     2.1300814     1.6122326     1.0000000
   372   1 H       11.8081769     4.8630561     1.6875500     1.0000000
   373   1 H       -3.7776093    22.1698436     3.5977386     1.0000000
   374   1 H        9.1689027     2.1997474    18.3649208     1.0000000
   375   1 H        9.9919730    19.0336850    10.2374385     1.0000000
   376   1 H        7.9827082    17.8190683    11.0455235     1.0000000
   377   1 H        2.9670825    14.9600295    11.4332185     1.0000000
   378   1 H        8.6683665    14.4260056    13.3150814     1.0000000
   379   1 H        6.5887580    15.8850840     8.5466292     1.0000000
   380   1 H       -8.5178496    21.8239525    10.0926600     1.0000000
   381   1 H       -1.5296200    17.7422488    11.4978612     1.0000000
   382   1 H        9.3490284     0.5637808    13.2484226     1.0000000
   383   1 H       -4.1610136    20.3035944     8.7233920     1.0000000
   384   1 H        1.6196608    12.6363859    11.3433877     1.0000000
   385   1 H       -4.0985318     8.3700001     3.5724261     1.0000000
   386   1 H       16.0793633     7.7040636     1.7435890     1.0000000
   387   1 H       -6.5314852    20.7157130    11.0543550     1.0000000
   388   1 H       10.4611306    13.7055735    18.3805241     1.0000000
   389   1 H       20.7383644     4.9533710     1.6481504     1.0000000
   390   1 H        2.3718390     9.0576312     8.2025606     1.0000000
   391   1 H        0.9720710     8.5814434     6.1974263     1.0000000
   392   1 H       -2.9524335    14.7668309    11.3780351     1.0000000
   393   1 H       17.1531513    14.1866698    13.1870104     1.0000000
   394   1 H       -6.0158887    17.2929875     6.3527854     1.0000000
   395   1 H       -6.2436416    15.8085407     8.3451956     1.0000000
   396   1 H       -7.5498632    17.6244971    11.2442444     1.0000000
   397   1 H        1.1581582    17.6892943    11.4056943     1.0000000
   398   1 H       16.9248380     0.2827296    13.0639482     1.0000000
   399   1 H        5.1167700    19.1576889     6.2272327     1.0000000
   400   1 H        3.9825973    20.1123624     8.2292586     1.0000000
   401   1 H       11.4272393    15.6027550     1.5544948     1.0000000
   402   1 H        6.1011789    20.3333429    11.2171128     1.0000000
   403   1 H        7.9714828    14.6957420     3.5767766     1.0000000
   404   1 H       17.6112171     3.2020065     6.3869629     1.0000000
   405   7 N        9.9500772     1.8056206     6.0118409     5.0000000
   406   7 N        9.0879495     3.8760777     8.4970069     5.0000000
   407   7 N        3.9155556     8.5401068    18.6559414     5.0000000
   408   7 N        3.6107591    11.7468581    17.7430005     5.0000000
   409   7 N       -7.6114419    14.9649985    18.5910910     5.0000000
   410   7 N        1.1601707     9.6934568    18.2316199     5.0000000
   411   7 N       -6.6863670    14.8808390    15.6018423     5.0000000
   412   7 N       -5.2894870    16.7728842    18.0657451     5.0000000
   413   7 N       12.1616127     2.6836698     8.0782634     5.0000000
   414   7 N        3.7486296    21.6706909    18.6008848     5.0000000
   415   7 N        3.3724052     9.4616526    15.5876395     5.0000000
   416   7 N        9.3530335     0.9364970     9.0612253     5.0000000
   417   7 N        9.1039123    14.0199850     9.1218441     5.0000000
   418   7 N       19.7457527     7.7334844     6.0274384     5.0000000
   419   7 N       17.7443571     9.1290688     8.1082913     5.0000000
   420   7 N       20.6001432     7.6261045     9.0744411     5.0000000
   421   7 N       11.8795752    12.9216017     8.5323437     5.0000000
   422   7 N        9.5381945    13.2242782     6.0447854     5.0000000
   423   7 N        9.3155417    10.8295436     8.0848765     5.0000000
   424   7 N       14.1595416    12.8390479     1.2440007     5.0000000
   425   7 N       16.7057563    10.9057764     1.5979926     5.0000000
   426   7 N       16.8378455    14.0766749     0.5998126     5.0000000
   427   7 N       17.2754938     3.9153258     1.2090547     5.0000000
   428   7 N       16.1603794     1.6113415     3.6224497     5.0000000
   429   7 N       14.2421643     2.6890681     1.5489999     5.0000000
   430   7 N        1.0530801    19.8695151    17.7632021     5.0000000
   431   7 N       18.1345810     6.0436700     8.6369902     5.0000000
   432   7 N        3.1503595    20.7808486    15.5669127     5.0000000
   433   7 N        4.3703373    15.5127481    14.5815175     5.0000000
   434   7 N        6.8443938    11.0213875     7.7567741     5.0000000
   435   7 N       -9.2612112    19.5314176    10.6240322     5.0000000
   436   7 N       22.4289881     3.0726714     0.9163797     5.0000000
   437   7 N        6.3716776     5.5214794    13.0810151     5.0000000
   438   7 N       18.1110913     2.7523813    13.1164796     5.0000000
   439   7 N       -5.0460598    19.7888216     6.3159902     5.0000000
   440   7 N       11.3914772    14.3174341    16.0075708     5.0000000
   441   7 N       10.6350894     3.9182777     4.8733237     5.0000000
   442   7 N       17.5612532     7.2329154     4.8941311     5.0000000
   443   7 N       11.1053697    11.6141913     4.9393418     5.0000000
   444   7 N        2.4613820    18.6258891    14.5183649     5.0000000
   445   7 N       -4.5086628    15.3885098    14.5063258     5.0000000
   446   7 N        1.8247425    11.1000814    14.5168355     5.0000000
   447   7 N       -1.8272676    10.8861848    14.6026082     5.0000000
   448   7 N       -2.6675124    18.7298201    14.6244816     5.0000000
   449   7 N       16.9212410     0.9495123     0.5842752     5.0000000
   450   7 N       14.9456806    11.6635980     4.7941272     5.0000000
   451   7 N       15.6831259     3.7969593     4.7221665     5.0000000
   452   7 N        8.5129249     7.1061997     4.7840926     5.0000000
   453   7 N       13.1389213     0.4690906     1.9030706     5.0000000
   454   7 N       19.1771816    11.0951755     1.9481364     5.0000000
   455   7 N        6.8842840    11.0756183     1.9560436     5.0000000
   456   7 N       -0.0922484    22.1073214    11.5997860     5.0000000
   457   7 N       -6.0717995    11.3976657    11.6265759     5.0000000
   458   7 N        6.0916449    11.5912429    11.5936605     5.0000000
   459   7 N       -6.0847106    11.4754345    17.4810246     5.0000000
   460   7 N       -0.0422748    22.0996668    17.5144589     5.0000000
   461   7 N        6.0909833    11.5914958    17.4965543     5.0000000
   462   7 N       19.1450313    11.1637586     7.7803187     5.0000000
   463   7 N       13.2178946     0.4572800     7.8178382     5.0000000
   464   7 N        4.0447522    18.7462820    18.2157028     5.0000000
   465   7 N        7.8605272     5.7569085     1.2065744     5.0000000
   466   7 N       -4.7322381    13.5623017    17.7153287     5.0000000
   467   7 N        8.2774421     9.0241277     1.6199607     5.0000000
   468   7 N        1.1347172     9.6936360    10.7343473     5.0000000
   469   7 N        3.3255291     9.4664053    13.3804299     5.0000000
   470   7 N        3.6154385    11.7638109    11.2887636     5.0000000
   471   7 N        3.8871307     8.5694881    10.2714850     5.0000000
   472   7 N       -1.0556004     9.6909992    18.3313437     5.0000000
   473   7 N       -3.4153986     9.3192915    15.7303677     5.0000000
   474   7 N       -3.6074410    11.6750346    17.7776732     5.0000000
   475   7 N       -3.7288654     8.5312741    18.8331330     5.0000000
   476   7 N       -4.1791082    18.6874590    18.2070877     5.0000000
   477   7 N       -3.2345788    20.9032904    15.7240130     5.0000000
   478   7 N       -1.1441095    19.8744197    17.8214123     5.0000000
   479   7 N       -3.7621718    21.6070128    18.8409478     5.0000000
   480   7 N        5.1591040    16.8332431    18.3349581     5.0000000
   481   7 N        6.5281454    15.0111288    15.7205480     5.0000000
   482   7 N        4.7070855    13.6513919    17.8143735     5.0000000
   483   7 N        7.5812669    15.0414313    18.8421322     5.0000000
   484   7 N       14.0912285    12.9945368     8.3537899     5.0000000
   485   7 N       16.4982221    13.2761867     5.8850410     5.0000000
   486   7 N       16.6477834    11.0288417     8.0033134     5.0000000
   487   7 N       16.8634903    14.1394434     8.9345373     5.0000000
   488   7 N       17.0923571     4.0896737     8.4838742     5.0000000
   489   7 N       15.9724746     1.5738958     5.8202830     5.0000000
   490   7 N       14.3614185     2.6886006     7.9405079     5.0000000
   491   7 N       16.9051463     0.9712268     8.9846508     5.0000000
   492   7 N        7.8523718     5.7152414     8.3503228     5.0000000
   493   7 N        6.3378147     7.6342492     5.8739582     5.0000000
   494   7 N        8.2016769     8.9332974     7.9993247     5.0000000
   495   7 N        5.3464492     7.5618767     8.9465798     5.0000000
   496   7 N        6.3446812     7.6674273     3.6681573     5.0000000
   497   7 N       -7.5252329    14.8817090    10.3459029     5.0000000
   498   7 N       -4.6912893    13.4581949    11.3259511     5.0000000
   499   7 N       16.5421173    13.2436813     3.6850717     5.0000000
   500   7 N       -5.1875625    16.6391854    10.9111470     5.0000000
   501   7 N        5.4600654     7.5768421     0.5685471     5.0000000
   502   7 N       -6.6892464    14.8380168    13.4012916     5.0000000
   503   7 N       -1.0754907     9.6237849    10.8875508     5.0000000
   504   7 N       -3.4063931     9.2940625    13.5252856     5.0000000
   505   7 N       -3.5833956    11.5643544    11.4017496     5.0000000
   506   7 N       -3.7883240     8.4265467    10.4592877     5.0000000
   507   7 N       -4.2181185    18.6279018    11.0600833     5.0000000
   508   7 N       -3.2697088    20.8793639    13.5210011     5.0000000
   509   7 N       -1.2462778    19.8974625    11.3964342     5.0000000
   510   7 N        5.1746872    16.8077389    10.8909575     5.0000000
   511   7 N        6.5615023    14.9751551    13.5136086     5.0000000
   512   7 N        4.7172809    13.6651724    11.3626912     5.0000000
   513   7 N        7.6198769    15.0221413    10.4217919     5.0000000
   514   7 N        8.9858119     3.8483404     1.3475075     5.0000000
   515   7 N       -3.8741992    21.6762473    10.4549195     5.0000000
   516   7 N       12.0461147     2.6984438     1.6415483     5.0000000
   517   7 N        3.6972747    21.6595663    10.3182135     5.0000000
   518   7 N        9.9461032     1.7711035     3.8082716     5.0000000
   519   7 N        3.1376021    20.7272251    13.3606837     5.0000000
   520   7 N        4.0126894    18.6912631    10.7454461     5.0000000
   521   7 N        9.0943730    14.0845788     0.7961562     5.0000000
   522   7 N        9.3682781    10.9325069     1.7091557     5.0000000
   523   7 N        9.5739640    13.2392943     3.8395134     5.0000000
   524   7 N        0.9525815    19.8561447    11.3121947     5.0000000
   525   7 N       20.6898066     7.7182390     0.8457000     5.0000000
   526   7 N        9.3453247     0.8947838     0.8180327     5.0000000
   527   7 N       17.8161170     9.0158933     1.6897951     5.0000000
   528   7 N       19.7616921     7.6920650     3.8275148     5.0000000
   529   7 N       18.3468621     5.8498730     1.3503148     5.0000000
   530   7 N       11.9454347    12.9191967     1.3577127     5.0000000
   531   8 O       18.8030848    12.0284067    17.3745519     6.0000000
   532   8 O        1.4026442    11.4876727    15.6107377     6.0000000
   533   8 O        6.0517326    10.3633529    17.3551720     6.0000000
   534   8 O       10.8482277     4.4851247     5.9488577     6.0000000
   535   8 O       -0.8570669    22.3285828     7.9988079     6.0000000
   536   8 O       -5.7481898    10.5984694     7.8643109     6.0000000
   537   8 O       11.4551252    11.1261734     6.0171934     6.0000000
   538   8 O        6.8728734    12.2564996     7.8131910     6.0000000
   539   8 O       14.6304325    11.1319147     3.7261609     6.0000000
   540   8 O       -6.8049173    12.4128332     1.9614845     6.0000000
   541   8 O       -3.9680489    15.6399577    15.5871562     6.0000000
   542   8 O       16.9286251     7.2505161     5.9533700     6.0000000
   543   8 O       14.0406605     0.2359393    17.4238670     6.0000000
   544   8 O       18.3089232     2.3634879     6.5264962     6.0000000
   545   8 O       11.7049644    13.9654069    14.8681213     6.0000000
   546   8 O       10.4271761    15.0521835    16.2449166     6.0000000
   547   8 O       -5.2021215    20.9918818     6.5494914     6.0000000
   548   8 O       -4.8631204    19.3426270     5.1809076     6.0000000
   549   8 O       17.9792416     3.1471304    14.2740706     6.0000000
   550   8 O       18.2629887     1.5581528    12.8406803     6.0000000
   551   8 O        6.7901506     5.3376460    14.2267236     6.0000000
   552   8 O        5.3023594     6.0903698    12.8383585     6.0000000
   553   8 O       23.2216260     2.2773526     0.3962128     6.0000000
   554   8 O       21.5192082     2.7112471     1.6744788     6.0000000
   555   8 O      -10.0582705    20.3491298    10.1468635     6.0000000
   556   8 O       -8.3673760    19.8534114    11.4178604     6.0000000
   557   8 O       15.4185337     4.3701750     3.6601605     6.0000000
   558   8 O        2.3518375    18.0743933    15.6175952     6.0000000
   559   8 O        1.2268032    22.3234561     1.9841598     6.0000000
   560   8 O       19.9203138    10.1071267    11.8900132     6.0000000
   561   8 O        5.8329786    10.4243284     1.9881268     6.0000000
   562   8 O        5.8115627    10.3851480     7.5144614     6.0000000
   563   8 O        9.1178425     7.0512377     3.7100536     6.0000000
   564   8 O        1.2618312    22.3027675     7.5283500     6.0000000
   565   8 O       15.8529992     4.3980807     5.7867048     6.0000000
   566   8 O       -6.8235427    12.4534444     7.5100118     6.0000000
   567   8 O       14.4322616    11.3511394     5.8722149     6.0000000
   568   8 O        7.1438725    12.2384380    17.4487802     6.0000000
   569   8 O        3.7778374    15.6177460    15.6591249     6.0000000
   570   8 O       11.8681850     0.2398217    17.4139583     6.0000000
   571   8 O       -2.4096362    18.1866873    15.7019824     6.0000000
   572   8 O       19.9118604    10.1601370    17.4133633     6.0000000
   573   8 O       -1.4587452    11.3713892    15.6758373     6.0000000
   574   8 O        1.4331577    11.5543786    13.4374865     6.0000000
   575   8 O       18.8088770    11.9420499    11.5436795     6.0000000
   576   8 O        9.0565638     6.8849481     5.8697226     6.0000000
   577   8 O       13.9913665     0.2426969    11.5102525     6.0000000
   578   8 O       -1.3737871    11.2426977    13.5112492     6.0000000
   579   8 O       -3.9014876    15.4210301    13.4328401     6.0000000
   580   8 O       -2.6006609    18.1378993    13.5438244     6.0000000
   581   8 O       11.8456649     0.2488536    11.8539554     6.0000000
   582   8 O        3.8284228    15.6995459    13.4885467     6.0000000
   583   8 O        7.1181285    12.2373841    11.8369917     6.0000000
   584   8 O        6.0761492    10.3564440    11.5295191     6.0000000
   585   8 O       -0.9444367    22.3401243     2.0309032     6.0000000
   586   8 O       17.0381795     6.9650665     3.8084622     6.0000000
   587   8 O       -5.7250995    10.5353779     2.1280016     6.0000000
   588   8 O       11.5673723    11.2458661     3.8555536     6.0000000
   589   8 O        2.2491289    18.0525149    13.4458257     6.0000000
   590   8 O       10.7366297     4.4845726     3.7807625     6.0000000
   591   8 O        6.9174898    12.3022042     2.1145896     6.0000000
   592  30 Zn       7.0187749     7.4892076     1.7887671     2.0000000
   593  30 Zn      16.1846644     2.3382266     1.7665813     2.0000000
   594  30 Zn      16.0601859    12.7532926     1.8248642     2.0000000
   595  30 Zn      10.2127441     2.3220489     7.9225982     2.0000000
   596  30 Zn      19.0399982     7.6579998     7.8901830     2.0000000
   597  30 Zn       3.0113232     9.8771146    17.5049693     2.0000000
   598  30 Zn      -6.0214012    15.0316497    17.4519627     2.0000000
   599  30 Zn       2.9689794    20.2529547    17.4752541     2.0000000
   600  30 Zn       9.9733361    12.7016738     7.9291521     2.0000000
   601  30 Zn      -2.9172729     9.7239291    11.6483836     2.0000000
   602  30 Zn      10.1264205     2.3271140     1.9235239     2.0000000
   603  30 Zn       6.0212671    15.1393154    11.5980204     2.0000000
   604  30 Zn      19.1072741     7.5701271     1.9768679     2.0000000
   605  30 Zn      10.0345086    12.7837193     1.9569790     2.0000000
   606  30 Zn       2.9066487    20.2121966    11.4393974     2.0000000
   607  30 Zn       2.9924195     9.8908330    11.4512542     2.0000000
   608  30 Zn      -2.9156860     9.8253362    17.5981207     2.0000000
   609  30 Zn      -3.0776250    20.2420743    17.5991242     2.0000000
   610  30 Zn       5.9958469    15.1511488    17.6463578     2.0000000
   611  30 Zn      15.9763634    12.8618827     7.7391665     2.0000000
   612  30 Zn      16.3091930     2.3784499     7.6804444     2.0000000
   613  30 Zn       6.9409312     7.4105259     7.7634717     2.0000000
   614  30 Zn      -3.1894659    20.2429716    11.6411956     2.0000000
   615  30 Zn      -5.9836755    14.9254033    11.5470568     2.0000000

 * 3D periodic system

 * cell parameter

      |a|/Å         |b|/Å         |c|/Å        α/°      β/°      γ/°
   25.9394616    25.9369456    19.3794394    89.925   90.081  120.246

 * direct lattice/Å

            a    25.9393327    -0.0817512    -0.0019737
            b   -12.9941335    22.4472188     0.0032625
            c    -0.0258009     0.0116597    19.3794187

 * reciprocal lattice/Å⁻¹

           a*     0.2426689     0.1404749     0.0002386
           b*     0.0008838     0.2804209    -0.0001675
           c*     0.0000246    -0.0000329     0.3242195

 * geometry in fractional coordinates

     #   Z                         fractional coordinates
     1   6 C        0.3149849     0.2925333     0.4775269
     2   6 C        0.9725242     0.2929532     0.4791294
     3   6 C        0.9680601     0.1997954     0.4743891
     4   6 C        0.9441236     0.2350184     0.4563330
     5   6 C        0.8249112     0.3900575     0.4180411
     6   6 C        0.9871176     0.3596946     0.2878739
     7   6 C        0.8205654     0.2363930     0.5037288
     8   6 C        0.8259013     0.2189253     0.6231007
     9   6 C        0.8495417     0.2554059     0.5666942
    10   6 C        0.3215778     0.0293369     0.4760935
    11   6 C        0.2342971     0.0363001     0.4689676
    12   6 C        0.2933218     0.0584608     0.4514278
    13   6 C        0.5672035     0.1763376     0.4182492
    14   6 C        0.7500021     0.5975816     0.5682423
    15   6 C        0.4165774     0.1802908     0.5031607
    16   6 C        0.4058167     0.1508229     0.5658839
    17   6 C        0.2939316     0.3196332     0.9728931
    18   6 C        0.2015161     0.2298642     0.9744020
    19   6 C        0.2349693     0.2886512     0.9539889
    20   6 C        0.3849847     0.5650108     0.9168761
    21   6 C        0.3542210     0.3780972     0.7821225
    22   6 C        0.2367986     0.4123596     0.0078232
    23   6 C        0.2284339     0.3859497     0.1263778
    24   6 C        0.2592795     0.3984325     0.0647353
    25   6 C        0.0239055     0.7058569     0.9711760
    26   6 C        0.0267494     0.7983322     0.9718845
    27   6 C        0.0514391     0.7644551     0.9508920
    28   6 C        0.3922525     0.1740203     0.6221279
    29   6 C        0.1760728     0.6139132     0.9149626
    30   6 C        0.7864960     0.6088391     0.6241051
    31   6 C        0.6402610     0.6248172     0.2880618
    32   6 C        0.2852476     0.2328210     0.0319653
    33   6 C        0.5623765     0.3865167     0.0816696
    34   6 C        0.3745838     0.3591611     0.2118269
    35   6 C        0.4135906     0.2296638     0.9962326
    36   6 C        0.3916056     0.2120267     0.8766996
    37   6 C        0.4024142     0.2477967     0.9331729
    38   6 C        0.7097488     0.0231143     0.0135391
    39   6 C        0.7985652     0.0186655     0.0078835
    40   6 C        0.7691594     0.0466584     0.0312352
    41   6 C        0.6181163     0.1770401     0.0796954
    42   6 C        0.6417914     0.0155105     0.2125513
    43   6 C        0.7727994     0.1840244     0.9956008
    44   6 C        0.7679122     0.5870962     0.5046622
    45   6 C        0.7905814     0.1809317     0.8759272
    46   6 C        0.9731082     0.6817250     0.0144198
    47   6 C        0.9745468     0.7735368     0.0111817
    48   6 C        0.9477797     0.7158015     0.0332306
    49   6 C        0.8247742     0.4376509     0.0811764
    50   6 C        0.9870366     0.6258838     0.2129111
    51   6 C        0.8179266     0.5836870     0.9967640
    52   6 C        0.8242567     0.6072358     0.8775830
    53   6 C        0.8474382     0.5940520     0.9341228
    54   6 C        0.7060070     0.6787556     0.4804107
    55   6 C        0.7991548     0.7675947     0.4779475
    56   6 C        0.7644686     0.7084781     0.4594923
    57   6 C        0.6101682     0.4340791     0.4181527
    58   6 C        0.7547579     0.1553127     0.9322067
    59   6 C        0.0141165     0.6403269     0.7854575
    60   6 C        0.1741435     0.7628299     0.9996349
    61   6 C        0.1574551     0.7671983     0.1192881
    62   6 C        0.9185701     0.4589107     0.0886738
    63   6 C        0.5452742     0.0833917     0.0859802
    64   6 C        0.4382502     0.3313343     0.2459922
    65   6 C        0.6702522     0.1072193     0.2463891
    66   6 C        0.8953238     0.5623984     0.2466732
    67   6 C        0.5557904     0.6699486     0.7522699
    68   6 C        0.3303461     0.8925537     0.7529226
    69   6 C        0.1076212     0.4364050     0.7533667
    70   6 C        0.3316344     0.4455786     0.7476655
    71   6 C        0.1040710     0.6649054     0.7479823
    72   6 C        0.5541586     0.8871636     0.7472666
    73   6 C        0.6668376     0.5601443     0.2540476
    74   6 C        0.5416356     0.4593438     0.0898587
    75   6 C        0.8963415     0.3347862     0.2535728
    76   6 C        0.4409177     0.2156244     0.3960949
    77   6 C        0.7862063     0.2246105     0.3960992
    78   6 C        0.7772064     0.5623181     0.3974076
    79   6 C        0.5585598     0.7795702     0.9060718
    80   6 C        0.2190886     0.7819759     0.8977189
    81   6 C        0.2202025     0.4411629     0.9063379
    82   6 C        0.2227249     0.4400970     0.5935801
    83   6 C        0.2132545     0.7744198     0.6042562
    84   6 C        0.5564360     0.7812064     0.5939322
    85   6 C        0.7828026     0.5603471     0.1039979
    86   6 C        0.7823522     0.2182244     0.1028627
    87   6 C        0.4399444     0.2203323     0.1027294
    88   6 C        0.4470454     0.1097972     0.2515499
    89   6 C        0.4530476     0.9163419     0.5879228
    90   6 C        0.0820846     0.5363337     0.5894508
    91   6 C        0.4583605     0.5448910     0.5861751
    92   6 C        0.1382210     0.7385103     0.0565902
    93   6 C        0.6812923     0.9723030     0.9704394
    94   6 C        0.7695856     0.9669588     0.9679438
    95   6 C        0.7108104     0.9436183     0.9484781
    96   6 C        0.4365572     0.8223496     0.9180866
    97   6 C        0.6227680     0.9770488     0.7808919
    98   6 C        0.5882287     0.8254043     0.0073165
    99   6 C        0.6148036     0.8434103     0.1258645
   100   6 C        0.6025487     0.8619400     0.0641873
   101   6 C        0.3863283     0.3862282     0.4937434
   102   6 C        0.6128703     0.9998734     0.4957023
   103   6 C        0.9951215     0.6092955     0.4957823
   104   6 C        0.6121343     0.6145473     0.0042966
   105   6 C        0.3863514     0.9980642     0.0040525
   106   6 C        0.0078007     0.3917183     0.0049677
   107   6 C        0.6114678     0.6139272     0.5036248
   108   6 C        0.3840636     0.9977800     0.5038751
   109   6 C        0.0025837     0.3872981     0.5042622
   110   6 C        0.3873854     0.3871784     0.9973584
   111   6 C        0.6161447     0.0008382     0.9970531
   112   6 C        0.9982732     0.6125483     0.9963287
   113   6 C        0.5375671     0.4552029     0.4105041
   114   6 C        0.5470978     0.0827980     0.4132047
   115   6 C        0.9185973     0.4629802     0.4116014
   116   6 C        0.4580812     0.5443474     0.9135067
   117   6 C        0.4567358     0.9159641     0.9142996
   118   6 C        0.0826334     0.5400744     0.9111709
   119   6 C        0.2271033     0.2020236     0.0114035
   120   6 C        0.3188526     0.2924884     0.0140665
   121   6 C        0.3770368     0.0213918     0.2873574
   122   6 C        0.1578299     0.3849841     0.3739427
   123   6 C        0.2920894     0.9732417     0.9866609
   124   6 C        0.2020252     0.9752740     0.9898569
   125   6 C        0.2326446     0.9480666     0.9681158
   126   6 C        0.3838984     0.8221855     0.9194074
   127   6 C        0.3596415     0.9844246     0.7868074
   128   6 C        0.2291036     0.8166897     0.0047580
   129   6 C        0.2119659     0.8201942     0.1245379
   130   6 C        0.2476621     0.8454092     0.0680835
   131   6 C        0.0274093     0.3185170     0.9857094
   132   6 C        0.0173949     0.2227121     0.9872979
   133   6 C        0.0484251     0.2809728     0.9662316
   134   6 C        0.1765610     0.5615976     0.9171023
   135   6 C        0.6007920     0.7529087     0.0737781
   136   6 C        0.0158107     0.3747222     0.7879588
   137   6 C        0.1748790     0.3864988     0.1308381
   138   6 C        0.1514946     0.3991765     0.0741703
   139   6 C        0.2925691     0.3212034     0.5201342
   140   6 C        0.1998890     0.2319961     0.5255351
   141   6 C        0.2347524     0.2912680     0.5433095
   142   6 C        0.3854171     0.5656924     0.5811335
   143   6 C        0.3527429     0.3776789     0.7114260
   144   6 C        0.2317308     0.4126748     0.4873197
   145   6 C        0.2123444     0.3864909     0.3685372
   146   6 C        0.2490976     0.3997545     0.4246482
   147   6 C        0.0295661     0.7046400     0.5187965
   148   6 C        0.0392663     0.7999392     0.5239159
   149   6 C        0.1824972     0.4126853     0.0119459
   150   6 C        0.6137816     0.7890818     0.1303885
   151   6 C        0.5874501     0.7705699     0.0115777
   152   6 C        0.6228848     0.6478328     0.7888993
   153   6 C        0.2229133     0.2028629     0.4864202
   154   6 C        0.2799126     0.2325338     0.4618070
   155   6 C        0.5575138     0.3816453     0.4154510
   156   6 C        0.3747263     0.3586283     0.2825419
   157   6 C        0.4135864     0.2329591     0.4978982
   158   6 C        0.3885890     0.2255497     0.6162787
   159   6 C        0.3993198     0.2552889     0.5546043
   160   6 C        0.7065100     0.0222834     0.4790180
   161   6 C        0.7963684     0.0202198     0.4871952
   162   6 C        0.7664624     0.0474183     0.4629732
   163   6 C        0.6199527     0.1767547     0.4153048
   164   6 C        0.6418323     0.0162309     0.2832582
   165   6 C        0.7677556     0.1808502     0.4985165
   166   6 C        0.7743365     0.1637499     0.6172160
   167   6 C        0.1394962     0.3966025     0.4361318
   168   6 C        0.9791339     0.6847406     0.4759233
   169   6 C        0.9879201     0.7797512     0.4842645
   170   6 C        0.9576928     0.7225651     0.4596198
   171   6 C        0.8249052     0.4426099     0.4154991
   172   6 C        0.9860651     0.6259829     0.2836142
   173   6 C        0.8232525     0.5890993     0.4986275
   174   6 C        0.8410600     0.6105724     0.6180904
   175   6 C        0.8597687     0.6011106     0.5550809
   176   6 C        0.6820783     0.7082872     0.9848845
   177   6 C        0.7744343     0.7980975     0.9877846
   178   6 C        0.7166707     0.7675534     0.9657496
   179   6 C        0.4376217     0.6174971     0.9188972
   180   6 C        0.0601571     0.7625369     0.5415646
   181   6 C        0.1754942     0.6098777     0.5829064
   182   6 C        0.7449110     0.1445741     0.5553903
   183   6 C        0.1788393     0.7622545     0.4966403
   184   6 C        0.4131576     0.1750234     0.0010834
   185   6 C        0.3907226     0.1577993     0.8817311
   186   6 C        0.4012197     0.1390065     0.9441519
   187   6 C        0.6827525     0.7073652     0.5217964
   188   6 C        0.7752747     0.7968538     0.5153432
   189   6 C        0.7176474     0.7673018     0.5379767
   190   6 C        0.4380292     0.6182067     0.5829157
   191   6 C        0.6224910     0.6461323     0.7182144
   192   6 C        0.5867661     0.7649565     0.4932236
   193   6 C        0.6138744     0.7730282     0.3749204
   194   6 C        0.6013251     0.7425065     0.4367819
   195   6 C        0.2915313     0.9791299     0.5198272
   196   6 C        0.5655249     0.1769949     0.0817296
   197   6 C        0.2037431     0.9851594     0.5095661
   198   6 C        0.3793453     0.8228782     0.5853690
   199   6 C        0.3587240     0.9835511     0.7160989
   200   6 C        0.2312137     0.8181566     0.5018732
   201   6 C        0.2244845     0.8350424     0.3831451
   202   6 C        0.2537033     0.8545439     0.4450345
   203   6 C        0.0234414     0.3150126     0.5219695
   204   6 C        0.0202258     0.2225453     0.5135029
   205   6 C        0.0479044     0.2795921     0.5380057
   206   6 C        0.1760386     0.5575919     0.5848189
   207   6 C        0.0161434     0.3749391     0.7172186
   208   6 C        0.1764214     0.4108190     0.4925967
   209   6 C        0.0128467     0.6392689     0.7147548
   210   6 C        0.2318609     0.9566871     0.5355203
   211   6 C        0.2885197     0.0523459     0.0493047
   212   6 C        0.3771832     0.0207453     0.2166603
   213   6 C        0.3192796     0.0244233     0.0292761
   214   6 C        0.1732115     0.7796370     0.3772688
   215   6 C        0.1498808     0.7430817     0.4336692
   216   6 C        0.6779851     0.9711077     0.5214927
   217   6 C        0.7673975     0.9679274     0.5261399
   218   6 C        0.7081490     0.9433278     0.5442219
   219   6 C        0.4316780     0.8224211     0.5833398
   220   6 C        0.6224974     0.9756698     0.7101914
   221   6 C        0.5854296     0.8186965     0.4883183
   222   6 C        0.6128997     0.8263339     0.3698632
   223   6 C        0.5992953     0.8495551     0.4259752
   224   6 C        0.7060150     0.6812583     0.0278359
   225   6 C        0.2298641     0.0277403     0.0286536
   226   6 C        0.7645759     0.7119593     0.0482935
   227   6 C        0.6149431     0.4390238     0.0846500
   228   6 C        0.7987521     0.7705464     0.0275814
   229   6 C        0.6409824     0.6247175     0.2173444
   230   6 C        0.8632919     0.2631371     0.9441337
   231   6 C        0.8446782     0.2343387     0.8814218
   232   6 C        0.9864801     0.3590369     0.2171626
   233   6 C        0.8250139     0.3852325     0.0841071
   234   6 C        0.9452860     0.2382815     0.0473963
   235   6 C        0.8272905     0.2383348     0.0009240
   236   6 C        0.9765516     0.2970422     0.0281082
   237   6 C        0.7426012     0.6000126     0.9445697
   238   6 C        0.7727295     0.6109505     0.8831441
   239   6 C        0.7648194     0.5859236     0.0015138
   240   6 C        0.9657009     0.2012121     0.0266694
   241  17 Cl       0.6300341     0.8879580     0.1967256
   242  17 Cl       0.9320509     0.1269329     0.4503324
   243  17 Cl       0.8064154     0.9307863     0.9446101
   244  17 Cl       0.0624565     0.8721949     0.9522728
   245  17 Cl       0.2578078     0.3706447     0.1971305
   246  17 Cl       0.1270484     0.1922358     0.9581544
   247  17 Cl       0.1991604     0.0734220     0.4426414
   248  17 Cl       0.8728546     0.8042051     0.4575557
   249  17 Cl       0.1133386     0.7357729     0.1900045
   250  17 Cl       0.6294981     0.7433932     0.3046154
   251  17 Cl       0.3772686     0.1133088     0.8111640
   252  17 Cl       0.1920541     0.0637992     0.0481853
   253  17 Cl       0.8892033     0.2659802     0.8110721
   254  17 Cl       0.8720656     0.8090390     0.0496223
   255  17 Cl       0.8048184     0.9323202     0.5494411
   256  17 Cl       0.1270058     0.1947328     0.5494377
   257  17 Cl       0.8858695     0.6233025     0.6881658
   258  17 Cl       0.1128037     0.3700268     0.3036056
   259   1 H        0.7830043     0.6857433     0.4321370
   260   1 H        0.6542069     0.4403898     0.4143316
   261   1 H        0.6294148     0.6514044     0.3207968
   262   1 H        0.7729932     0.6152405     0.6741736
   263   1 H        0.7083039     0.5963549     0.5723568
   264   1 H        0.9037147     0.2173848     0.4273524
   265   1 H        0.7873531     0.3460019     0.4133152
   266   1 H        0.3169151     0.0979866     0.4210718
   267   1 H        0.8468642     0.2322042     0.6728699
   268   1 H        0.8897936     0.2973988     0.5697774
   269   1 H        0.8876936     0.5922938     0.9313581
   270   1 H        0.5602480     0.2135949     0.4131388
   271   1 H        0.3457875     0.9872798     0.3211055
   272   1 H        0.3841557     0.1528137     0.6717852
   273   1 H        0.0242264     0.3695352     0.3207162
   274   1 H        0.8456100     0.6152108     0.8280269
   275   1 H        0.9553361     0.8006450     0.0232222
   276   1 H        0.7870823     0.4439811     0.0853687
   277   1 H        0.0970115     0.3935627     0.4403793
   278   1 H        0.2002072     0.1556028     0.0230897
   279   1 H        0.3055279     0.2120219     0.0599370
   280   1 H        0.5558471     0.3423833     0.0851944
   281   1 H        0.3484871     0.3705930     0.1790266
   282   1 H        0.3849823     0.2258985     0.8269308
   283   1 H        0.4028762     0.2891654     0.9298757
   284   1 H        0.8448933     0.0367854     0.0195885
   285   1 H        0.7913473     0.0864398     0.0615351
   286   1 H        0.6620608     0.2146579     0.0849484
   287   1 H        0.6302654     0.9779048     0.1798516
   288   1 H        0.7767791     0.1609391     0.8259213
   289   1 H        0.7133910     0.1144394     0.9284534
   290   1 H        0.4075367     0.1105576     0.5689061
   291   1 H        0.9076761     0.6962083     0.0630623
   292   1 H        0.0247018     0.6518628     0.1802548
   293   1 H        0.2150320     0.3103544     0.9272660
   294   1 H        0.0922029     0.7837668     0.9224049
   295   1 H        0.3643481     0.3512730     0.8154527
   296   1 H        0.9983461     0.5712663     0.9986070
   297   1 H        0.4620831     0.2247262     0.3463870
   298   1 H        0.7775519     0.2363846     0.3459808
   299   1 H        0.7643033     0.5408019     0.3479990
   300   1 H        0.5366152     0.7669957     0.8568263
   301   1 H        0.2318578     0.7732718     0.8482736
   302   1 H        0.5756107     0.0023377     0.9996051
   303   1 H        0.2291390     0.4624846     0.8567522
   304   1 H        0.2221438     0.7628101     0.6543396
   305   1 H        0.5346110     0.7720406     0.6432377
   306   1 H        0.7740953     0.5398342     0.1540617
   307   1 H        0.7693959     0.2265146     0.1524184
   308   1 H        0.4621011     0.2334183     0.1517794
   309   1 H        0.9789122     0.3524975     0.6828601
   310   1 H        0.2351760     0.4612594     0.6432577
   311   1 H        0.4285742     0.4286094     0.9998388
   312   1 H        0.0052496     0.4298996     0.5059061
   313   1 H        0.4234068     0.9941066     0.5061073
   314   1 H        0.2991338     0.3960751     0.0611100
   315   1 H        0.2133980     0.6579468     0.9087808
   316   1 H        0.9779178     0.6291150     0.8204418
   317   1 H        0.0958290     0.6989446     0.0525039
   318   1 H        0.6882413     0.9032438     0.9193782
   319   1 H        0.4430826     0.7849627     0.9112114
   320   1 H        0.6503355     0.0139934     0.8138817
   321   1 H        0.6054142     0.9043830     0.0605569
   322   1 H        0.4286128     0.4264948     0.4915848
   323   1 H        0.5724716     0.0016402     0.4934824
   324   1 H        0.9899104     0.5655840     0.4959231
   325   1 H        0.5703901     0.5736335     0.0030014
   326   1 H        0.4276172     0.9979984     0.0013711
   327   1 H        0.0102623     0.4342433     0.0034907
   328   1 H        0.5690801     0.5737133     0.5046201
   329   1 H        0.3412065     0.5588309     0.9100990
   330   1 H        0.2138906     0.5516905     0.5906058
   331   1 H        0.6588316     0.4452872     0.0904545
   332   1 H        0.0387943     0.1944818     0.5231091
   333   1 H        0.6527395     0.6431074     0.8231379
   334   1 H        0.6225375     0.7758903     0.1795957
   335   1 H        0.6004746     0.7115810     0.0761909
   336   1 H        0.1557026     0.9562441     0.9779151
   337   1 H        0.2118542     0.9077329     0.9387166
   338   1 H        0.3400504     0.7845657     0.9133728
   339   1 H        0.4441795     0.6615281     0.9136046
   340   1 H        0.3718453     0.0221624     0.8195451
   341   1 H        0.2893124     0.8859969     0.0716057
   342   1 H        0.0330080     0.1927571     0.9740333
   343   1 H        0.0884946     0.2980397     0.9365305
   344   1 H        0.2143696     0.5554742     0.9127452
   345   1 H        0.9781922     0.3495474     0.8209823
   346   1 H        0.1528471     0.3775264     0.1800126
   347   1 H        0.2262205     0.8401090     0.1745024
   348   1 H        0.6975711     0.7882775     0.9354273
   349   1 H        0.8020519     0.8442363     0.9752712
   350   1 H        0.9021404     0.6039836     0.5505575
   351   1 H        0.0883381     0.2978274     0.5671205
   352   1 H        0.1949888     0.1562312     0.4767213
   353   1 H        0.2983216     0.2104949     0.4327047
   354   1 H        0.5510447     0.3377021     0.4093857
   355   1 H        0.3509890     0.3717707     0.3170270
   356   1 H        0.3947711     0.2938295     0.5500303
   357   1 H        0.8430541     0.0392730     0.4774998
   358   1 H        0.7882447     0.0879519     0.4339952
   359   1 H        0.6635233     0.2144094     0.4076014
   360   1 H        0.6279556     0.9793050     0.3178636
   361   1 H        0.7063004     0.1015423     0.5507753
   362   1 H        0.9716851     0.8097708     0.4743246
   363   1 H        0.9174313     0.7062104     0.4304546
   364   1 H        0.7873638     0.4489517     0.4091297
   365   1 H        0.0227627     0.6498400     0.3183341
   366   1 H        0.1101967     0.3989134     0.0765001
   367   1 H        0.2169587     0.3137510     0.5725699
   368   1 H        0.7162697     0.0788420     0.3637801
   369   1 H        0.3570378     0.3474348     0.6774131
   370   1 H        0.9053847     0.3030550     0.9484520
   371   1 H        0.3102611     0.0933380     0.0773280
   372   1 H        0.5591254     0.2144774     0.0884435
   373   1 H        0.3489574     0.9845232     0.1831332
   374   1 H        0.3988886     0.0968283     0.9480640
   375   1 H        0.8030266     0.8434685     0.5253340
   376   1 H        0.6986299     0.7893891     0.5658363
   377   1 H        0.4443998     0.6620329     0.5899287
   378   1 H        0.6489065     0.6353041     0.6850848
   379   1 H        0.6039122     0.7027988     0.4407883
   380   1 H        0.1572139     0.9677647     0.5193764
   381   1 H        0.3353854     0.7855793     0.5920196
   382   1 H        0.3721258     0.0203932     0.6814755
   383   1 H        0.2919258     0.8978356     0.4496728
   384   1 H        0.3414812     0.5593372     0.5867508
   385   1 H        0.0229985     0.3702794     0.1827192
   386   1 H        0.7875859     0.3413093     0.0905455
   387   1 H        0.2084423     0.9171680     0.5660616
   388   1 H        0.7041205     0.6046915     0.9489322
   389   1 H        0.9043512     0.2212511     0.0751359
   390   1 H        0.2905619     0.4004015     0.4215738
   391   1 H        0.2251581     0.3778122     0.3190454
   392   1 H        0.2127900     0.6540882     0.5875528
   393   1 H        0.9753540     0.6290012     0.6824127
   394   1 H        0.1522449     0.7662316     0.3275121
   395   1 H        0.1098210     0.7009164     0.4306073
   396   1 H        0.1002070     0.7784722     0.5708738
   397   1 H        0.4378535     0.7846630     0.5881507
   398   1 H        0.6527276     0.0099485     0.6759032
   399   1 H        0.6222329     0.8482579     0.3206018
   400   1 H        0.5991266     0.8906245     0.4231508
   401   1 H        0.7835199     0.6903251     0.0771137
   402   1 H        0.6858943     0.9030581     0.5735279
   403   1 H        0.6287138     0.6491141     0.1827817
   404   1 H        0.7400285     0.1451643     0.3637801
   405   7 N        0.4204841     0.0767334     0.3085848
   406   7 N        0.4330958     0.1706980     0.4377918
   407   7 N        0.3389004     0.3786218     0.9630762
   408   7 N        0.3981894     0.5200146     0.9139873
   409   7 N        0.0373873     0.6605892     0.9608167
   410   7 N        0.2583979     0.4299710     0.9405466
   411   7 N        0.0710455     0.6567901     0.8054046
   412   7 N        0.1697120     0.7430328     0.9315438
   413   7 N        0.5224098     0.1179729     0.4170697
   414   7 N        0.6230239     0.9605640     0.9612159
   415   7 N        0.3404177     0.4200435     0.8041785
   416   7 N        0.3791177     0.0388935     0.4673396
   417   7 N        0.6594602     0.6207021     0.4697857
   418   7 N        0.9308838     0.3443573     0.3101109
   419   7 N        0.8831430     0.4031851     0.4157742
   420   7 N        0.9618062     0.3400882     0.4689526
   421   7 N        0.7408869     0.5708065     0.4400226
   422   7 N        0.6566663     0.5847643     0.3105057
   423   7 N        0.5973330     0.4793658     0.4152619
   424   7 N        0.8280316     0.5684949     0.0626013
   425   7 N        0.8829005     0.4829666     0.0839031
   426   7 N        0.9593458     0.6239286     0.0294434
   427   7 N        0.7464614     0.1728144     0.0606326
   428   7 N        0.6598920     0.0723139     0.1899902
   429   7 N        0.6051213     0.1188336     0.0821989
   430   7 N        0.4813317     0.8806311     0.9152737
   431   7 N        0.8309105     0.2619133     0.4379454
   432   7 N        0.5805178     0.9216046     0.8034490
   433   7 N        0.5105871     0.6862984     0.7513625
   434   7 N        0.5065844     0.4873388     0.3985895
   435   7 N        0.0729636     0.8611184     0.5472418
   436   7 N        0.9303216     0.1391068     0.0460850
   437   7 N        0.3699780     0.2476851     0.6743769
   438   7 N        0.7519719     0.1230098     0.6753147
   439   7 N        0.2473817     0.8753465     0.3246659
   440   7 N        0.7514165     0.6305380     0.8251723
   441   7 N        0.4926685     0.1712945     0.2509978
   442   7 N        0.8347740     0.3188101     0.2531641
   443   7 N        0.6828624     0.5146119     0.2539103
   444   7 N        0.5083629     0.8258413     0.7487431
   445   7 N        0.1657021     0.6810758     0.7479340
   446   7 N        0.3155315     0.4909697     0.7484306
   447   7 N        0.1694091     0.4811631     0.7528446
   448   7 N        0.3135938     0.8308073     0.7530421
   449   7 N        0.6672995     0.0388938     0.0294137
   450   7 N        0.8335677     0.5172899     0.2468739
   451   7 N        0.6867181     0.1688828     0.2464095
   452   7 N        0.4836289     0.3151079     0.2462647
   453   7 N        0.5138271     0.0203456     0.0982157
   454   7 N        0.9816623     0.4910853     0.1007217
   455   7 N        0.5098738     0.4907171     0.1016710
   456   7 N        0.4853870     0.9796596     0.5982863
   457   7 N        0.0188587     0.5045307     0.6005853
   458   7 N        0.4897511     0.5131237     0.5975736
   459   7 N        0.0193834     0.5078365     0.9003023
   460   7 N        0.4882538     0.9791025     0.9026900
   461   7 N        0.4895398     0.5127047     0.9017120
   462   7 N        0.9818221     0.4941679     0.4004783
   463   7 N        0.5153910     0.0194740     0.4028215
   464   7 N        0.5703254     0.8292248     0.9400957
   465   7 N        0.4297678     0.2561594     0.0611282
   466   7 N        0.1176838     0.6000588     0.9117826
   467   7 N        0.5172318     0.3995546     0.0847674
   468   7 N        0.2588306     0.4305702     0.5518659
   469   7 N        0.3386966     0.4196398     0.6903879
   470   7 N        0.3985247     0.5205733     0.5828504
   471   7 N        0.3390824     0.3794879     0.5293263
   472   7 N        0.1735485     0.4302316     0.9470514
   473   7 N        0.0729253     0.4127844     0.8100820
   474   7 N        0.1185023     0.5161546     0.9149345
   475   7 N        0.0448978     0.3778476     0.9720036
   476   7 N        0.2553494     0.8273881     0.9396914
   477   7 N        0.3415494     0.9276160     0.8093358
   478   7 N        0.3968753     0.8803923     0.9172289
   479   7 N        0.3357164     0.9589667     0.9715771
   480   7 N        0.5694569     0.7438587     0.9468880
   481   7 N        0.5814899     0.6627362     0.8096592
   482   7 N        0.4826180     0.6042095     0.9170838
   483   7 N        0.6237703     0.6649154     0.9710313
   484   7 N        0.8272568     0.5738054     0.4304091
   485   7 N        0.9287849     0.5869723     0.3038986
   486   7 N        0.8831332     0.4874526     0.4119788
   487   7 N        0.9597313     0.6250075     0.4620931
   488   7 N        0.7480039     0.1750535     0.4304043
   489   7 N        0.6603098     0.0735310     0.3036890
   490   7 N        0.6069779     0.1185921     0.4126318
   491   7 N        0.6640890     0.0381444     0.4635802
   492   7 N        0.4286336     0.2533214     0.4300992
   493   7 N        0.4138400     0.3405727     0.3031694
   494   7 N        0.5128138     0.3952240     0.4112123
   495   7 N        0.3732475     0.3349366     0.4617416
   496   7 N        0.4139035     0.3417676     0.1894689
   497   7 N        0.0375406     0.6561034     0.5302318
   498   7 N        0.1171020     0.5962021     0.5856584
   499   7 N        0.9304078     0.5865527     0.1903418
   500   7 N        0.1686839     0.7367611     0.5624699
   501   7 N        0.3767363     0.3364059     0.0287740
   502   7 N        0.0689827     0.6548086     0.6918123
   503   7 N        0.1725378     0.4276510     0.5602975
   504   7 N        0.0735294     0.4128438     0.6963158
   505   7 N        0.1179656     0.5123530     0.5883961
   506   7 N        0.0399816     0.3735602     0.5370335
   507   7 N        0.2511499     0.8240973     0.5699068
   508   7 N        0.3397701     0.9261507     0.6956344
   509   7 N        0.3930395     0.8812665     0.5877939
   510   7 N        0.5689874     0.7435922     0.5605130
   511   7 N        0.5811181     0.6606660     0.6959053
   512   7 N        0.4829029     0.6048071     0.5856487
   513   7 N        0.6240484     0.6650064     0.5358077
   514   7 N        0.4295202     0.1709901     0.0688202
   515   7 N        0.3324134     0.9613877     0.5364445
   516   7 N        0.5207060     0.1187613     0.0851478
   517   7 N        0.6196556     0.9592460     0.5309091
   518   7 N        0.4204362     0.0760700     0.1949844
   519   7 N        0.5798085     0.9197694     0.6896578
   520   7 N        0.5667870     0.8273921     0.5526717
   521   7 N        0.6603630     0.6228583     0.0389688
   522   7 N        0.6015785     0.4838472     0.0891845
   523   7 N        0.6581519     0.5848943     0.1968155
   524   7 N        0.4770641     0.8805195     0.5846170
   525   7 N        0.9662142     0.3441008     0.0391191
   526   7 N        0.3780500     0.0377360     0.0392514
   527   7 N        0.8833415     0.3989675     0.0882529
   528   7 N        0.9298017     0.3429991     0.1964935
   529   7 N        0.8315574     0.2577325     0.0691796
   530   7 N        0.7444586     0.5712973     0.0693942
   531   8 O        0.9931767     0.5361063     0.8939901
   532   8 O        0.3063607     0.5071400     0.8046171
   533   8 O        0.4605989     0.4583727     0.8942634
   534   8 O        0.5138308     0.1958290     0.3065512
   535   8 O        0.4610333     0.9921961     0.4101793
   536   8 O        0.0082243     0.4658642     0.4027844
   537   8 O        0.6845763     0.4923047     0.3093046
   538   8 O        0.5349863     0.5420570     0.4004498
   539   8 O        0.8097299     0.4939834     0.1917745
   540   8 O        0.0076180     0.5458101     0.1010251
   541   8 O        0.1926865     0.6940969     0.8032483
   542   8 O        0.8107229     0.3177213     0.3083189
   543   8 O        0.5428323     0.0049968     0.8981981
   544   8 O        0.7495714     0.1157029     0.3494084
   545   8 O        0.7533007     0.6129142     0.7667125
   546   8 O        0.7320683     0.6642800     0.8371754
   547   8 O        0.2660200     0.9285248     0.3352825
   548   8 O        0.2477431     0.8552898     0.2671603
   549   8 O        0.7539943     0.1428354     0.7336421
   550   8 O        0.7315847     0.0697175     0.6635375
   551   8 O        0.3864680     0.2442283     0.7329669
   552   8 O        0.3381964     0.2693144     0.6623472
   553   8 O        0.9450057     0.1034208     0.0253946
   554   8 O        0.8858010     0.1240690     0.0821462
   555   8 O        0.0587737     0.8972191     0.5266793
   556   8 O        0.1155673     0.8750347     0.5862275
   557   8 O        0.6895157     0.1931281     0.1908590
   558   8 O        0.4922074     0.8010755     0.8052438
   559   8 O        0.5424434     0.9943270     0.1017979
   560   8 O        0.9939311     0.4506431     0.6115995
   561   8 O        0.4551433     0.4622175     0.1028113
   562   8 O        0.4526918     0.4589321     0.3874657
   563   8 O        0.5058019     0.3130452     0.1909345
   564   8 O        0.5438023     0.9947810     0.3874755
   565   8 O        0.6979044     0.1952769     0.3020245
   566   8 O        0.0072965     0.5480948     0.3895797
   567   8 O        0.8065877     0.5040201     0.3021869
   568   8 O        0.5442405     0.5410417     0.8999151
   569   8 O        0.4909945     0.6919513     0.8069811
   570   8 O        0.4595787     0.0050073     0.8980906
   571   8 O        0.3114455     0.8067794     0.8085667
   572   8 O        0.9937004     0.4531420     0.8982140
   573   8 O        0.1939941     0.5027085     0.8082441
   574   8 O        0.3109725     0.5112661     0.6927749
   575   8 O        0.9918870     0.5322678     0.5981577
   576   8 O        0.4982444     0.3033053     0.3018875
   577   8 O        0.5400600     0.0058254     0.5955941
   578   8 O        0.1953814     0.4958831     0.6969289
   579   8 O        0.1894286     0.6819390     0.6926273
   580   8 O        0.3015428     0.8041248     0.6975913
   581   8 O        0.4572055     0.0054301     0.6090490
   582   8 O        0.4938383     0.6945867     0.6951030
   583   8 O        0.5436377     0.5418498     0.6085882
   584   8 O        0.4616961     0.4584287     0.5954489
   585   8 O        0.4593596     0.9946420     0.1042459
   586   8 O        0.8081715     0.3061324     0.1976108
   587   8 O        0.0075088     0.4627583     0.1098120
   588   8 O        0.6948859     0.5000614     0.1983607
   589   8 O        0.4877330     0.8005358     0.6933844
   590   8 O        0.5081279     0.1972584     0.1951062
   591   8 O        0.5385781     0.5450126     0.1096918
   592  30 Zn       0.4344502     0.3323217     0.0922192
   593  30 Zn       0.6708513     0.1011581     0.0920630
   594  30 Zn       0.8999398     0.5656682     0.0937792
   595  30 Zn       0.4398334     0.1009961     0.4070222
   596  30 Zn       0.9010715     0.3380646     0.4065309
   597  30 Zn       0.3332723     0.4372810     0.9029677
   598  30 Zn       0.1010939     0.6658717     0.9011302
   599  30 Zn       0.5632644     0.8968610     0.9020526
   600  30 Zn       0.6635747     0.5625195     0.4077291
   601  30 Zn       0.1027688     0.4304917     0.5992139
   602  30 Zn       0.4383818     0.1022070     0.0975520
   603  30 Zn       0.5654985     0.6700842     0.5971046
   604  30 Zn       0.9011239     0.3343209     0.0999740
   605  30 Zn       0.6682157     0.5660163     0.0999527
   606  30 Zn       0.5596319     0.8954752     0.5906173
   607  30 Zn       0.3334440     0.4374675     0.5907203
   608  30 Zn       0.1043708     0.4342329     0.9068551
   609  30 Zn       0.3312948     0.8978848     0.9068808
   610  30 Zn       0.5654926     0.6701877     0.9093266
   611  30 Zn       0.8975607     0.5687686     0.3993760
   612  30 Zn       0.6730279     0.1024836     0.4007597
   613  30 Zn       0.4307028     0.3282017     0.4001416
   614  30 Zn       0.3263284     0.8972878     0.5983731
   615  30 Zn       0.0982755     0.6606982     0.5948633

 * volume of direct unit cell/Å³ = 11263.3859040

 * mass density of direct unit cell/g·cm⁻³ =     1.1761462


optimized geometry written to: xtbopt.poscar


           -------------------------------------------------
          | TOTAL ENERGY             -130.841633761399 Eh   |
          | GRADIENT NORM               0.043738723464 Eh/α |
           -------------------------------------------------
Note: The following floating-point exceptions are signalling: IEEE_UNDERFLOW_FLAG IEEE_DENORMAL
normal termination of xtb
########################################################################
[WARNING] Runtime exception occurred
-1- gfnff_setup: Could not read topology file.
########################################################################

------------------------------------------------------------------------
 * finished run on 2026/09/03 at 03:31:57.824     
------------------------------------------------------------------------
 total:
 * wall-time:     0 d,  0 h, 15 min,  5.061 sec
 *  cpu-time:     0 d,  0 h, 21 min, 52.781 sec
 * ratio c/w:     1.450 speedup
 SCF:
 * wall-time:     0 d,  0 h,  0 min, 17.624 sec
 *  cpu-time:     0 d,  0 h,  0 min, 28.789 sec
 * ratio c/w:     1.634 speedup
 ANC optimizer:
 * wall-time:     0 d,  0 h, 14 min, 36.328 sec
 *  cpu-time:     0 d,  0 h, 21 min, 10.212 sec
 * ratio c/w:     1.449 speedup

