 energy: -130.841633761399 gnorm: 0.043738723464 xtb: 6.7.1 (edcfbbe)
    1.00000000000000
   49.01823011965143   -0.15448735813194   -0.00372967394608
  -24.55535123577995   42.41909187103669    0.00616515810933
   -0.04875660313026    0.02203369671484   36.62179036094651
 C    Cl   H    N    O    Zn  
 240 18 146 126 61 24
Direct
    0.31709515094481    0.29528136377323    0.47752152054009
    0.97671219480028    0.29526379160763    0.47843983031938
    0.97175972628243    0.20134735812709    0.47401377414364
    0.94883436769544    0.23733010468222    0.45408899564266
    0.83105284719085    0.39623573128319    0.42061785236707
    0.99231875751052    0.36228590608540    0.28954262526734
    0.82699832276560    0.24470162119612    0.51041343296779
    0.83539943330358    0.22367480771357    0.62765703705127
    0.85773270863310    0.26227995521713    0.57263724222715
    0.32467784210894    0.03375551309583    0.47616044804385
    0.23671217753148    0.04053201233346    0.46811741746220
    0.29598032471892    0.06230223425579    0.45005492917424
    0.57544603446408    0.17986837671846    0.41832517593643
    0.75626352629098    0.60388056573917    0.56887892768207
    0.42051666998799    0.18271319206588    0.50380665413106
    0.40986119013244    0.15276444704447    0.56650043756791
    0.29697501659934    0.32198040530436    0.97301375418907
    0.20344074486462    0.23170448052338    0.97420356161392
    0.23773045485590    0.29080198532673    0.95331877912623
    0.38924262405823    0.56934164478342    0.91889932170381
    0.35535909370805    0.37967996095193    0.78179696373138
    0.24034456462120    0.41527233397571    0.00819591178727
    0.23126808160616    0.38991804674162    0.12736379895871
    0.26290821766248    0.40228384395765    0.06604391886338
    0.02815090797905    0.71203041894698    0.96979289966999
    0.03133470779848    0.80516456309881    0.97041845036975
    0.05528330024268    0.77074770915196    0.94826566586751
    0.39512924302348    0.17508572251877    0.62272061075781
    0.18010084894524    0.61872195214058    0.91676419990744
    0.79264354554465    0.61480557236603    0.62504558969917
    0.64808659595954    0.63195973427869    0.28975694982709
    0.28708140363438    0.23505944148419    0.03391914670928
    0.56714093770517    0.39114523265649    0.08089146057220
    0.37663801532146    0.36002676787264    0.21099967624686
    0.41650994320849    0.23135784360953    0.99693514523414
    0.39518506602042    0.21430278996017    0.87714944417940
    0.40533589768294    0.24982487532610    0.93387022211512
    0.71726417401156    0.02878275224333    0.01416212900931
    0.80617234025680    0.02379495977045    0.00870426785535
    0.77664087786909    0.05148237413643    0.03325184900783
    0.62375791814603    0.18069779219554    0.07717125368156
    0.64279965897295    0.01685550106375    0.20856660605845
    0.78052468544927    0.18801666901813    0.99697824129763
    0.77489734543083    0.59419769909723    0.50521081961708
    0.79718955322959    0.18406942119348    0.87724606846212
    0.97870518230687    0.68868039500188    0.01552433422567
    0.98052929184397    0.78114985113845    0.01249743492337
    0.95408133395399    0.72327800148695    0.03560861324717
    0.83048226978954    0.44314077088505    0.07974795602119
    0.99222980992509    0.63362775667399    0.21205961255459
    0.82459241959814    0.59055576455432    0.99812862297653
    0.83258922259926    0.61542943172684    0.87905712148695
    0.85505441710886    0.60146752808481    0.93585067293912
    0.71254069549781    0.68529074859600    0.48100750666767
    0.80672904265224    0.77470193503248    0.47840203758227
    0.77122799204884    0.71536028322903    0.45924667858030
    0.61491820632707    0.43877059313390    0.41973352994950
    0.76203355932701    0.15816398364908    0.93412273066626
    0.01799558416836    0.64675436795204    0.78423236720900
    0.17610479412998    0.76737596291461    1.00027151049668
    0.16059396138924    0.77241554069143    0.12033504924864
    0.92525949526700    0.46526533666568    0.08748506407241
    0.54995804593312    0.08624692372851    0.08513225577626
    0.44078916607984    0.33250775870566    0.24617911269854
    0.66512250457914    0.10746097729506    0.24338428353755
    0.90009648185539    0.56912807386176    0.24679160098447
    0.56260378691619    0.67754840925616    0.75347442648054
    0.33150090138205    0.89687302346124    0.75468467136908
    0.11152657095295    0.43871264369838    0.75451589111390
    0.33393081652349    0.44862784174537    0.74798962320691
    0.10878072377291    0.67083585234593    0.74800228623509
    0.55897172536700    0.89282021107535    0.74726976748444
    0.67447408949658    0.56684634806606    0.25520734731059
    0.54584710038196    0.46411683186578    0.08851699263191
    0.90132496628957    0.33833774474256    0.25411028834989
    0.44491288782940    0.21900536266377    0.39681082688198
    0.78932077643446    0.23569577039827    0.40457600619030
    0.78482129197035    0.57010592880115    0.39762260231968
    0.56508657471125    0.78730005559734    0.90527285007702
    0.22062045046291    0.78690959684939    0.89760794867128
    0.22377330521755    0.44292519464243    0.90556617812441
    0.22431490758216    0.44147298498331    0.59561545679625
    0.21650247980062    0.78008503718073    0.60496070367261
    0.56343907642943    0.78817888260995    0.59576603579400
    0.78823785337433    0.56674101725678    0.10516172467152
    0.79064455301681    0.22333219484473    0.10436974097457
    0.44279777139392    0.22213623191238    0.10390766414740
    0.45176047839106    0.11450335664303    0.25274187523500
    0.45770748005082    0.92257401628254    0.58730154272343
    0.08450984399624    0.53936553968099    0.58845688675201
    0.46336111516069    0.54984621576207    0.58650425754617
    0.14084414146863    0.74295355953088    0.05788894840495
    0.68848497476979    0.97844567170957    0.96913291996497
    0.77710555740435    0.97277289995847    0.96632161510911
    0.71821484469786    0.95010775319708    0.94598915299264
    0.44022715072290    0.82771216183617    0.92012421016285
    0.63074981302917    0.98271493289999    0.78012506753293
    0.59385029205281    0.83304542837851    0.00743199384981
    0.61956562944712    0.85010307727472    0.12645810185432
    0.60718944878577    0.86907319353862    0.06490474330600
    0.38945674642627    0.38960621175811    0.49396668171434
    0.62238675097807    1.00790592288520    0.49505409319632
    1.00254518542182    0.61693309580476    0.49564179219054
    0.61780256484972    0.62151084128447    0.00591572011781
    0.38946463743511    1.00206733367120    0.00594132084568
    0.01135934246422    0.39447867568416    0.00617884555403
    0.61740134976953    0.61983446428630    0.50520739880351
    0.38725392523456    1.00211438488011    0.50584434546384
    0.00604606963722    0.38979658522296    0.50543352751765
    0.39158208613942    0.38957400495523    0.99698118709057
    0.62316114841054    0.00711644188275    0.99673067033186
    1.00308710691555    0.61835353063396    0.99647991709827
    0.54197475716685    0.46013036347158    0.41236915883669
    0.55462168253777    0.08593538141291    0.41151532025899
    0.92561629271915    0.46991007629137    0.41329065643975
    0.46314846894627    0.54916758163607    0.91507244942816
    0.46115581111444    0.92219608461513    0.91567316052378
    0.08592022026271    0.54365101413383    0.91377698069713
    0.22862708202326    0.20412235336351    0.01272045892251
    0.32159846107331    0.29496662238456    0.01516851552796
    0.37978017600270    0.02643526571764    0.28959234623201
    0.16115744538093    0.38874210391531    0.37442561790260
    0.29463261260714    0.97756304935515    0.98729814604139
    0.20428863724645    0.97993086922550    0.99016135659320
    0.23515605585545    0.95307578825909    0.96734837936045
    0.38734470814745    0.82767084931242    0.92213884148324
    0.36123679621371    0.98935565083757    0.78912137492021
    0.23135993360971    0.82258916477421    0.00487348001599
    0.21504141635890    0.82640516290652    0.12484724246674
    0.25039228376565    0.85196755194153    0.06799970620250
    0.03087387067745    0.32057333080078    0.98741151017870
    0.02103466671536    0.22446858260200    0.98882485174770
    0.05127129465548    0.28276475050645    0.96636118706326
    0.18087586512418    0.56624224896830    0.91887912440950
    0.60692741537382    0.76006446584559    0.07343622975574
    0.01948357408197    0.37567528305297    0.79024432514381
    0.17718296920308    0.38998198426229    0.13075497969200
    0.15384762390128    0.40196745347682    0.07332879694563
    0.29500673498271    0.32398544947091    0.52090958431248
    0.20145188198240    0.23401039575855    0.52674645729074
    0.23695386651578    0.29364554256142    0.54480179816700
    0.38991150194186    0.57058121821462    0.58062773228455
    0.35387991398370    0.37975103079717    0.71100841788642
    0.23416272858986    0.41502947699044    0.48891110250432
    0.21617904398705    0.39077288375844    0.36941272463180
    0.25255262823207    0.40336129562448    0.42604206762842
    0.03399382540798    0.71154340726961    0.52379807107581
    0.04469948349157    0.80785275469550    0.52713989436271
    0.18546441180035    0.41509973709062    0.01133709459845
    0.61911225295115    0.79579464259818    0.13049952964506
    0.59386022227383    0.77827641770985    0.01121192622674
    0.63063386431627    0.65639623404276    0.79076162545993
    0.22406597388571    0.20495132570070    0.48645413953960
    0.28130935911490    0.23496763418507    0.46127495551480
    0.56168645350647    0.38593191628475    0.41688779561503
    0.37618519789189    0.35920997227331    0.28181121199848
    0.41619529374738    0.23496907858665    0.49866411898367
    0.39006983832640    0.22609385051618    0.61695028514487
    0.40077596509367    0.25640890204086    0.55543949101009
    0.71656722815575    0.02879559621518    0.48190431584002
    0.80508189659650    0.02333316550461    0.49167728229136
    0.77681636975685    0.05207650778671    0.46633834245534
    0.62842533125454    0.18036054719024    0.41385958535554
    0.63728478222997    0.01556389741654    0.27910427978076
    0.77370574533521    0.18873403611087    0.50472786577915
    0.78287957658784    0.16845404678207    0.62119266850310
    0.14184502459776    0.39934370943287    0.43669198300875
    0.98574515598783    0.69249045662476    0.47760094909396
    0.99527222652628    0.78830917697350    0.48426596011986
    0.96550760812856    0.73100081136437    0.45871752678222
    0.83106625181580    0.44906394070829    0.41695562058604
    0.99177766419848    0.63438721168743    0.28286195400503
    0.83073082600752    0.59657538466609    0.49946871843857
    0.84764982290653    0.61694001898892    0.61938796818251
    0.86707985060433    0.60814605104494    0.55636475713268
    0.68869557663887    0.71551285515353    0.98618408726946
    0.78236946348551    0.80562583188991    0.98819477703492
    0.72414037535644    0.77497015083312    0.96610218586930
    0.44222536567363    0.62245496119423    0.92129952002625
    0.06400242733246    0.76954439920548    0.54804660665465
    0.17896717250633    0.61362616768608    0.58228743582249
    0.75163180669629    0.15058558039362    0.56022434532911
    0.18160252067836    0.76723222317116    0.49707529582199
    0.41698529847860    0.17715790860162    0.00159056526459
    0.39512871148148    0.16024537650541    0.88175678226238
    0.40572044190134    0.14110025193544    0.94410628700911
    0.68973982159668    0.71390502516655    0.52346039954966
    0.78342757712886    0.80380703515039    0.51746107074473
    0.72553406576745    0.77401159686128    0.54065868428392
    0.44297731578325    0.62360678074139    0.58305004789846
    0.63079583470111    0.65506861561630    0.71997353316090
    0.59335682428612    0.77211539167392    0.49437153331749
    0.61909653456737    0.78035263838442    0.37542957489729
    0.60739357232241    0.74961886047949    0.43739077606041
    0.29452025418033    0.98445233971304    0.52198285072482
    0.57096861529652    0.18077830717798    0.08031901824113
    0.20623668838459    0.99024145139378    0.51092008673838
    0.38255262688360    0.82853310824507    0.58565317566295
    0.36017778798430    0.98879489443466    0.71830944212644
    0.23371370508936    0.82424208613841    0.50246457035446
    0.22609857567960    0.84114895209202    0.38381502920699
    0.25562186854133    0.86121636646597    0.44568399659848
    0.02608177295715    0.31654496618182    0.52371415221056
    0.02233147952120    0.22335903897663    0.51590803206803
    0.04964113516789    0.28044222441226    0.54154540002610
    0.17925717259235    0.56092071579896    0.58491088151892
    0.01918789884415    0.37509173874725    0.71940228368409
    0.17836459288123    0.41280296457645    0.49380029678573
    0.01730280079382    0.64574318147742    0.71341364522136
    0.23469753825293    0.96237256282822    0.53834127476367
    0.29085597173205    0.05571000166435    0.05326570945198
    0.37927500749596    0.02520187791076    0.21879013961914
    0.32195156288160    0.02825855875808    0.03195724372890
    0.17535653880011    0.78456421172866    0.37765695273104
    0.15246840953096    0.74742773605173    0.43396537844863
    0.68596778975889    0.97775299657144    0.52520988885924
    0.77407797401926    0.97134523483454    0.53177997075508
    0.71452587751253    0.94849065568437    0.54931839057118
    0.43490115270835    0.82755631237959    0.58298048534811
    0.62969117014508    0.98097660513699    0.70932910051227
    0.59159024682115    0.82594155143274    0.48971451844176
    0.61753234948739    0.83362476563471    0.37065807837949
    0.60436536232363    0.85686052078649    0.42718173768072
    0.71247437658047    0.68869911146249    0.02998675608584
    0.23214390626474    0.03177342821559    0.03149229565719
    0.77143859803913    0.71958607708239    0.05074249046010
    0.62002044498710    0.44432943666621    0.08392766286395
    0.80643187325562    0.77836520091003    0.02918598073348
    0.64897115166638    0.63229279109116    0.21894492211700
    0.87004271093998    0.26881891436154    0.94369809563692
    0.85085224391058    0.23883778710155    0.88146030587613
    0.99210866426452    0.36132978792247    0.21874318910001
    0.83085729969277    0.39049135599764    0.08289406248333
    0.95154280393634    0.24102782610931    0.05450305715779
    0.83499977631952    0.24396284024932    0.00140283364059
    0.98202374239789    0.29995244341212    0.03340025476115
    0.74984334396216    0.60793936074573    0.94497376497284
    0.78096846048095    0.61946117736428    0.88403306509107
    0.77146368890972    0.59338064811335    0.00231993734025
    0.97097426874028    0.20352095757103    0.03128268282342
    0.63525160242570    0.89429028109316    0.19791064482424
    0.93603075113717    0.12827398488434    0.44864522907609
    0.81446382131951    0.93747517566875    0.94061927855599
    0.06666444124739    0.87918326072740    0.94898611653541
    0.25979599432069    0.37472146104174    0.19925720266648
    0.12868313195308    0.19388366815521    0.95640797895431
    0.20101439539653    0.07689917166801    0.43965049154431
    0.88071453168427    0.81166379308183    0.45680719852031
    0.11716807860741    0.74121911258987    0.19183720352585
    0.63489404518124    0.75143578128553    0.30442447396927
    0.38205557989143    0.11634619012957    0.81055485565523
    0.19404054401789    0.06738144572126    0.05301442105704
    0.89426637507471    0.26989732557638    0.80994481038462
    0.88018083431632    0.81686252078213    0.05171990266664
    0.80939753018125    0.93393005350004    0.55734937988927
    0.12840160597651    0.19627092081848    0.55214032208949
    0.89204838502821    0.62963185358194    0.69019283340733
    0.11668216840802    0.37392106076705    0.30326863835069
    0.78946582613816    0.69271224554031    0.43085633192163
    0.65928448036956    0.44519692035883    0.41591228726808
    0.63638836442769    0.65786511458210    0.32282516344608
    0.77892831679882    0.62103484594979    0.67513334967371
    0.71426774558806    0.60252634713359    0.57277028674239
    0.90974353499109    0.22018047692760    0.42215709474869
    0.79326683077223    0.35160713892876    0.41662126869364
    0.31938340468298    0.10129967571669    0.41822296342114
    0.85941017170641    0.23316729352397    0.67565182704052
    0.89933282724126    0.30356985611676    0.57542245694505
    0.89562022509461    0.59988591597971    0.93345744449339
    0.56845828990432    0.21736201528547    0.41599324152230
    0.34794157769904    0.99298078268628    0.32416332230170
    0.38729339778554    0.15370369483105    0.67242413112387
    0.02937158267083    0.37271970406847    0.32262053522882
    0.85451705591157    0.62378904920401    0.82970912986784
    0.96172785396224    0.80865693450566    0.02522535317375
    0.79245745119464    0.44930624605182    0.08393520969357
    0.09911325359779    0.39631174990392    0.44040588252412
    0.20110133792584    0.15740413422023    0.02476094531877
    0.30697470958676    0.21414497481422    0.06283835636932
    0.56064554780726    0.34674303368025    0.08463204711950
    0.35134236557189    0.37238305265381    0.17764755947123
    0.38791548604807    0.22791028185282    0.82741796528365
    0.40503229272185    0.29104478133608    0.93085418727949
    0.85270991991870    0.04163682497526    0.02078620165701
    0.79875312346832    0.09048962580126    0.06540213033286
    0.66832470425550    0.21843106960762    0.08234238056370
    0.63913783811076    0.98173895870776    0.17558608135513
    0.78351176555187    0.16290755489902    0.82770656413086
    0.72121605392959    0.11594154100977    0.93146512668234
    0.41236929329978    0.11271616702898    0.56969149548181
    0.91458503218375    0.70387699543645    0.06701390067843
    0.02966016763500    0.65933447441821    0.17839458461239
    0.21812852302246    0.31253680261477    0.92555259814096
    0.09541439874515    0.78995651053129    0.91807440345725
    0.36522203521363    0.35229876958188    0.81490044057491
    1.00338803793985    0.57698963074465    0.99903414526926
    0.46639124195380    0.22883571386570    0.34713346447312
    0.77998775929562    0.24684138325212    0.35424244046548
    0.77179887999662    0.54814387685221    0.34828392169170
    0.54294528013957    0.77449083540946    0.85595660293066
    0.23349160004133    0.77800814913338    0.84824603071958
    0.58251117839964    0.00876574416740    0.99993368701867
    0.23322987661026    0.46477380425124    0.85608080611560
    0.22563930774917    0.76865308827513    0.65515117639190
    0.54123359610438    0.77858186106724    0.64503185736799
    0.77886528015531    0.54563936340576    0.15507314004246
    0.77763780553752    0.23146453972178    0.15411356226796
    0.46499575978286    0.23538895675592    0.15313003413173
    0.98165643662664    0.35165793677774    0.68571013621970
    0.23687451513490    0.46311515080010    0.64521249335579
    0.43357495126048    0.43103278086202    0.99869078350868
    0.00867522319824    0.43261081827380    0.50751204804082
    0.42648768232411    0.99795733404677    0.50867518107575
    0.30351391245982    0.40086682883526    0.06346186542579
    0.21741961802801    0.66329855968589    0.90964951564495
    0.98142990639595    0.63545365009008    0.81906757853002
    0.09844212521268    0.70251753836729    0.05439766825961
    0.69567256042201    0.91035304194575    0.91528386089437
    0.44648337171033    0.78991831830573    0.91342084906253
    0.66012719385529    0.01957093141827    0.81282981132284
    0.60915012761436    0.91135409628789    0.06190879943912
    0.43218064370168    0.43016432567971    0.49186987941756
    0.58210643132480    0.00993579001659    0.49029362987118
    0.99890804213231    0.57368972997032    0.49306902849597
    0.57562318194748    0.58024867744818    0.00449371085943
    0.43096959875838    1.00203939151239    0.00318896110435
    0.01295390124537    0.43675899057956    0.00322076308840
    0.57459300103734    0.57931147893842    0.50638556847166
    0.34502321165330    0.56275965153137    0.91206468988545
    0.21720098933431    0.55494725300855    0.59194760859550
    0.66434072978535    0.45107495822085    0.09027165225691
    0.04045939703792    0.19487859713947    0.52672793184282
    0.66022158675204    0.65144576891157    0.82558089527596
    0.62781688081885    0.78236285381877    0.17975723213437
    0.60727015900359    0.71883185960816    0.07540739793017
    0.15783720583283    0.96130585172838    0.97741328286435
    0.21447081669031    0.91336090171960    0.93627666418781
    0.34281159598074    0.78986118409318    0.91721890963619
    0.44881612878470    0.66683380749872    0.91662869544013
    0.37443159148900    0.02724522867169    0.82231791224529
    0.29187496397264    0.89353271621257    0.07097374325087
    0.03588716407269    0.19402095544174    0.97428224578026
    0.08976249298282    0.29937587810870    0.93354440729492
    0.21904099688906    0.56040956782251    0.91370515860627
    0.98214589007225    0.35080109901660    0.82431548945706
    0.15466444307730    0.38107828124316    0.17976391631475
    0.22922037087558    0.84700071175952    0.17462993925118
    0.70527031432040    0.79573964371597    0.93508399636364
    0.81068930632617    0.85194145991315    0.97489257359940
    0.90975850949041    0.61116168557508    0.55216978825334
    0.08909506205178    0.29813695211474    0.57298495376888
    0.19573973149736    0.15800440494876    0.47642199533189
    0.29932431719875    0.21285854773045    0.43135335490962
    0.55487976250829    0.34159749244981    0.41059741743782
    0.35207142271218    0.37235903007934    0.31591988875834
    0.39551267113403    0.29477545683458    0.55145690950039
    0.85177367197047    0.04060296219418    0.48137867800089
    0.80022868350433    0.09215496424821    0.43611230814133
    0.67228613777524    0.21875982100678    0.40775283463813
    0.62366192261275    0.97776619363324    0.31301384218452
    0.71231468581141    0.10749586304955    0.55442438931065
    0.98030155304807    0.81911699819899    0.47168913011570
    0.92720006260561    0.71548535513665    0.42568519991089
    0.79321473532444    0.45518720450715    0.40969820635183
    0.02873933031096    0.65880495335418    0.31705028206530
    0.11202928720361    0.40115078185386    0.07477717429873
    0.21933516797527    0.31605849926536    0.57476556905322
    0.72322435394996    0.07101024038979    0.36748307810261
    0.35830946110466    0.34979681906050    0.67639393784190
    0.91196095749720    0.30982823715447    0.94698544017175
    0.31237893206763    0.09598733003918    0.08320868890772
    0.56484368732571    0.21865591537505    0.08710021321924
    0.34989532682667    0.98882115954295    0.18551656542357
    0.40399861909462    0.09897551681822    0.94767524266902
    0.81183967420971    0.85061295501934    0.52820292807920
    0.70711309188923    0.79609999416059    0.56989954166436
    0.44949419932169    0.66778420398929    0.58990041173142
    0.65782107478593    0.64470225612654    0.68703177474091
    0.60994249763057    0.70965611437971    0.44095841804580
    0.15933138391576    0.97254397576732    0.52064521372529
    0.33802805014243    0.79132147763479    0.59320389801594
    0.37418540229261    0.02612348231484    0.68366735167961
    0.29355785966989    0.90533915461550    0.45001441628206
    0.34550037177275    0.56389198948159    0.58527193850665
    0.02897274753116    0.37288449889221    0.18428141879136
    0.79332459196739    0.34605042016936    0.08999370724058
    0.21130795899296    0.92333658480462    0.57028334217002
    0.71114655875522    0.61266619583668    0.94842519196662
    0.91176270870537    0.22394384049554    0.08510158863615
    0.29442049846611    0.40436037430866    0.42322335127954
    0.22963632134196    0.38296451279909    0.31975314571076
    0.21654941025430    0.65833052917916    0.58703075173019
    0.98016431428933    0.63521746562355    0.68045758991533
    0.15451996334351    0.77077694783526    0.32769691800953
    0.11261115760162    0.70444037141729    0.43051444392868
    0.10287223534901    0.78522615175384    0.58009406003412
    0.44064789101961    0.78933860950623    0.58845876626341
    0.66048745497440    0.01465056793733    0.67417935560346
    0.62616992231491    0.85556850220163    0.32125201442571
    0.60378586514142    0.89796302581451    0.42454940797193
    0.79023653100296    0.69792267195863    0.08017668565960
    0.69066359871751    0.90804378783102    0.57873322680379
    0.63656689061723    0.65690234472886    0.18451997575077
    0.75201033862666    0.14521357463499    0.32962667585105
    0.42488848266188    0.08182476017150    0.31024730848185
    0.43797556839268    0.17404250804224    0.43847050701971
    0.34286830948829    0.38120145964935    0.96263849553412
    0.40275604586378    0.52430144397525    0.91551171702390
    0.04131373767088    0.66632716844608    0.95921343205951
    0.26221960840163    0.43229965310104    0.94072620984418
    0.07504687187138    0.66278092590101    0.80496883822496
    0.17139164138834    0.74735439067340    0.93210459482182
    0.53001156231867    0.12126839388992    0.41688112351564
    0.62998335435844    0.96720234246649    0.95972810323786
    0.34237754014314    0.42233581299870    0.80430365792546
    0.38251402614077    0.04287016227422    0.46760124860480
    0.66540598139316    0.62675448279936    0.47065976280466
    0.93574814871519    0.34776495704208    0.31105941926258
    0.88973081106619    0.40971341847744    0.41841867165643
    0.96646135072151    0.34301147920343    0.46829214228995
    0.74802827046895    0.57813935765623    0.44025747326569
    0.66427213963448    0.59138492251230    0.31188588261353
    0.60221056092011    0.48442130017690    0.41716858616890
    0.83396263442217    0.57496998265724    0.06417998589914
    0.88909317814942    0.48903605524449    0.08246645101682
    0.96504948555854    0.63059963672731    0.03094313342796
    0.75479533033145    0.17714012863433    0.06243564547693
    0.66030823809944    0.07409124520434    0.18697728841491
    0.61023932684100    0.12197606421732    0.07997176612840
    0.48557475835106    0.88645837963367    0.91650160887170
    0.83584097294568    0.27205170256395    0.44571782129160
    0.58686734391769    0.92748509848185    0.80317399221143
    0.51616746127431    0.69256566672734    0.75235882858353
    0.51104663957976    0.49264453328131    0.40022745886405
    0.07938663635919    0.87010855797547    0.54807372632367
    0.93498279654866    0.14026482141419    0.04735784172977
    0.37002858339647    0.24697310890551    0.67499133482265
    0.76151957021080    0.12503750369826    0.67688174232037
    0.24777531648590    0.88230435592241    0.32578896652698
    0.76066780562756    0.64016790009317    0.82597852268823
    0.49853503480816    0.17624014953756    0.25149013663214
    0.84014411164810    0.32514732870547    0.25257354366053
    0.68876038023345    0.51977604978223    0.25485828629281
    0.51203884066790    0.83123949680926    0.74907631767105
    0.17046261153426    0.68577398272853    0.74844479135622
    0.31919393069397    0.49527036768150    0.74903431709930
    0.17336726188805    0.48520811663185    0.75344713259839
    0.31627854084203    0.83515373318153    0.75453146261293
    0.67478214927639    0.04474159296715    0.03021045230359
    0.83817978867253    0.52252512366264    0.24737980091182
    0.69078199806535    0.17153973434868    0.24371062381660
    0.48784276288342    0.31822218888976    0.24686072155769
    0.51801070874012    0.02273301822806    0.09824953213835
    0.98879220309438    0.49782728986057    0.10054294537454
    0.51357948796983    0.49522516265142    0.10090300334853
    0.49113717652316    0.98633576604173    0.59844609598401
    0.02075745659617    0.50751803801754    0.59986118960146
    0.49486009973700    0.51786920488967    0.59820925636894
    0.02221978721100    0.51083096590858    0.90195697904152
    0.49312068729638    0.98584345256856    0.90365021517190
    0.49506432292817    0.51772299809722    0.90280532176073
    0.98930526375560    0.50072814250903    0.40148973206323
    0.52102132972640    0.02205929704445    0.40345867315111
    0.57602373442917    0.83673680064767    0.93986874200960
    0.43234357245319    0.25800644704592    0.06226120430120
    0.12112048999741    0.60415261630045    0.91404169525451
    0.52150747375068    0.40387128484282    0.08357693028414
    0.26095589228826    0.43250398582939    0.55385826995216
    0.34058954462302    0.42260018953370    0.69040891323792
    0.40307073689184    0.52523081631240    0.58246564272337
    0.34210903070359    0.38273233289229    0.52999069456524
    0.17659103215068    0.43187565014218    0.94586342340959
    0.07704188223557    0.41502363158772    0.81164280496647
    0.12237056518924    0.52007972503274    0.91727302258102
    0.04743505847167    0.37972728972163    0.97175194351235
    0.25708669553100    0.83295499531812    0.93939234707961
    0.34301195466265    0.93204744841892    0.81125494496084
    0.40082685726097    0.88636667548114    0.91949670946594
    0.33848694414935    0.96329752044238    0.97208659843333
    0.57629636758990    0.75151071784592    0.94603682445401
    0.58833463916417    0.67045134780740    0.81114516979473
    0.48768122409043    0.60945380577896    0.91918896080924
    0.62980425654592    0.67186865069092    0.97222644397619
    0.83507050035463    0.58171032049785    0.43105215632329
    0.93423650069415    0.59468484984119    0.30366982995880
    0.88984875756692    0.49434955385171    0.41298745959359
    0.96775972776063    0.63318238082904    0.46102423087984
    0.75189638686468    0.18470160141663    0.43782302065002
    0.65229725283124    0.07233499604882    0.30038746509112
    0.61507738118070    0.12180154754041    0.40978135449560
    0.67496496385785    0.04548446005816    0.46367926447176
    0.43136826572905    0.25595519187384    0.43088697503612
    0.41568287987833    0.34145423142450    0.30308776244801
    0.51679276851962    0.39963673294219    0.41275958839387
    0.37589301131197    0.33800284842207    0.46163505067627
    0.41660609966009    0.34299476782288    0.18926576573835
    0.04246811739098    0.66284190979165    0.53375306955495
    0.12013187822784    0.59968242362545    0.58434321452792
    0.93512155426580    0.59329895575651    0.19014923849615
    0.17206737838443    0.74159247814814    0.56292025013633
    0.38029757916138    0.33891013775316    0.02931935080217
    0.07389472290983    0.66092802714353    0.69141811608159
    0.17403747423341    0.42907154217057    0.56175547260455
    0.07674191348524    0.41395771280881    0.69785821703977
    0.12058265759070    0.51531342289447    0.58826875151431
    0.04247929299691    0.37526819410934    0.53965226887434
    0.25397714683011    0.83048202331254    0.57059891076529
    0.34103659322877    0.93103340373982    0.69757700151187
    0.39715214816492    0.88755203579925    0.58795997015460
    0.57604538028965    0.75057314046767    0.56191807583879
    0.58873488219182    0.66890936815710    0.69726489374665
    0.48813812522263    0.61024230366424    0.58627474458132
    0.63054447625257    0.67123769133075    0.53772750606208
    0.43313923104992    0.17298085610940    0.06954791020899
    0.33538971846595    0.96659533724913    0.53935714781757
    0.52563671968590    0.12208315042668    0.08473873402795
    0.62743673224998    0.96691947934988    0.53233265155078
    0.42387962521641    0.08034245152658    0.19654077961438
    0.58509198672956    0.92514889598322    0.68933028553794
    0.57327169964152    0.83447596695222    0.55439511593093
    0.66616558281599    0.62985798637055    0.04104437434805
    0.60630724762492    0.48919401586325    0.08817377048633
    0.66590561607076    0.59211892988191    0.19809138584267
    0.48114944865909    0.88601953641641    0.58362193074755
    0.97167177404768    0.34735550571482    0.04367956244495
    0.38097072750526    0.04122720600613    0.04224327584329
    0.88972832293988    0.40484359417590    0.08721780194882
    0.93535420587452    0.34597729509742    0.19754112566959
    0.83943024635468    0.26362662373960    0.06971888643167
    0.75024571529351    0.57823259156902    0.07003858116238
    0.99579407834904    0.53901378611841    0.89655727184538
    0.31159869000204    0.51248017655531    0.80547724352658
    0.46608508285932    0.46290876820030    0.89551611132887
    0.51948084511169    0.20154004719967    0.30698678385875
    0.46640847129207    0.99619918814126    0.41262736212146
    0.01524519440255    0.47199544360928    0.40572946174629
    0.69139879300576    0.49801608015060    0.31048058507891
    0.53976246811756    0.54777055143531    0.40313228003129
    0.81407675092673    0.49878003370080    0.19227307432022
    0.01477242910287    0.55297994593467    0.10112323829240
    0.19700490992336    0.69704341852762    0.80421767074228
    0.81614449746160    0.32581562555650    0.30722891727971
    0.54821430870103    0.01204036335877    0.89914511785675
    0.76021541646767    0.10788458966841    0.33683387208301
    0.76486166178375    0.62453126882187    0.76718469067725
    0.73986061910565    0.67281807514852    0.83821821550796
    0.26865392671517    0.93596920369651    0.33783098097950
    0.24482200142232    0.86244652275061    0.26722045613624
    0.76529674323602    0.14260589192100    0.73661217918273
    0.74067597296797    0.07176735609317    0.66265702818112
    0.38212431612950    0.23879687003531    0.73411380128284
    0.34143904948718    0.27221896533626    0.66246281483966
    0.94779510650424    0.10489480559690    0.02052389682564
    0.89179363152553    0.12398613819452    0.08647495505099
    0.06686634921816    0.90650397318926    0.52344387815376
    0.12113734720691    0.88458381729194    0.58903797685288
    0.69333815226594    0.19711366934634    0.18890586525413
    0.49551980561489    0.80658131256356    0.80580031989806
    0.54654862849771    0.99642387176110    0.10227281605475
    0.99578081543789    0.45356973216809    0.61356323501827
    0.45841616549853    0.46600912000365    0.10255783650168
    0.45692289771527    0.46411011059380    0.38772314094905
    0.50993628354020    0.31588293949831    0.19144173360819
    0.54764943802597    0.99535762096826    0.38835961372052
    0.71082269660498    0.19836351799671    0.29863953318172
    0.01517170403252    0.55464186864980    0.38743330740719
    0.81140575295797    0.50847901889644    0.30300999006038
    0.55019101970670    0.54674563918622    0.90034085403527
    0.49567233879934    0.69713969000927    0.80796173753770
    0.46439547476755    0.01190832997089    0.89862530188981
    0.31413616339442    0.81092105594016    0.81013559265670
    0.99684921021883    0.45578713428952    0.89857410281969
    0.19848891503973    0.50688618903086    0.80882587798098
    0.31418602710722    0.51551952696259    0.69333476498662
    0.99386569365695    0.53531594722546    0.59567806357574
    0.50393379758298    0.30839516665999    0.30288375491574
    0.54623702937287    0.01249271123896    0.59399561887820
    0.19881078612802    0.50121230957024    0.69713166244771
    0.19459921475021    0.68733940292593    0.69305390064195
    0.30558570719936    0.80877430686174    0.69877168040078
    0.46351653121608    0.01245651527378    0.61172266300712
    0.49937245630259    0.70085544515394    0.69595718903213
    0.54896010426670    0.54684462314605    0.61076605396146
    0.46665244672257    0.46275919877174    0.59490589454118
    0.46306552262531    0.99686113062860    0.10467625266726
    0.81391238624545    0.31314850864416    0.19655114420226
    0.01450863507135    0.46933585312817    0.10972976294811
    0.69832792582488    0.50343144208556    0.19893731060205
    0.49098139829968    0.80564833676764    0.69373424218509
    0.51507605181388    0.20155752120038    0.19511016137671
    0.54229110611750    0.54996859336985    0.10907786639652
    0.43858505041578    0.33518568114295    0.09229065464382
    0.67742688196950    0.10658530113631    0.09120864949407
    0.90547403822236    0.57139454219476    0.09416108754394
    0.44665167480215    0.10485914723730    0.40884289321060
    0.90687362465678    0.34424711245151    0.40717680292536
    0.33779324209495    0.44077612584861    0.90323648568085
    0.10417111353484    0.66955586101817    0.90043897652701
    0.56813227049826    0.90384859434964    0.90164864452620
    0.66946569454178    0.56807184948935    0.40912579463355
    0.10517208164640    0.43326166808915    0.60100758845700
    0.44320315348126    0.10523302516704    0.09928343839176
    0.57146738684472    0.67621099665487    0.59841538047526
    0.90728283883454    0.34049246167349    0.10204370544018
    0.67343585802048    0.57190142530552    0.10095464398966
    0.56458452868379    0.90218172649237    0.59019151207881
    0.33714000153707    0.44154714613373    0.59085771581910
    0.10772645927699    0.43762908118808    0.90802029777512
    0.33436202002557    0.90250920202040    0.90801690106680
    0.57097981606859    0.67657427270505    0.91051634529029
    0.90488898072161    0.57607146298969    0.39934495090246
    0.68336024346779    0.10824030485900    0.39637102137544
    0.43404631413510    0.33150382505336    0.40059234730173
    0.32983635474520    0.90269238501408    0.60058053136213
    0.10302857442370    0.66497680435510    0.59573978432835
