# cnIm025_mIm075__closed
1.000000
 33.9819999999999993   0.0000000000000000         0.0000000000
  0.0000000000000021  33.9819999999999993         0.0000000000
  0.0000000000000021   0.0000000000000021        33.9820000000
C C H C N Zn C C H C N Zn C C H N C C H C H H H N C C H C N Zn C C H N Zn C C H C H H H N C C H C H H H N C C H C N Zn C C H C H H H N Zn C C H C N Zn C C H C H H H N Zn C H N C H H H H N C H N C H H H H N C H H H H N Zn C H N Zn C H H H H N Zn C H N C H N Zn C H N C H H H H N C H N C C H C H H H N C C H C N C C H C H H H N C C H C H H H N C C H N C C H N C C H C N C C H C N C C H N C C H N C C H C N C C H C H H H N C H N C H N C H N C H H H H N C H H H H N C H H H H N C H N C H N C H H H H N C H N C H N C H N N C N C N C N C N C N C 
8 8 8 8 8 8 8 8 8 8 8 8 8 8 8 8 8 8 8 8 8 8 8 8 8 8 8 8 8 8 8 8 8 8 8 8 8 8 8 8 8 8 8 8 8 8 8 8 8 8 8 8 8 8 8 8 8 8 8 8 8 8 8 8 8 8 8 8 8 8 8 8 8 8 8 8 8 8 8 8 8 8 8 8 8 8 8 8 8 8 8 8 8 8 8 8 8 8 8 8 8 8 8 8 8 8 8 8 8 8 8 8 8 8 8 8 8 8 8 8 8 8 8 8 8 8 8 8 8 8 8 8 8 8 8 8 8 8 8 8 8 8 8 8 8 8 8 8 8 8 8 8 8 8 8 8 8 8 8 8 8 8 8 8 8 8 8 8 8 8 8 8 8 8 8 8 8 8 8 8 8 8 8 8 8 8 8 8 8 8 8 8 8 8 8 8 8 8 8 8 8 8 8 8 8 8 8 8 8 8 8 8 8 8 8 8 8 8 8 8 8 8 8 8 8 8 8 8 8 8 8 8 8 8 8 8 8 8 8 8 8 8 8 8 8 8 8 8 8 8 8 8 8 8 8 8 8 8 8 8 8 8 8 8 
Direct
0.1885250000000000 0.0039500000000000 0.3114750000000000
0.1885250000000000 0.0039500000000000 0.8114749999999999
0.1885250000000000 0.5039500000000000 0.3114750000000000
0.1885250000000000 0.5039500000000000 0.8114749999999999
0.6885250000000001 0.0039500000000000 0.3114750000000000
0.6885250000000001 0.0039500000000000 0.8114749999999999
0.6885250000000001 0.5039500000000000 0.3114750000000000
0.6885250000000001 0.5039500000000000 0.8114749999999999
0.1842550000000000 0.4495700000000000 0.3437500000000000
0.1842550000000000 0.4495700000000000 0.8437500000000000
0.1842550000000000 0.9495699999999999 0.3437500000000000
0.1842550000000000 0.9495699999999999 0.8437500000000000
0.6842550000000001 0.4495700000000000 0.3437500000000000
0.6842550000000001 0.4495700000000000 0.8437500000000000
0.6842550000000001 0.9495699999999999 0.3437500000000000
0.6842550000000001 0.9495699999999999 0.8437500000000000
0.1888500000000000 0.4294500000000000 0.3617000000000000
0.1888500000000000 0.4294500000000000 0.8617000000000000
0.1888500000000000 0.9294499999999999 0.3617000000000000
0.1888500000000000 0.9294500000000000 0.8617000000000000
0.6888500000000000 0.4294500000000000 0.3617000000000000
0.6888500000000001 0.4294500000000000 0.8617000000000000
0.6888500000000000 0.9294499999999999 0.3617000000000000
0.6888500000000000 0.9294500000000000 0.8617000000000000
0.2030499999999999 0.0427500000000000 0.2969500000000000
0.2030499999999999 0.0427500000000000 0.7969499999999999
0.2030499999999999 0.5427500000000000 0.2969500000000000
0.2030499999999999 0.5427500000000000 0.7969499999999999
0.7030500000000000 0.0427500000000000 0.2969500000000000
0.7030500000000000 0.0427500000000000 0.7969499999999999
0.7030500000000000 0.5427500000000000 0.2969500000000000
0.7030500000000000 0.5427500000000000 0.7969499999999999
0.2048650000000000 0.4841600000000000 0.3413900000000000
0.2048650000000000 0.4841599999999999 0.8413900000000001
0.2048650000000000 0.9841599999999999 0.3413900000000000
0.2048650000000000 0.9841599999999999 0.8413900000000001
0.7048650000000000 0.4841600000000000 0.3413900000000000
0.7048650000000000 0.4841599999999999 0.8413900000000001
0.7048650000000000 0.9841599999999999 0.3413900000000000
0.7048650000000000 0.9841599999999999 0.8413900000000001
0.2500000000000000 0.0000000000000000 0.3750000000000000
0.2500000000000000 0.0000000000000000 0.8750000000000000
0.2500000000000000 0.5000000000000000 0.3750000000000000
0.2500000000000000 0.5000000000000001 0.8750000000000000
0.7500000000000000 0.0000000000000000 0.3750000000000000
0.7500000000000001 0.0000000000000000 0.8750000000000000
0.7500000000000000 0.5000000000000000 0.3750000000000000
0.7500000000000001 0.5000000000000001 0.8750000000000000
0.0039500000000000 0.3114750000000000 0.1885250000000000
0.0039500000000000 0.3114750000000000 0.6885250000000001
0.0039500000000000 0.8114749999999999 0.1885250000000000
0.0039500000000000 0.8114749999999999 0.6885250000000001
0.5039500000000000 0.3114750000000000 0.1885250000000000
0.5039500000000000 0.3114750000000000 0.6885250000000001
0.5039500000000000 0.8114749999999999 0.1885250000000000
0.5039500000000000 0.8114749999999999 0.6885250000000001
0.4495700000000000 0.3157450000000000 0.1562500000000000
0.4495700000000000 0.3157450000000000 0.6562500000000000
0.4495700000000000 0.8157449999999999 0.1562500000000000
0.4495700000000000 0.8157449999999999 0.6562500000000000
0.9495699999999999 0.3157450000000000 0.1562500000000000
0.9495699999999999 0.3157450000000000 0.6562500000000000
0.9495699999999999 0.8157449999999999 0.1562500000000000
0.9495699999999999 0.8157449999999999 0.6562500000000000
0.4294500000000000 0.3111500000000000 0.1383000000000000
0.4294500000000000 0.3111500000000000 0.6383000000000000
0.4294500000000000 0.8111500000000000 0.1383000000000000
0.4294500000000000 0.8111500000000000 0.6383000000000000
0.9294499999999999 0.3111500000000000 0.1383000000000000
0.9294499999999999 0.3111500000000000 0.6383000000000000
0.9294499999999999 0.8111500000000000 0.1383000000000000
0.9294499999999999 0.8111500000000000 0.6383000000000000
0.0427500000000000 0.2969500000000000 0.2030500000000000
0.0427500000000000 0.2969500000000000 0.7030500000000000
0.0427500000000000 0.7969499999999999 0.2030500000000000
0.0427500000000000 0.7969499999999999 0.7030500000000000
0.5427500000000000 0.2969500000000000 0.2030500000000000
0.5427500000000000 0.2969500000000000 0.7030500000000000
0.5427500000000000 0.7969499999999999 0.2030500000000000
0.5427500000000000 0.7969499999999999 0.7030500000000000
0.4841600000000000 0.2951350000000000 0.1586100000000000
0.4841599999999999 0.2951350000000000 0.6586100000000000
0.4841599999999999 0.7951349999999999 0.1586100000000000
0.4841599999999999 0.7951349999999999 0.6586100000000000
0.9841599999999999 0.2951350000000000 0.1586100000000000
0.9841599999999999 0.2951350000000000 0.6586100000000000
0.9841599999999999 0.7951349999999999 0.1586100000000000
0.9841599999999999 0.7951349999999999 0.6586100000000000
0.0000000000000000 0.2500000000000000 0.1250000000000000
0.0000000000000000 0.2500000000000000 0.6250000000000000
0.0000000000000000 0.7500000000000000 0.1250000000000000
0.0000000000000000 0.7500000000000000 0.6250000000000000
0.5000000000000000 0.2500000000000000 0.1250000000000000
0.4999999999999999 0.2500000000000000 0.6250000000000000
0.4999999999999999 0.7500000000000000 0.1250000000000000
0.4999999999999999 0.7500000000000000 0.6250000000000000
0.3114750000000000 0.4960500000000000 0.3114750000000000
0.3114750000000000 0.4960499999999999 0.8114749999999999
0.3114750000000000 0.9960499999999999 0.3114750000000000
0.3114750000000000 0.9960499999999999 0.8114749999999999
0.8114749999999999 0.4960500000000000 0.3114750000000000
0.8114749999999999 0.4960499999999999 0.8114749999999999
0.8114749999999999 0.9960499999999999 0.3114750000000000
0.8114749999999999 0.9960499999999999 0.8114749999999999
0.3157450000000000 0.0504300000000000 0.3437500000000000
0.3157450000000000 0.0504300000000000 0.8437500000000000
0.3157450000000000 0.5504299999999999 0.3437500000000000
0.3157450000000000 0.5504299999999999 0.8437500000000000
0.8157449999999999 0.0504300000000000 0.3437500000000000
0.8157449999999999 0.0504300000000000 0.8437500000000000
0.8157449999999999 0.5504299999999999 0.3437500000000000
0.8157449999999999 0.5504299999999999 0.8437500000000000
0.3111500000000000 0.0705500000000000 0.3617000000000000
0.3111500000000000 0.0705500000000000 0.8617000000000000
0.3111500000000000 0.5705500000000000 0.3617000000000000
0.3111500000000000 0.5705500000000001 0.8617000000000000
0.8111500000000000 0.0705500000000000 0.3617000000000000
0.8111500000000001 0.0705500000000000 0.8617000000000000
0.8111500000000000 0.5705500000000000 0.3617000000000000
0.8111500000000001 0.5705500000000001 0.8617000000000000
0.2951350000000000 0.0158400000000000 0.3413900000000000
0.2951350000000000 0.0158400000000000 0.8413900000000001
0.2951350000000000 0.5158400000000000 0.3413900000000000
0.2951350000000000 0.5158400000000000 0.8413900000000001
0.7951349999999999 0.0158400000000000 0.3413900000000000
0.7951349999999999 0.0158400000000000 0.8413900000000001
0.7951349999999999 0.5158400000000000 0.3413900000000000
0.7951349999999999 0.5158400000000000 0.8413900000000001
0.4960500000000000 0.1885250000000000 0.1885250000000000
0.4960499999999999 0.1885250000000000 0.6885250000000001
0.4960499999999999 0.6885250000000001 0.1885250000000000
0.4960499999999999 0.6885250000000001 0.6885250000000001
0.9960499999999999 0.1885250000000000 0.1885250000000000
0.9960499999999999 0.1885250000000000 0.6885250000000001
0.9960499999999999 0.6885250000000001 0.1885250000000000
0.9960499999999999 0.6885250000000001 0.6885250000000001
0.0504300000000000 0.1842550000000000 0.1562500000000000
0.0504300000000000 0.1842550000000000 0.6562500000000000
0.0504300000000000 0.6842550000000001 0.1562500000000000
0.0504300000000000 0.6842550000000001 0.6562500000000000
0.5504299999999999 0.1842550000000000 0.1562500000000000
0.5504299999999999 0.1842550000000000 0.6562500000000000
0.5504299999999999 0.6842550000000001 0.1562500000000000
0.5504299999999999 0.6842550000000001 0.6562500000000000
0.0705500000000000 0.1888500000000000 0.1383000000000000
0.0705500000000000 0.1888500000000000 0.6383000000000000
0.0705500000000000 0.6888500000000000 0.1383000000000000
0.0705500000000000 0.6888500000000000 0.6383000000000000
0.5705500000000000 0.1888500000000000 0.1383000000000000
0.5705500000000000 0.1888500000000000 0.6383000000000000
0.5705500000000000 0.6888500000000000 0.1383000000000000
0.5705500000000000 0.6888500000000000 0.6383000000000000
0.4572500000000000 0.2030500000000000 0.2030500000000000
0.4572500000000000 0.2030499999999999 0.7030500000000000
0.4572500000000000 0.7030500000000000 0.2030500000000000
0.4572500000000000 0.7030500000000000 0.7030500000000000
0.9572499999999999 0.2030500000000000 0.2030500000000000
0.9572499999999999 0.2030499999999999 0.7030500000000000
0.9572499999999999 0.7030500000000000 0.2030500000000000
0.9572499999999999 0.7030500000000000 0.7030500000000000
0.4601000000000000 0.2293500000000000 0.2128500000000000
0.4601000000000000 0.2293500000000000 0.7128500000000000
0.4601000000000000 0.7293499999999999 0.2128500000000000
0.4601000000000000 0.7293499999999999 0.7128500000000000
0.9601000000000000 0.2293500000000000 0.2128500000000000
0.9601000000000000 0.2293500000000000 0.7128500000000000
0.9601000000000000 0.7293499999999999 0.2128500000000000
0.9601000000000000 0.7293499999999999 0.7128500000000000
0.4386000000000000 0.2029000000000000 0.1818000000000000
0.4386000000000000 0.2029000000000000 0.6818000000000000
0.4386000000000000 0.7028999999999999 0.1818000000000000
0.4385999999999999 0.7028999999999999 0.6818000000000000
0.9386000000000000 0.2029000000000000 0.1818000000000000
0.9386000000000000 0.2029000000000000 0.6818000000000000
0.9386000000000000 0.7028999999999999 0.1818000000000000
0.9386000000000000 0.7028999999999999 0.6818000000000000
0.4480500000000000 0.1862000000000000 0.2237499999999999
0.4480500000000000 0.1861999999999999 0.7237499999999998
0.4480500000000000 0.6861999999999999 0.2237499999999999
0.4480500000000000 0.6861999999999999 0.7237499999999998
0.9480500000000002 0.1862000000000000 0.2237499999999999
0.9480500000000002 0.1861999999999999 0.7237499999999998
0.9480500000000002 0.6861999999999999 0.2237499999999999
0.9480500000000002 0.6861999999999999 0.7237499999999998
0.0158400000000000 0.2048650000000000 0.1586100000000000
0.0158400000000000 0.2048650000000000 0.6586100000000000
0.0158400000000000 0.7048650000000000 0.1586100000000000
0.0158400000000000 0.7048650000000000 0.6586100000000000
0.5158400000000000 0.2048650000000000 0.1586100000000000
0.5158400000000000 0.2048650000000000 0.6586100000000000
0.5158400000000000 0.7048650000000000 0.1586100000000000
0.5158400000000000 0.7048650000000000 0.6586100000000000
0.1885250000000000 0.4960500000000000 0.1885250000000000
0.1885250000000000 0.4960499999999999 0.6885250000000001
0.1885250000000000 0.9960499999999999 0.1885250000000000
0.1885250000000000 0.9960499999999999 0.6885250000000001
0.6885250000000001 0.4960500000000000 0.1885250000000000
0.6885250000000001 0.4960499999999999 0.6885250000000001
0.6885250000000001 0.9960499999999999 0.1885250000000000
0.6885250000000001 0.9960499999999999 0.6885250000000001
0.1842550000000000 0.0504300000000000 0.1562500000000000
0.1842550000000000 0.0504300000000000 0.6562500000000000
0.1842550000000000 0.5504299999999999 0.1562500000000000
0.1842550000000000 0.5504299999999999 0.6562500000000000
0.6842550000000001 0.0504300000000000 0.1562500000000000
0.6842550000000001 0.0504300000000000 0.6562500000000000
0.6842550000000001 0.5504299999999999 0.1562500000000000
0.6842550000000001 0.5504299999999999 0.6562500000000000
0.1888500000000000 0.0705500000000000 0.1383000000000000
0.1888500000000000 0.0705500000000000 0.6383000000000000
0.1888500000000000 0.5705500000000000 0.1383000000000000
0.1888500000000000 0.5705500000000000 0.6383000000000000
0.6888500000000000 0.0705500000000000 0.1383000000000000
0.6888500000000000 0.0705500000000000 0.6383000000000000
0.6888500000000000 0.5705500000000000 0.1383000000000000
0.6888500000000000 0.5705500000000000 0.6383000000000000
0.2030499999999999 0.4572500000000000 0.2030500000000000
0.2030499999999999 0.4572500000000000 0.7030500000000000
0.2030499999999999 0.9572499999999999 0.2030500000000000
0.2030499999999999 0.9572499999999999 0.7030500000000000
0.7030500000000000 0.4572500000000000 0.2030500000000000
0.7030500000000000 0.4572500000000000 0.7030500000000000
0.7030500000000000 0.9572499999999999 0.2030500000000000
0.7030500000000000 0.9572499999999999 0.7030500000000000
0.2048650000000000 0.0158400000000000 0.1586100000000000
0.2048650000000000 0.0158400000000000 0.6586100000000000
0.2048650000000000 0.5158400000000000 0.1586100000000000
0.2048650000000000 0.5158400000000000 0.6586100000000000
0.7048650000000000 0.0158400000000000 0.1586100000000000
0.7048650000000000 0.0158400000000000 0.6586100000000000
0.7048650000000000 0.5158400000000000 0.1586100000000000
0.7048650000000000 0.5158400000000000 0.6586100000000000
0.2500000000000000 0.0000000000000000 0.1250000000000000
0.2500000000000000 0.0000000000000000 0.6250000000000000
0.2500000000000000 0.5000000000000000 0.1250000000000000
0.2500000000000000 0.4999999999999999 0.6250000000000000
0.7500000000000000 0.0000000000000000 0.1250000000000000
0.7500000000000000 0.0000000000000000 0.6250000000000000
0.7500000000000000 0.5000000000000000 0.1250000000000000
0.7500000000000000 0.4999999999999999 0.6250000000000000
0.4960500000000000 0.3114750000000000 0.3114750000000000
0.4960499999999999 0.3114750000000000 0.8114749999999999
0.4960499999999999 0.8114749999999999 0.3114750000000000
0.4960499999999999 0.8114749999999999 0.8114749999999999
0.9960499999999999 0.3114750000000000 0.3114750000000000
0.9960499999999999 0.3114750000000000 0.8114749999999999
0.9960499999999999 0.8114749999999999 0.3114750000000000
0.9960499999999999 0.8114749999999999 0.8114749999999999
0.0504300000000000 0.3157450000000000 0.3437500000000000
0.0504300000000000 0.3157450000000000 0.8437500000000000
0.0504300000000000 0.8157449999999999 0.3437500000000000
0.0504300000000000 0.8157449999999999 0.8437500000000000
0.5504299999999999 0.3157450000000000 0.3437500000000000
0.5504299999999999 0.3157450000000000 0.8437500000000000
0.5504299999999999 0.8157449999999999 0.3437500000000000
0.5504299999999999 0.8157449999999999 0.8437500000000000
0.0705500000000000 0.3111500000000000 0.3617000000000000
0.0705500000000000 0.3111500000000000 0.8617000000000000
0.0705500000000000 0.8111500000000000 0.3617000000000000
0.0705500000000000 0.8111500000000001 0.8617000000000000
0.5705500000000000 0.3111500000000000 0.3617000000000000
0.5705500000000001 0.3111500000000000 0.8617000000000000
0.5705500000000000 0.8111500000000000 0.3617000000000000
0.5705500000000001 0.8111500000000001 0.8617000000000000
0.0158400000000000 0.2951350000000000 0.3413900000000000
0.0158400000000000 0.2951350000000000 0.8413900000000001
0.0158400000000000 0.7951349999999999 0.3413900000000000
0.0158400000000000 0.7951349999999999 0.8413900000000001
0.5158400000000000 0.2951350000000000 0.3413900000000000
0.5158400000000000 0.2951350000000000 0.8413900000000001
0.5158400000000000 0.7951349999999999 0.3413900000000000
0.5158400000000000 0.7951349999999999 0.8413900000000001
0.0000000000000000 0.2500000000000000 0.3750000000000000
0.0000000000000000 0.2500000000000000 0.8750000000000000
0.0000000000000000 0.7500000000000000 0.3750000000000000
0.0000000000000000 0.7500000000000001 0.8750000000000000
0.5000000000000000 0.2500000000000000 0.3750000000000000
0.5000000000000001 0.2500000000000000 0.8750000000000000
0.4999999999999999 0.7500000000000000 0.3750000000000000
0.5000000000000001 0.7500000000000001 0.8750000000000000
0.3114750000000000 0.0039500000000000 0.1885250000000000
0.3114750000000000 0.0039500000000000 0.6885250000000001
0.3114750000000000 0.5039500000000000 0.1885250000000000
0.3114750000000000 0.5039500000000000 0.6885250000000001
0.8114749999999999 0.0039500000000000 0.1885250000000000
0.8114749999999999 0.0039500000000000 0.6885250000000001
0.8114749999999999 0.5039500000000000 0.1885250000000000
0.8114749999999999 0.5039500000000000 0.6885250000000001
0.3157450000000001 0.4495700000000000 0.1562500000000000
0.3157450000000001 0.4495700000000000 0.6562500000000000
0.3157450000000000 0.9495699999999999 0.1562500000000000
0.3157450000000000 0.9495699999999999 0.6562500000000000
0.8157449999999999 0.4495700000000000 0.1562500000000000
0.8157449999999999 0.4495700000000000 0.6562500000000000
0.8157449999999999 0.9495699999999999 0.1562500000000000
0.8157449999999999 0.9495699999999999 0.6562500000000000
0.3111500000000000 0.4294500000000000 0.1383000000000000
0.3111500000000000 0.4294500000000000 0.6383000000000000
0.3111500000000000 0.9294499999999999 0.1383000000000000
0.3111500000000000 0.9294499999999999 0.6383000000000000
0.8111500000000000 0.4294500000000000 0.1383000000000000
0.8111500000000000 0.4294500000000000 0.6383000000000000
0.8111500000000000 0.9294499999999999 0.1383000000000000
0.8111500000000000 0.9294499999999999 0.6383000000000000
0.2969500000000000 0.0427500000000000 0.2030500000000000
0.2969500000000000 0.0427500000000000 0.7030500000000000
0.2969500000000000 0.5427500000000000 0.2030500000000000
0.2969500000000000 0.5427500000000000 0.7030500000000000
0.7969499999999999 0.0427500000000000 0.2030500000000000
0.7969499999999999 0.0427500000000000 0.7030500000000000
0.7969499999999999 0.5427500000000000 0.2030500000000000
0.7969499999999999 0.5427500000000000 0.7030500000000000
0.2706499999999998 0.0399000000000000 0.2128500000000000
0.2706499999999998 0.0399000000000000 0.7128500000000000
0.2706499999999998 0.5399000000000000 0.2128500000000000
0.2706499999999998 0.5399000000000000 0.7128500000000000
0.7706499999999998 0.0399000000000000 0.2128500000000000
0.7706499999999998 0.0399000000000000 0.7128500000000000
0.7706499999999998 0.5399000000000000 0.2128500000000000
0.7706499999999998 0.5399000000000000 0.7128500000000000
0.2971000000000000 0.0614000000000000 0.1818000000000000
0.2971000000000000 0.0614000000000000 0.6818000000000000
0.2971000000000000 0.5614000000000000 0.1818000000000000
0.2971000000000000 0.5614000000000000 0.6818000000000000
0.7970999999999998 0.0614000000000000 0.1818000000000000
0.7970999999999998 0.0614000000000000 0.6818000000000000
0.7970999999999998 0.5614000000000000 0.1818000000000000
0.7970999999999998 0.5614000000000000 0.6818000000000000
0.3138000000000000 0.0519500000000000 0.2237499999999999
0.3137999999999999 0.0519500000000000 0.7237499999999998
0.3137999999999999 0.5519499999999999 0.2237499999999999
0.3137999999999999 0.5519499999999999 0.7237499999999998
0.8138000000000000 0.0519500000000000 0.2237499999999999
0.8138000000000000 0.0519500000000000 0.7237499999999998
0.8138000000000000 0.5519499999999999 0.2237499999999999
0.8138000000000000 0.5519499999999999 0.7237499999999998
0.2951350000000000 0.4841600000000000 0.1586100000000000
0.2951350000000000 0.4841599999999999 0.6586100000000000
0.2951350000000000 0.9841599999999999 0.1586100000000000
0.2951350000000000 0.9841599999999999 0.6586100000000000
0.7951349999999999 0.4841600000000000 0.1586100000000000
0.7951349999999999 0.4841599999999999 0.6586100000000000
0.7951349999999999 0.9841599999999999 0.1586100000000000
0.7951349999999999 0.9841599999999999 0.6586100000000000
0.0039500000000000 0.1885250000000000 0.3114750000000000
0.0039500000000000 0.1885250000000000 0.8114749999999999
0.0039500000000000 0.6885250000000001 0.3114750000000000
0.0039500000000000 0.6885250000000001 0.8114749999999999
0.5039500000000000 0.1885250000000000 0.3114750000000000
0.5039500000000000 0.1885250000000000 0.8114749999999999
0.5039500000000000 0.6885250000000001 0.3114750000000000
0.5039500000000000 0.6885250000000001 0.8114749999999999
0.4495700000000000 0.1842550000000000 0.3437500000000000
0.4495700000000000 0.1842550000000000 0.8437500000000000
0.4495700000000000 0.6842550000000001 0.3437500000000000
0.4495700000000000 0.6842550000000001 0.8437500000000000
0.9495699999999999 0.1842550000000000 0.3437500000000000
0.9495699999999999 0.1842550000000000 0.8437500000000000
0.9495699999999999 0.6842550000000001 0.3437500000000000
0.9495699999999999 0.6842550000000001 0.8437500000000000
0.4294500000000000 0.1888500000000000 0.3617000000000000
0.4294500000000000 0.1888500000000000 0.8617000000000000
0.4294500000000000 0.6888500000000000 0.3617000000000000
0.4294500000000000 0.6888500000000001 0.8617000000000000
0.9294499999999999 0.1888500000000000 0.3617000000000000
0.9294500000000000 0.1888500000000000 0.8617000000000000
0.9294499999999999 0.6888500000000000 0.3617000000000000
0.9294500000000000 0.6888500000000001 0.8617000000000000
0.0427500000000000 0.2030499999999999 0.2969500000000000
0.0427500000000000 0.2030499999999999 0.7969499999999999
0.0427500000000000 0.7030500000000000 0.2969500000000000
0.0427500000000000 0.7030500000000000 0.7969499999999999
0.5427500000000000 0.2030499999999999 0.2969500000000000
0.5427500000000000 0.2030499999999999 0.7969499999999999
0.5427500000000000 0.7030500000000000 0.2969500000000000
0.5427500000000000 0.7030500000000000 0.7969499999999999
0.0399000000000000 0.2293500000000000 0.2871500000000000
0.0399000000000000 0.2293500000000000 0.7871499999999999
0.0399000000000000 0.7293499999999999 0.2871500000000000
0.0399000000000000 0.7293499999999999 0.7871499999999999
0.5399000000000000 0.2293500000000000 0.2871500000000000
0.5399000000000000 0.2293500000000000 0.7871499999999999
0.5399000000000000 0.7293499999999999 0.2871500000000000
0.5399000000000000 0.7293499999999999 0.7871499999999999
0.0614000000000000 0.2029000000000000 0.3182000000000000
0.0614000000000000 0.2029000000000000 0.8181999999999999
0.0614000000000000 0.7028999999999999 0.3182000000000000
0.0614000000000000 0.7028999999999999 0.8181999999999999
0.5614000000000000 0.2029000000000000 0.3182000000000000
0.5614000000000000 0.2029000000000000 0.8181999999999999
0.5614000000000000 0.7028999999999999 0.3182000000000000
0.5614000000000000 0.7028999999999999 0.8181999999999999
0.0519500000000000 0.1861999999999999 0.2762500000000000
0.0519500000000000 0.1861999999999999 0.7762500000000000
0.0519500000000000 0.6861999999999999 0.2762500000000000
0.0519500000000000 0.6861999999999999 0.7762500000000000
0.5519499999999999 0.1861999999999999 0.2762500000000000
0.5519499999999999 0.1861999999999999 0.7762500000000000
0.5519499999999999 0.6861999999999999 0.2762500000000000
0.5519499999999999 0.6861999999999999 0.7762500000000000
0.4841600000000000 0.2048650000000000 0.3413900000000000
0.4841599999999999 0.2048650000000000 0.8413900000000001
0.4841599999999999 0.7048650000000000 0.3413900000000000
0.4841599999999999 0.7048650000000000 0.8413900000000001
0.9841599999999999 0.2048650000000000 0.3413900000000000
0.9841599999999999 0.2048650000000000 0.8413900000000001
0.9841599999999999 0.7048650000000000 0.3413900000000000
0.9841599999999999 0.7048650000000000 0.8413900000000001
0.3114750000000000 0.1885250000000000 0.0039500000000000
0.3114750000000000 0.1885250000000000 0.5039500000000000
0.3114750000000000 0.6885250000000001 0.0039500000000000
0.3114750000000000 0.6885250000000001 0.5039500000000000
0.8114749999999999 0.1885250000000000 0.0039500000000000
0.8114749999999999 0.1885250000000000 0.5039500000000000
0.8114749999999999 0.6885250000000001 0.0039500000000000
0.8114749999999999 0.6885250000000001 0.5039500000000000
0.3437500000000001 0.1842550000000000 0.4495700000000000
0.3437500000000000 0.1842550000000000 0.9495699999999999
0.3437500000000001 0.6842550000000001 0.4495700000000000
0.3437500000000000 0.6842550000000001 0.9495699999999999
0.8437500000000000 0.1842550000000000 0.4495700000000000
0.8437500000000000 0.1842550000000000 0.9495699999999999
0.8437500000000000 0.6842550000000001 0.4495700000000000
0.8437500000000000 0.6842550000000001 0.9495699999999999
0.3617000000000001 0.1888500000000000 0.4294500000000000
0.3617000000000000 0.1888500000000000 0.9294499999999999
0.3617000000000000 0.6888500000000000 0.4294500000000000
0.3617000000000000 0.6888500000000000 0.9294499999999999
0.8617000000000000 0.1888500000000000 0.4294500000000000
0.8617000000000000 0.1888500000000000 0.9294499999999999
0.8617000000000000 0.6888500000000000 0.4294500000000000
0.8617000000000000 0.6888500000000000 0.9294499999999999
0.2969500000000000 0.2030500000000000 0.0427500000000000
0.2969500000000000 0.2030499999999999 0.5427500000000000
0.2969500000000000 0.7030500000000000 0.0427500000000000
0.2969500000000000 0.7030500000000000 0.5427500000000000
0.7969499999999999 0.2030500000000000 0.0427500000000000
0.7969499999999999 0.2030499999999999 0.5427500000000000
0.7969499999999999 0.7030500000000000 0.0427500000000000
0.7969499999999999 0.7030500000000000 0.5427500000000000
0.3413900000000000 0.2048650000000000 0.4841600000000000
0.3413900000000000 0.2048650000000000 0.9841599999999999
0.3413900000000000 0.7048650000000000 0.4841600000000000
0.3413900000000000 0.7048650000000000 0.9841599999999999
0.8413900000000001 0.2048650000000000 0.4841600000000000
0.8413900000000001 0.2048650000000000 0.9841599999999999
0.8413900000000001 0.7048650000000000 0.4841600000000000
0.8413900000000001 0.7048650000000000 0.9841599999999999
0.3750000000000000 0.2500000000000000 0.0000000000000000
0.3750000000000000 0.2500000000000000 0.5000000000000000
0.3750000000000000 0.7500000000000000 0.0000000000000000
0.3750000000000000 0.7500000000000000 0.5000000000000000
0.8750000000000000 0.2500000000000000 0.0000000000000000
0.8750000000000000 0.2500000000000000 0.5000000000000000
0.8750000000000000 0.7500000000000000 0.0000000000000000
0.8750000000000000 0.7500000000000000 0.5000000000000000
0.1885250000000000 0.1885250000000000 0.4960500000000000
0.1885250000000000 0.1885250000000000 0.9960499999999999
0.1885250000000000 0.6885250000000001 0.4960500000000000
0.1885250000000000 0.6885250000000001 0.9960499999999999
0.6885250000000001 0.1885250000000000 0.4960500000000000
0.6885250000000001 0.1885250000000000 0.9960499999999999
0.6885250000000001 0.6885250000000001 0.4960500000000000
0.6885250000000001 0.6885250000000001 0.9960499999999999
0.1842550000000000 0.1562500000000000 0.0504300000000000
0.1842550000000000 0.1562500000000000 0.5504299999999999
0.1842550000000000 0.6562500000000000 0.0504300000000000
0.1842550000000000 0.6562500000000000 0.5504299999999999
0.6842550000000001 0.1562500000000000 0.0504300000000000
0.6842550000000001 0.1562500000000000 0.5504299999999999
0.6842550000000001 0.6562500000000000 0.0504300000000000
0.6842550000000001 0.6562500000000000 0.5504299999999999
0.1888500000000000 0.1383000000000000 0.0705500000000000
0.1888500000000000 0.1383000000000000 0.5705500000000000
0.1888500000000000 0.6383000000000000 0.0705500000000000
0.1888500000000000 0.6383000000000000 0.5705500000000000
0.6888500000000000 0.1383000000000000 0.0705500000000000
0.6888500000000000 0.1383000000000000 0.5705500000000000
0.6888500000000000 0.6383000000000000 0.0705500000000000
0.6888500000000000 0.6383000000000000 0.5705500000000000
0.2030499999999999 0.2030499999999999 0.4572500000000000
0.2030499999999999 0.2030499999999999 0.9572499999999999
0.2030499999999999 0.7030500000000000 0.4572500000000000
0.2030499999999999 0.7030500000000000 0.9572499999999999
0.7030500000000000 0.2030499999999999 0.4572500000000000
0.7030500000000000 0.2030499999999999 0.9572499999999999
0.7030500000000000 0.7030500000000000 0.4572500000000000
0.7030500000000000 0.7030500000000000 0.9572499999999999
0.2293500000000000 0.2128500000000000 0.4601000000000000
0.2293500000000000 0.2128500000000000 0.9601000000000000
0.2293500000000000 0.7128500000000000 0.4601000000000000
0.2293500000000000 0.7128500000000000 0.9601000000000000
0.7293499999999999 0.2128500000000000 0.4601000000000000
0.7293499999999998 0.2128500000000000 0.9601000000000000
0.7293499999999999 0.7128500000000000 0.4601000000000000
0.7293499999999998 0.7128500000000000 0.9601000000000000
0.2029000000000000 0.1818000000000000 0.4386000000000000
0.2029000000000000 0.1818000000000000 0.9386000000000000
0.2029000000000000 0.6818000000000000 0.4386000000000000
0.2029000000000000 0.6818000000000000 0.9386000000000000
0.7028999999999999 0.1818000000000000 0.4386000000000000
0.7028999999999999 0.1818000000000000 0.9386000000000000
0.7028999999999999 0.6818000000000000 0.4386000000000000
0.7028999999999999 0.6818000000000000 0.9386000000000000
0.1862000000000000 0.2237499999999999 0.4480500000000000
0.1862000000000000 0.2237499999999999 0.9480500000000002
0.1861999999999999 0.7237499999999998 0.4480500000000000
0.1861999999999999 0.7237499999999998 0.9480500000000002
0.6861999999999999 0.2237499999999999 0.4480500000000000
0.6861999999999999 0.2237499999999999 0.9480500000000002
0.6861999999999999 0.7237499999999998 0.4480500000000000
0.6861999999999999 0.7237499999999998 0.9480500000000002
0.2048650000000000 0.1586100000000000 0.0158400000000000
0.2048650000000000 0.1586100000000000 0.5158400000000000
0.2048650000000000 0.6586100000000000 0.0158400000000000
0.2048650000000000 0.6586100000000000 0.5158400000000000
0.7048650000000000 0.1586100000000000 0.0158400000000000
0.7048650000000000 0.1586100000000000 0.5158400000000000
0.7048650000000000 0.6586100000000000 0.0158400000000000
0.7048650000000000 0.6586100000000000 0.5158400000000000
0.2500000000000000 0.1250000000000000 0.0000000000000000
0.2500000000000000 0.1250000000000000 0.5000000000000000
0.2500000000000000 0.6250000000000000 0.0000000000000000
0.2500000000000000 0.6250000000000000 0.5000000000000000
0.7500000000000000 0.1250000000000000 0.0000000000000000
0.7500000000000000 0.1250000000000000 0.5000000000000000
0.7500000000000000 0.6250000000000000 0.0000000000000000
0.7500000000000000 0.6250000000000000 0.5000000000000000
0.1885250000000000 0.3114750000000000 0.0039500000000000
0.1885250000000000 0.3114750000000000 0.5039500000000000
0.1885250000000000 0.8114749999999999 0.0039500000000000
0.1885250000000000 0.8114749999999999 0.5039500000000000
0.6885250000000001 0.3114750000000000 0.0039500000000000
0.6885250000000001 0.3114750000000000 0.5039500000000000
0.6885250000000001 0.8114749999999999 0.0039500000000000
0.6885250000000001 0.8114749999999999 0.5039500000000000
0.1562500000000000 0.3157450000000001 0.4495700000000000
0.1562500000000000 0.3157450000000000 0.9495699999999999
0.1562500000000000 0.8157449999999999 0.4495700000000000
0.1562500000000000 0.8157449999999999 0.9495699999999999
0.6562500000000000 0.3157450000000001 0.4495700000000000
0.6562499999999999 0.3157450000000000 0.9495699999999999
0.6562500000000000 0.8157449999999999 0.4495700000000000
0.6562499999999999 0.8157449999999999 0.9495699999999999
0.1383000000000000 0.3111500000000000 0.4294500000000000
0.1383000000000000 0.3111500000000000 0.9294499999999999
0.1383000000000000 0.8111500000000000 0.4294500000000000
0.1383000000000000 0.8111500000000000 0.9294499999999999
0.6383000000000000 0.3111500000000000 0.4294500000000000
0.6383000000000000 0.3111500000000000 0.9294499999999999
0.6383000000000000 0.8111500000000000 0.4294500000000000
0.6383000000000000 0.8111500000000000 0.9294499999999999
0.2030499999999999 0.2969500000000000 0.0427500000000000
0.2030499999999999 0.2969500000000000 0.5427500000000000
0.2030499999999999 0.7969499999999999 0.0427500000000000
0.2030499999999999 0.7969499999999999 0.5427500000000000
0.7030500000000000 0.2969500000000000 0.0427500000000000
0.7030500000000000 0.2969500000000000 0.5427500000000000
0.7030500000000000 0.7969499999999999 0.0427500000000000
0.7030500000000000 0.7969499999999999 0.5427500000000000
0.1586100000000000 0.2951350000000000 0.4841600000000000
0.1586100000000000 0.2951350000000000 0.9841599999999999
0.1586100000000000 0.7951349999999999 0.4841600000000000
0.1586100000000000 0.7951349999999999 0.9841599999999999
0.6586100000000000 0.2951350000000000 0.4841600000000000
0.6586100000000000 0.2951350000000000 0.9841599999999999
0.6586100000000000 0.7951349999999999 0.4841600000000000
0.6586100000000000 0.7951349999999999 0.9841599999999999
0.1250000000000000 0.2500000000000000 0.0000000000000000
0.1250000000000000 0.2500000000000000 0.5000000000000000
0.1250000000000000 0.7500000000000000 0.0000000000000000
0.1250000000000000 0.7500000000000000 0.5000000000000000
0.6250000000000000 0.2500000000000000 0.0000000000000000
0.6250000000000000 0.2500000000000000 0.5000000000000000
0.6250000000000000 0.7500000000000000 0.0000000000000000
0.6250000000000000 0.7500000000000000 0.5000000000000000
0.3114750000000000 0.3114750000000000 0.4960500000000000
0.3114750000000000 0.3114750000000000 0.9960499999999999
0.3114750000000000 0.8114749999999999 0.4960500000000000
0.3114750000000000 0.8114749999999999 0.9960499999999999
0.8114749999999999 0.3114750000000000 0.4960500000000000
0.8114749999999999 0.3114750000000000 0.9960499999999999
0.8114749999999999 0.8114749999999999 0.4960500000000000
0.8114749999999999 0.8114749999999999 0.9960499999999999
0.3157450000000000 0.3437500000000000 0.0504300000000000
0.3157450000000000 0.3437500000000000 0.5504299999999999
0.3157450000000000 0.8437500000000000 0.0504300000000000
0.3157450000000000 0.8437500000000000 0.5504299999999999
0.8157449999999999 0.3437500000000000 0.0504300000000000
0.8157449999999999 0.3437500000000000 0.5504299999999999
0.8157449999999999 0.8437500000000000 0.0504300000000000
0.8157449999999999 0.8437500000000000 0.5504299999999999
0.3111500000000000 0.3617000000000000 0.0705500000000000
0.3111500000000000 0.3617000000000000 0.5705500000000000
0.3111500000000000 0.8617000000000000 0.0705500000000000
0.3111500000000000 0.8617000000000000 0.5705500000000000
0.8111500000000000 0.3617000000000000 0.0705500000000000
0.8111500000000000 0.3617000000000000 0.5705500000000000
0.8111500000000001 0.8617000000000000 0.0705500000000000
0.8111500000000001 0.8617000000000000 0.5705500000000000
0.2969500000000000 0.2969500000000000 0.4572500000000000
0.2969500000000000 0.2969500000000000 0.9572499999999999
0.2969500000000000 0.7969499999999999 0.4572500000000000
0.2969500000000000 0.7969499999999999 0.9572499999999999
0.7969499999999999 0.2969500000000000 0.4572500000000000
0.7969499999999999 0.2969500000000000 0.9572499999999999
0.7969499999999999 0.7969499999999999 0.4572500000000000
0.7969499999999999 0.7969499999999999 0.9572499999999999
0.2706499999999998 0.2871500000000000 0.4601000000000000
0.2706499999999998 0.2871500000000000 0.9601000000000000
0.2706499999999998 0.7871499999999999 0.4601000000000000
0.2706499999999998 0.7871499999999999 0.9601000000000000
0.7706499999999998 0.2871500000000000 0.4601000000000000
0.7706499999999998 0.2871500000000000 0.9601000000000000
0.7706499999999998 0.7871499999999999 0.4601000000000000
0.7706499999999998 0.7871499999999999 0.9601000000000000
0.2971000000000000 0.3182000000000000 0.4386000000000000
0.2971000000000000 0.3182000000000000 0.9386000000000000
0.2971000000000000 0.8181999999999999 0.4386000000000000
0.2971000000000000 0.8181999999999999 0.9386000000000000
0.7970999999999998 0.3182000000000000 0.4386000000000000
0.7970999999999998 0.3182000000000000 0.9386000000000000
0.7970999999999998 0.8181999999999999 0.4386000000000000
0.7970999999999998 0.8181999999999999 0.9386000000000000
0.3138000000000000 0.2762500000000000 0.4480500000000000
0.3137999999999999 0.2762499999999999 0.9480500000000002
0.3138000000000000 0.7762500000000000 0.4480500000000000
0.3137999999999999 0.7762500000000000 0.9480500000000002
0.8138000000000000 0.2762500000000000 0.4480500000000000
0.8138000000000000 0.2762499999999999 0.9480500000000002
0.8138000000000000 0.7762500000000000 0.4480500000000000
0.8138000000000000 0.7762500000000000 0.9480500000000002
0.2951350000000000 0.3413900000000000 0.0158400000000000
0.2951350000000000 0.3413900000000000 0.5158400000000000
0.2951350000000000 0.8413900000000001 0.0158400000000000
0.2951350000000000 0.8413900000000001 0.5158400000000000
0.7951349999999999 0.3413900000000000 0.0158400000000000
0.7951349999999999 0.3413900000000000 0.5158400000000000
0.7951349999999999 0.8413900000000001 0.0158400000000000
0.7951349999999999 0.8413900000000001 0.5158400000000000
0.2500000000000000 0.3750000000000000 0.0000000000000000
0.2500000000000000 0.3750000000000000 0.5000000000000000
0.2500000000000000 0.8750000000000000 0.0000000000000000
0.2500000000000000 0.8750000000000000 0.5000000000000000
0.7500000000000000 0.3750000000000000 0.0000000000000000
0.7500000000000000 0.3750000000000000 0.5000000000000000
0.7500000000000001 0.8750000000000000 0.0000000000000000
0.7500000000000001 0.8750000000000000 0.5000000000000000
0.3437500000000000 0.3157450000000000 0.0504300000000000
0.3437500000000000 0.3157450000000000 0.5504299999999999
0.3437500000000000 0.8157449999999999 0.0504300000000000
0.3437500000000000 0.8157449999999999 0.5504299999999999
0.8437500000000000 0.3157450000000000 0.0504300000000000
0.8437500000000000 0.3157450000000000 0.5504299999999999
0.8437500000000000 0.8157449999999999 0.0504300000000000
0.8437500000000000 0.8157449999999999 0.5504299999999999
0.3617000000000000 0.3111500000000000 0.0705500000000000
0.3617000000000000 0.3111500000000000 0.5705500000000000
0.3617000000000000 0.8111500000000000 0.0705500000000000
0.3617000000000000 0.8111500000000000 0.5705500000000000
0.8617000000000000 0.3111500000000000 0.0705500000000000
0.8617000000000000 0.3111500000000000 0.5705500000000000
0.8617000000000000 0.8111500000000000 0.0705500000000000
0.8617000000000000 0.8111500000000000 0.5705500000000000
0.3413900000000000 0.2951350000000000 0.0158400000000000
0.3413900000000000 0.2951350000000000 0.5158400000000000
0.3413900000000000 0.7951349999999999 0.0158400000000000
0.3413900000000000 0.7951349999999999 0.5158400000000000
0.8413900000000001 0.2951350000000000 0.0158400000000000
0.8413900000000001 0.2951350000000000 0.5158400000000000
0.8413900000000001 0.7951349999999999 0.0158400000000000
0.8413900000000001 0.7951349999999999 0.5158400000000000
0.3157450000000001 0.1562500000000000 0.4495700000000000
0.3157450000000000 0.1562500000000000 0.9495699999999999
0.3157450000000001 0.6562500000000000 0.4495700000000000
0.3157450000000000 0.6562499999999999 0.9495699999999999
0.8157449999999999 0.1562500000000000 0.4495700000000000
0.8157449999999999 0.1562500000000000 0.9495699999999999
0.8157449999999999 0.6562500000000000 0.4495700000000000
0.8157449999999999 0.6562499999999999 0.9495699999999999
0.3111500000000000 0.1383000000000000 0.4294500000000000
0.3111500000000000 0.1383000000000000 0.9294499999999999
0.3111500000000000 0.6383000000000000 0.4294500000000000
0.3111500000000000 0.6383000000000000 0.9294499999999999
0.8111500000000000 0.1383000000000000 0.4294500000000000
0.8111500000000000 0.1383000000000000 0.9294499999999999
0.8111500000000000 0.6383000000000000 0.4294500000000000
0.8111500000000000 0.6383000000000000 0.9294499999999999
0.2706499999999998 0.2128500000000000 0.0399000000000000
0.2706499999999998 0.2128500000000000 0.5399000000000000
0.2706499999999998 0.7128500000000000 0.0399000000000000
0.2706499999999998 0.7128500000000000 0.5399000000000000
0.7706499999999998 0.2128500000000000 0.0399000000000000
0.7706499999999998 0.2128500000000000 0.5399000000000000
0.7706499999999998 0.7128500000000000 0.0399000000000000
0.7706499999999998 0.7128500000000000 0.5399000000000000
0.2971000000000000 0.1818000000000000 0.0614000000000000
0.2971000000000000 0.1818000000000000 0.5614000000000000
0.2971000000000000 0.6818000000000000 0.0614000000000000
0.2971000000000000 0.6818000000000000 0.5614000000000000
0.7970999999999998 0.1818000000000000 0.0614000000000000
0.7970999999999998 0.1818000000000000 0.5614000000000000
0.7970999999999998 0.6818000000000000 0.0614000000000000
0.7970999999999998 0.6818000000000000 0.5614000000000000
0.3138000000000000 0.2237499999999999 0.0519500000000000
0.3137999999999999 0.2237499999999999 0.5519499999999999
0.3137999999999999 0.7237499999999998 0.0519500000000000
0.3137999999999999 0.7237499999999998 0.5519499999999999
0.8138000000000000 0.2237499999999999 0.0519500000000000
0.8138000000000000 0.2237499999999999 0.5519499999999999
0.8138000000000000 0.7237499999999998 0.0519500000000000
0.8138000000000000 0.7237499999999998 0.5519499999999999
0.2951350000000000 0.1586100000000000 0.4841600000000000
0.2951350000000000 0.1586100000000000 0.9841599999999999
0.2951350000000000 0.6586100000000000 0.4841600000000000
0.2951350000000000 0.6586100000000000 0.9841599999999999
0.7951349999999999 0.1586100000000000 0.4841600000000000
0.7951349999999999 0.1586100000000000 0.9841599999999999
0.7951349999999999 0.6586100000000000 0.4841600000000000
0.7951349999999999 0.6586100000000000 0.9841599999999999
0.1562500000000000 0.1842550000000000 0.0504300000000000
0.1562500000000000 0.1842550000000000 0.5504299999999999
0.1562500000000000 0.6842550000000001 0.0504300000000000
0.1562500000000000 0.6842550000000001 0.5504299999999999
0.6562500000000000 0.1842550000000000 0.0504300000000000
0.6562500000000000 0.1842550000000000 0.5504299999999999
0.6562500000000000 0.6842550000000001 0.0504300000000000
0.6562500000000000 0.6842550000000001 0.5504299999999999
0.1383000000000000 0.1888500000000000 0.0705500000000000
0.1383000000000000 0.1888500000000000 0.5705500000000000
0.1383000000000000 0.6888500000000000 0.0705500000000000
0.1383000000000000 0.6888500000000000 0.5705500000000000
0.6383000000000000 0.1888500000000000 0.0705500000000000
0.6383000000000000 0.1888500000000000 0.5705500000000000
0.6383000000000000 0.6888500000000000 0.0705500000000000
0.6383000000000000 0.6888500000000000 0.5705500000000000
0.1586100000000000 0.2048650000000000 0.0158400000000000
0.1586100000000000 0.2048650000000000 0.5158400000000000
0.1586100000000000 0.7048650000000000 0.0158400000000000
0.1586100000000000 0.7048650000000000 0.5158400000000000
0.6586100000000000 0.2048650000000000 0.0158400000000000
0.6586100000000000 0.2048650000000000 0.5158400000000000
0.6586100000000000 0.7048650000000000 0.0158400000000000
0.6586100000000000 0.7048650000000000 0.5158400000000000
0.1842550000000000 0.3437500000000001 0.4495700000000000
0.1842550000000000 0.3437500000000000 0.9495699999999999
0.1842550000000000 0.8437500000000000 0.4495700000000000
0.1842550000000000 0.8437500000000000 0.9495699999999999
0.6842550000000001 0.3437500000000001 0.4495700000000000
0.6842550000000001 0.3437500000000000 0.9495699999999999
0.6842550000000001 0.8437500000000000 0.4495700000000000
0.6842550000000001 0.8437500000000000 0.9495699999999999
0.1888500000000000 0.3617000000000001 0.4294500000000000
0.1888500000000000 0.3617000000000000 0.9294499999999999
0.1888500000000000 0.8617000000000000 0.4294500000000000
0.1888500000000000 0.8617000000000000 0.9294499999999999
0.6888500000000000 0.3617000000000001 0.4294500000000000
0.6888500000000000 0.3617000000000000 0.9294499999999999
0.6888500000000001 0.8617000000000000 0.4294500000000000
0.6888500000000000 0.8617000000000000 0.9294499999999999
0.2293500000000000 0.2871500000000000 0.0399000000000000
0.2293500000000000 0.2871500000000000 0.5399000000000000
0.2293500000000000 0.7871499999999999 0.0399000000000000
0.2293500000000000 0.7871499999999999 0.5399000000000000
0.7293499999999999 0.2871500000000000 0.0399000000000000
0.7293499999999999 0.2871500000000000 0.5399000000000000
0.7293499999999999 0.7871499999999999 0.0399000000000000
0.7293499999999999 0.7871499999999999 0.5399000000000000
0.2029000000000000 0.3182000000000000 0.0614000000000000
0.2029000000000000 0.3182000000000000 0.5614000000000000
0.2029000000000000 0.8181999999999999 0.0614000000000000
0.2029000000000000 0.8181999999999999 0.5614000000000000
0.7028999999999999 0.3182000000000000 0.0614000000000000
0.7028999999999999 0.3182000000000000 0.5614000000000000
0.7028999999999999 0.8181999999999999 0.0614000000000000
0.7028999999999999 0.8181999999999999 0.5614000000000000
0.1861999999999999 0.2762500000000000 0.0519500000000000
0.1861999999999999 0.2762499999999999 0.5519499999999999
0.1861999999999999 0.7762500000000000 0.0519500000000000
0.1861999999999999 0.7762500000000000 0.5519499999999999
0.6861999999999999 0.2762500000000000 0.0519500000000000
0.6861999999999999 0.2762499999999999 0.5519499999999999
0.6861999999999999 0.7762500000000000 0.0519500000000000
0.6861999999999999 0.7762500000000000 0.5519499999999999
0.2048650000000000 0.3413900000000000 0.4841600000000000
0.2048650000000000 0.3413900000000000 0.9841599999999999
0.2048650000000000 0.8413900000000001 0.4841600000000000
0.2048650000000000 0.8413900000000001 0.9841599999999999
0.7048650000000000 0.3413900000000000 0.4841600000000000
0.7048650000000000 0.3413900000000000 0.9841599999999999
0.7048650000000000 0.8413900000000001 0.4841600000000000
0.7048650000000000 0.8413900000000001 0.9841599999999999
0.4495700000000000 0.3437500000000000 0.1842550000000000
0.4495700000000000 0.3437500000000000 0.6842550000000001
0.4495700000000000 0.8437500000000000 0.1842550000000000
0.4495700000000000 0.8437500000000000 0.6842550000000001
0.9495699999999999 0.3437500000000000 0.1842550000000000
0.9495699999999999 0.3437500000000000 0.6842550000000001
0.9495699999999999 0.8437500000000000 0.1842550000000000
0.9495699999999999 0.8437500000000000 0.6842550000000001
0.4294500000000000 0.3617000000000000 0.1888500000000000
0.4294500000000000 0.3617000000000000 0.6888500000000000
0.4294500000000000 0.8617000000000000 0.1888500000000000
0.4294500000000000 0.8617000000000000 0.6888500000000000
0.9294499999999999 0.3617000000000000 0.1888500000000000
0.9294499999999999 0.3617000000000000 0.6888500000000000
0.9294500000000000 0.8617000000000000 0.1888500000000000
0.9294500000000000 0.8617000000000000 0.6888500000000000
0.0399000000000000 0.2871500000000000 0.2293500000000000
0.0399000000000000 0.2871500000000000 0.7293499999999999
0.0399000000000000 0.7871499999999999 0.2293500000000000
0.0399000000000000 0.7871499999999999 0.7293499999999999
0.5399000000000000 0.2871500000000000 0.2293500000000000
0.5399000000000000 0.2871500000000000 0.7293499999999999
0.5399000000000000 0.7871499999999999 0.2293500000000000
0.5399000000000000 0.7871499999999999 0.7293499999999999
0.0614000000000000 0.3182000000000000 0.2029000000000000
0.0614000000000000 0.3182000000000000 0.7028999999999999
0.0614000000000000 0.8181999999999999 0.2029000000000000
0.0614000000000000 0.8181999999999999 0.7028999999999999
0.5614000000000000 0.3182000000000000 0.2029000000000000
0.5614000000000000 0.3182000000000000 0.7028999999999999
0.5614000000000000 0.8181999999999999 0.2029000000000000
0.5614000000000000 0.8181999999999999 0.7028999999999999
0.0519500000000000 0.2762500000000000 0.1862000000000000
0.0519500000000000 0.2762499999999999 0.6861999999999999
0.0519500000000000 0.7762500000000000 0.1862000000000000
0.0519500000000000 0.7762500000000000 0.6861999999999999
0.5519499999999999 0.2762500000000000 0.1862000000000000
0.5519499999999999 0.2762499999999999 0.6861999999999999
0.5519499999999999 0.7762500000000000 0.1862000000000000
0.5519499999999999 0.7762500000000000 0.6861999999999999
0.4841600000000000 0.3413900000000000 0.2048650000000000
0.4841599999999999 0.3413900000000000 0.7048650000000000
0.4841599999999999 0.8413900000000001 0.2048650000000000
0.4841599999999999 0.8413900000000001 0.7048650000000000
0.9841599999999999 0.3413900000000000 0.2048650000000000
0.9841599999999999 0.3413900000000000 0.7048650000000000
0.9841599999999999 0.8413900000000001 0.2048650000000000
0.9841599999999999 0.8413900000000001 0.7048650000000000
0.0000000000000000 0.3750000000000000 0.2500000000000000
0.0000000000000000 0.3750000000000000 0.7500000000000000
0.0000000000000000 0.8750000000000000 0.2500000000000000
0.0000000000000000 0.8750000000000000 0.7500000000000000
0.5000000000000000 0.3750000000000000 0.2500000000000000
0.4999999999999999 0.3750000000000000 0.7500000000000000
0.5000000000000001 0.8750000000000000 0.2500000000000000
0.5000000000000001 0.8750000000000000 0.7500000000000000
0.4495700000000000 0.1562500000000000 0.3157450000000000
0.4495700000000000 0.1562500000000000 0.8157449999999999
0.4495700000000000 0.6562500000000000 0.3157450000000000
0.4495700000000000 0.6562500000000000 0.8157449999999999
0.9495699999999999 0.1562500000000000 0.3157450000000000
0.9495699999999999 0.1562500000000000 0.8157449999999999
0.9495699999999999 0.6562500000000000 0.3157450000000000
0.9495699999999999 0.6562500000000000 0.8157449999999999
0.4294500000000000 0.1383000000000000 0.3111500000000000
0.4294500000000000 0.1383000000000000 0.8111500000000000
0.4294500000000000 0.6383000000000000 0.3111500000000000
0.4294500000000000 0.6383000000000000 0.8111500000000000
0.9294499999999999 0.1383000000000000 0.3111500000000000
0.9294499999999999 0.1383000000000000 0.8111500000000000
0.9294499999999999 0.6383000000000000 0.3111500000000000
0.9294499999999999 0.6383000000000000 0.8111500000000000
0.4841600000000000 0.1586100000000000 0.2951350000000000
0.4841599999999999 0.1586100000000000 0.7951349999999999
0.4841599999999999 0.6586100000000000 0.2951350000000000
0.4841599999999999 0.6586100000000000 0.7951349999999999
0.9841599999999999 0.1586100000000000 0.2951350000000000
0.9841599999999999 0.1586100000000000 0.7951349999999999
0.9841599999999999 0.6586100000000000 0.2951350000000000
0.9841599999999999 0.6586100000000000 0.7951349999999999
0.0000000000000000 0.1250000000000000 0.2500000000000000
0.0000000000000000 0.1250000000000000 0.7500000000000000
0.0000000000000000 0.6250000000000000 0.2500000000000000
0.0000000000000000 0.6250000000000000 0.7500000000000000
0.5000000000000000 0.1250000000000000 0.2500000000000000
0.4999999999999999 0.1250000000000000 0.7500000000000000
0.4999999999999999 0.6250000000000000 0.2500000000000000
0.4999999999999999 0.6250000000000000 0.7500000000000000
0.1562500000000000 0.0504300000000000 0.1842550000000000
0.1562500000000000 0.0504300000000000 0.6842550000000001
0.1562500000000000 0.5504299999999999 0.1842550000000000
0.1562500000000000 0.5504299999999999 0.6842550000000001
0.6562500000000000 0.0504300000000000 0.1842550000000000
0.6562500000000000 0.0504300000000000 0.6842550000000001
0.6562500000000000 0.5504299999999999 0.1842550000000000
0.6562500000000000 0.5504299999999999 0.6842550000000001
0.1383000000000000 0.0705500000000000 0.1888500000000000
0.1383000000000000 0.0705500000000000 0.6888500000000000
0.1383000000000000 0.5705500000000000 0.1888500000000000
0.1383000000000000 0.5705500000000000 0.6888500000000000
0.6383000000000000 0.0705500000000000 0.1888500000000000
0.6383000000000000 0.0705500000000000 0.6888500000000000
0.6383000000000000 0.5705500000000000 0.1888500000000000
0.6383000000000000 0.5705500000000000 0.6888500000000000
0.2128500000000000 0.4601000000000000 0.2293500000000000
0.2128500000000000 0.4601000000000000 0.7293499999999999
0.2128500000000000 0.9601000000000000 0.2293500000000000
0.2128500000000000 0.9601000000000000 0.7293499999999999
0.7128500000000000 0.4601000000000000 0.2293500000000000
0.7128500000000000 0.4601000000000000 0.7293499999999999
0.7128500000000000 0.9601000000000000 0.2293500000000000
0.7128500000000000 0.9601000000000000 0.7293499999999999
0.1818000000000000 0.4386000000000000 0.2029000000000000
0.1818000000000000 0.4386000000000000 0.7028999999999999
0.1818000000000000 0.9386000000000000 0.2029000000000000
0.1818000000000000 0.9386000000000000 0.7028999999999999
0.6818000000000000 0.4386000000000000 0.2029000000000000
0.6818000000000000 0.4386000000000000 0.7028999999999999
0.6818000000000000 0.9386000000000000 0.2029000000000000
0.6818000000000000 0.9386000000000000 0.7028999999999999
0.2237499999999999 0.4480500000000000 0.1862000000000000
0.2237499999999999 0.4480500000000000 0.6861999999999999
0.2237499999999999 0.9480500000000002 0.1862000000000000
0.2237499999999999 0.9480500000000002 0.6861999999999999
0.7237499999999998 0.4480500000000000 0.1862000000000000
0.7237499999999998 0.4480500000000000 0.6861999999999999
0.7237499999999998 0.9480500000000002 0.1862000000000000
0.7237499999999998 0.9480500000000002 0.6861999999999999
0.1586100000000000 0.0158400000000000 0.2048650000000000
0.1586100000000000 0.0158400000000000 0.7048650000000000
0.1586100000000000 0.5158400000000000 0.2048650000000000
0.1586100000000000 0.5158400000000000 0.7048650000000000
0.6586100000000000 0.0158400000000000 0.2048650000000000
0.6586100000000000 0.0158400000000000 0.7048650000000000
0.6586100000000000 0.5158400000000000 0.2048650000000000
0.6586100000000000 0.5158400000000000 0.7048650000000000
0.1250000000000000 0.0000000000000000 0.2500000000000000
0.1250000000000000 0.0000000000000000 0.7500000000000000
0.1250000000000000 0.5000000000000000 0.2500000000000000
0.1250000000000000 0.4999999999999999 0.7500000000000000
0.6250000000000000 0.0000000000000000 0.2500000000000000
0.6250000000000000 0.0000000000000000 0.7500000000000000
0.6250000000000000 0.5000000000000000 0.2500000000000000
0.6250000000000000 0.4999999999999999 0.7500000000000000
0.0504300000000000 0.3437500000000000 0.3157450000000000
0.0504300000000000 0.3437500000000000 0.8157449999999999
0.0504300000000000 0.8437500000000000 0.3157450000000000
0.0504300000000000 0.8437500000000000 0.8157449999999999
0.5504299999999999 0.3437500000000000 0.3157450000000000
0.5504299999999999 0.3437500000000000 0.8157449999999999
0.5504299999999999 0.8437500000000000 0.3157450000000000
0.5504299999999999 0.8437500000000000 0.8157449999999999
0.0705500000000000 0.3617000000000000 0.3111500000000000
0.0705500000000000 0.3617000000000000 0.8111500000000000
0.0705500000000000 0.8617000000000000 0.3111500000000000
0.0705500000000000 0.8617000000000000 0.8111500000000000
0.5705500000000000 0.3617000000000000 0.3111500000000000
0.5705500000000000 0.3617000000000000 0.8111500000000000
0.5705500000000001 0.8617000000000000 0.3111500000000000
0.5705500000000001 0.8617000000000000 0.8111500000000000
0.0158400000000000 0.3413900000000000 0.2951350000000000
0.0158400000000000 0.3413900000000000 0.7951349999999999
0.0158400000000000 0.8413900000000001 0.2951350000000000
0.0158400000000000 0.8413900000000001 0.7951349999999999
0.5158400000000000 0.3413900000000000 0.2951350000000000
0.5158400000000000 0.3413900000000000 0.7951349999999999
0.5158400000000000 0.8413900000000001 0.2951350000000000
0.5158400000000000 0.8413900000000001 0.7951349999999999
0.3437500000000001 0.4495700000000000 0.1842550000000000
0.3437500000000001 0.4495700000000000 0.6842550000000001
0.3437500000000000 0.9495699999999999 0.1842550000000000
0.3437500000000000 0.9495699999999999 0.6842550000000001
0.8437500000000000 0.4495700000000000 0.1842550000000000
0.8437500000000000 0.4495700000000000 0.6842550000000001
0.8437500000000000 0.9495699999999999 0.1842550000000000
0.8437500000000000 0.9495699999999999 0.6842550000000001
0.3617000000000001 0.4294500000000000 0.1888500000000000
0.3617000000000000 0.4294500000000000 0.6888500000000000
0.3617000000000000 0.9294499999999999 0.1888500000000000
0.3617000000000000 0.9294499999999999 0.6888500000000000
0.8617000000000000 0.4294500000000000 0.1888500000000000
0.8617000000000000 0.4294500000000000 0.6888500000000000
0.8617000000000000 0.9294499999999999 0.1888500000000000
0.8617000000000000 0.9294499999999999 0.6888500000000000
0.3413900000000000 0.4841600000000000 0.2048650000000000
0.3413900000000000 0.4841599999999999 0.7048650000000000
0.3413900000000000 0.9841599999999999 0.2048650000000000
0.3413900000000000 0.9841599999999999 0.7048650000000000
0.8413900000000001 0.4841600000000000 0.2048650000000000
0.8413900000000001 0.4841599999999999 0.7048650000000000
0.8413900000000001 0.9841599999999999 0.2048650000000000
0.8413900000000001 0.9841599999999999 0.7048650000000000
0.3750000000000000 0.0000000000000000 0.2500000000000000
0.3750000000000000 0.0000000000000000 0.7500000000000000
0.3750000000000000 0.5000000000000000 0.2500000000000000
0.3750000000000000 0.4999999999999999 0.7500000000000000
0.8750000000000000 0.0000000000000000 0.2500000000000000
0.8750000000000000 0.0000000000000000 0.7500000000000000
0.8750000000000000 0.5000000000000000 0.2500000000000000
0.8750000000000000 0.4999999999999999 0.7500000000000000
0.0504300000000000 0.1562500000000000 0.1842550000000000
0.0504300000000000 0.1562500000000000 0.6842550000000001
0.0504300000000000 0.6562500000000000 0.1842550000000000
0.0504300000000000 0.6562500000000000 0.6842550000000001
0.5504299999999999 0.1562500000000000 0.1842550000000000
0.5504299999999999 0.1562500000000000 0.6842550000000001
0.5504299999999999 0.6562500000000000 0.1842550000000000
0.5504299999999999 0.6562500000000000 0.6842550000000001
0.0705500000000000 0.1383000000000000 0.1888500000000000
0.0705500000000000 0.1383000000000000 0.6888500000000000
0.0705500000000000 0.6383000000000000 0.1888500000000000
0.0705500000000000 0.6383000000000000 0.6888500000000000
0.5705500000000000 0.1383000000000000 0.1888500000000000
0.5705500000000000 0.1383000000000000 0.6888500000000000
0.5705500000000000 0.6383000000000000 0.1888500000000000
0.5705500000000000 0.6383000000000000 0.6888500000000000
0.0158400000000000 0.1586100000000000 0.2048650000000000
0.0158400000000000 0.1586100000000000 0.7048650000000000
0.0158400000000000 0.6586100000000000 0.2048650000000000
0.0158400000000000 0.6586100000000000 0.7048650000000000
0.5158400000000000 0.1586100000000000 0.2048650000000000
0.5158400000000000 0.1586100000000000 0.7048650000000000
0.5158400000000000 0.6586100000000000 0.2048650000000000
0.5158400000000000 0.6586100000000000 0.7048650000000000
0.1562500000000000 0.4495700000000000 0.3157450000000000
0.1562500000000000 0.4495700000000000 0.8157449999999999
0.1562500000000000 0.9495699999999999 0.3157450000000000
0.1562500000000000 0.9495699999999999 0.8157449999999999
0.6562500000000000 0.4495700000000000 0.3157450000000000
0.6562500000000000 0.4495700000000000 0.8157449999999999
0.6562499999999999 0.9495699999999999 0.3157450000000000
0.6562499999999999 0.9495699999999999 0.8157449999999999
0.1383000000000000 0.4294500000000000 0.3111500000000000
0.1383000000000000 0.4294500000000000 0.8111500000000000
0.1383000000000000 0.9294499999999999 0.3111500000000000
0.1383000000000000 0.9294499999999999 0.8111500000000000
0.6383000000000000 0.4294500000000000 0.3111500000000000
0.6383000000000000 0.4294500000000000 0.8111500000000000
0.6383000000000000 0.9294499999999999 0.3111500000000000
0.6383000000000000 0.9294499999999999 0.8111500000000000
0.2128500000000000 0.0399000000000000 0.2706499999999998
0.2128500000000000 0.0399000000000000 0.7706499999999998
0.2128500000000000 0.5399000000000000 0.2706499999999998
0.2128500000000000 0.5399000000000000 0.7706499999999998
0.7128500000000000 0.0399000000000000 0.2706499999999998
0.7128500000000000 0.0399000000000000 0.7706499999999998
0.7128500000000000 0.5399000000000000 0.2706499999999998
0.7128500000000000 0.5399000000000000 0.7706499999999998
0.1818000000000000 0.0614000000000000 0.2971000000000000
0.1818000000000000 0.0614000000000000 0.7970999999999998
0.1818000000000000 0.5614000000000000 0.2971000000000000
0.1818000000000000 0.5614000000000000 0.7970999999999998
0.6818000000000000 0.0614000000000000 0.2971000000000000
0.6818000000000000 0.0614000000000000 0.7970999999999998
0.6818000000000000 0.5614000000000000 0.2971000000000000
0.6818000000000000 0.5614000000000000 0.7970999999999998
0.2237499999999999 0.0519500000000000 0.3138000000000000
0.2237499999999999 0.0519500000000000 0.8138000000000000
0.2237499999999999 0.5519499999999999 0.3138000000000000
0.2237499999999999 0.5519499999999999 0.8138000000000000
0.7237499999999998 0.0519500000000000 0.3138000000000000
0.7237499999999998 0.0519500000000000 0.8138000000000000
0.7237499999999998 0.5519499999999999 0.3138000000000000
0.7237499999999998 0.5519499999999999 0.8138000000000000
0.1586100000000000 0.4841600000000000 0.2951350000000000
0.1586100000000000 0.4841599999999999 0.7951349999999999
0.1586100000000000 0.9841599999999999 0.2951350000000000
0.1586100000000000 0.9841599999999999 0.7951349999999999
0.6586100000000000 0.4841600000000000 0.2951350000000000
0.6586100000000000 0.4841599999999999 0.7951349999999999
0.6586100000000000 0.9841599999999999 0.2951350000000000
0.6586100000000000 0.9841599999999999 0.7951349999999999
0.3437500000000000 0.0504300000000000 0.3157450000000000
0.3437500000000000 0.0504300000000000 0.8157449999999999
0.3437500000000000 0.5504299999999999 0.3157450000000000
0.3437500000000000 0.5504299999999999 0.8157449999999999
0.8437500000000000 0.0504300000000000 0.3157450000000000
0.8437500000000000 0.0504300000000000 0.8157449999999999
0.8437500000000000 0.5504299999999999 0.3157450000000000
0.8437500000000000 0.5504299999999999 0.8157449999999999
0.3617000000000000 0.0705500000000000 0.3111500000000000
0.3617000000000000 0.0705500000000000 0.8111500000000000
0.3617000000000000 0.5705500000000000 0.3111500000000000
0.3617000000000000 0.5705500000000000 0.8111500000000000
0.8617000000000000 0.0705500000000000 0.3111500000000000
0.8617000000000000 0.0705500000000000 0.8111500000000000
0.8617000000000000 0.5705500000000000 0.3111500000000000
0.8617000000000000 0.5705500000000000 0.8111500000000000
0.3413900000000000 0.0158400000000000 0.2951350000000000
0.3413900000000000 0.0158400000000000 0.7951349999999999
0.3413900000000000 0.5158400000000000 0.2951350000000000
0.3413900000000000 0.5158400000000000 0.7951349999999999
0.8413900000000001 0.0158400000000000 0.2951350000000000
0.8413900000000001 0.0158400000000000 0.7951349999999999
0.8413900000000001 0.5158400000000000 0.2951350000000000
0.8413900000000001 0.5158400000000000 0.7951349999999999
0.4385250000000000 0.2539500000000000 0.0614750000000000
0.4385250000000000 0.2539500000000000 0.5614749999999999
0.4385250000000000 0.7539500000000000 0.0614750000000000
0.4385250000000000 0.7539500000000000 0.5614749999999999
0.9385250000000001 0.2539500000000000 0.0614750000000000
0.9385250000000001 0.2539500000000000 0.5614749999999999
0.9385250000000001 0.7539500000000000 0.0614750000000000
0.9385250000000001 0.7539500000000000 0.5614749999999999
0.4342550000000000 0.1995700000000000 0.0937500000000000
0.4342550000000000 0.1995699999999999 0.5937500000000000
0.4342550000000000 0.6995700000000000 0.0937500000000000
0.4342550000000000 0.6995700000000000 0.5937500000000000
0.9342550000000001 0.1995700000000000 0.0937500000000000
0.9342550000000001 0.1995699999999999 0.5937500000000000
0.9342550000000001 0.6995700000000000 0.0937500000000000
0.9342550000000001 0.6995700000000000 0.5937500000000000
0.4388499999999999 0.1794500000000000 0.1117000000000000
0.4388499999999999 0.1794500000000000 0.6117000000000000
0.4388499999999999 0.6794499999999999 0.1117000000000000
0.4388499999999999 0.6794499999999999 0.6117000000000000
0.9388500000000000 0.1794500000000000 0.1117000000000000
0.9388500000000000 0.1794500000000000 0.6117000000000000
0.9388500000000000 0.6794499999999999 0.1117000000000000
0.9388500000000000 0.6794499999999999 0.6117000000000000
0.4530500000000000 0.2927499999999998 0.0469500000000000
0.4530500000000000 0.2927499999999998 0.5469499999999999
0.4530500000000000 0.7927499999999998 0.0469500000000000
0.4530500000000000 0.7927499999999998 0.5469499999999999
0.9530500000000000 0.2927499999999998 0.0469500000000000
0.9530500000000000 0.2927499999999998 0.5469499999999999
0.9530500000000000 0.7927499999999998 0.0469500000000000
0.9530500000000000 0.7927499999999998 0.5469499999999999
0.4793500000000000 0.2898999999999998 0.0371500000000000
0.4793499999999999 0.2898999999999998 0.5371500000000000
0.4793499999999999 0.7898999999999998 0.0371500000000000
0.4793499999999999 0.7898999999999998 0.5371500000000000
0.9793499999999999 0.2898999999999998 0.0371500000000000
0.9793499999999999 0.2898999999999998 0.5371500000000000
0.9793499999999999 0.7898999999999998 0.0371500000000000
0.9793499999999999 0.7898999999999998 0.5371500000000000
0.4529000000000000 0.3114000000000000 0.0682000000000000
0.4529000000000000 0.3114000000000000 0.5681999999999999
0.4529000000000000 0.8114000000000000 0.0682000000000000
0.4529000000000000 0.8114000000000000 0.5681999999999999
0.9529000000000001 0.3114000000000000 0.0682000000000000
0.9529000000000001 0.3114000000000000 0.5681999999999999
0.9529000000000001 0.8114000000000000 0.0682000000000000
0.9529000000000001 0.8114000000000000 0.5681999999999999
0.4362000000000000 0.3019500000000000 0.0262500000000000
0.4362000000000000 0.3019500000000000 0.5262500000000000
0.4362000000000000 0.8019499999999999 0.0262500000000000
0.4362000000000000 0.8019499999999999 0.5262500000000000
0.9361999999999999 0.3019500000000000 0.0262500000000000
0.9361999999999999 0.3019500000000000 0.5262500000000000
0.9361999999999999 0.8019499999999999 0.0262500000000000
0.9361999999999999 0.8019499999999999 0.5262500000000000
0.4548650000000000 0.2341600000000000 0.0913900000000000
0.4548649999999999 0.2341600000000000 0.5913900000000000
0.4548649999999999 0.7341600000000000 0.0913900000000000
0.4548649999999999 0.7341600000000000 0.5913900000000000
0.9548650000000001 0.2341600000000000 0.0913900000000000
0.9548650000000001 0.2341600000000000 0.5913900000000000
0.9548650000000001 0.7341600000000000 0.0913900000000000
0.9548650000000001 0.7341600000000000 0.5913900000000000
0.2539500000000001 0.0614750000000000 0.4385250000000000
0.2539500000000000 0.0614750000000000 0.9385250000000001
0.2539500000000001 0.5614749999999999 0.4385250000000000
0.2539500000000000 0.5614749999999999 0.9385250000000001
0.7539500000000000 0.0614750000000000 0.4385250000000000
0.7539500000000000 0.0614750000000000 0.9385250000000001
0.7539500000000000 0.5614749999999999 0.4385250000000000
0.7539500000000000 0.5614749999999999 0.9385250000000001
0.1995699999999999 0.0657450000000000 0.4062499999999998
0.1995699999999999 0.0657450000000000 0.9062499999999999
0.1995699999999999 0.5657449999999999 0.4062499999999998
0.1995699999999999 0.5657450000000001 0.9062499999999999
0.6995700000000000 0.0657450000000000 0.4062499999999998
0.6995700000000001 0.0657450000000000 0.9062499999999999
0.6995700000000000 0.5657449999999999 0.4062499999999998
0.6995700000000001 0.5657450000000001 0.9062499999999999
0.1794500000000000 0.0611500000000000 0.3883000000000000
0.1794500000000000 0.0611500000000000 0.8883000000000000
0.1794500000000000 0.5611500000000000 0.3883000000000000
0.1794500000000000 0.5611500000000001 0.8883000000000000
0.6794499999999999 0.0611500000000000 0.3883000000000000
0.6794500000000000 0.0611500000000000 0.8883000000000000
0.6794499999999999 0.5611500000000000 0.3883000000000000
0.6794500000000000 0.5611500000000001 0.8883000000000000
0.2927499999999999 0.0469500000000000 0.4530500000000000
0.2927499999999998 0.0469500000000000 0.9530500000000000
0.2927499999999999 0.5469499999999999 0.4530500000000000
0.2927499999999998 0.5469499999999999 0.9530500000000000
0.7927499999999998 0.0469500000000000 0.4530500000000000
0.7927499999999998 0.0469500000000000 0.9530500000000000
0.7927499999999998 0.5469499999999999 0.4530500000000000
0.7927499999999998 0.5469499999999999 0.9530500000000000
0.2341600000000000 0.0451350000000000 0.4086100000000000
0.2341600000000000 0.0451350000000000 0.9086099999999999
0.2341600000000000 0.5451350000000000 0.4086100000000000
0.2341600000000000 0.5451350000000000 0.9086099999999999
0.7341600000000000 0.0451350000000000 0.4086100000000000
0.7341600000000000 0.0451350000000000 0.9086099999999999
0.7341600000000000 0.5451350000000000 0.4086100000000000
0.7341600000000000 0.5451350000000000 0.9086099999999999
0.0614750000000000 0.2460500000000000 0.0614750000000000
0.0614750000000000 0.2460500000000000 0.5614749999999999
0.0614750000000000 0.7460500000000000 0.0614750000000000
0.0614750000000000 0.7460500000000000 0.5614749999999999
0.5614749999999999 0.2460500000000000 0.0614750000000000
0.5614749999999999 0.2460500000000000 0.5614749999999999
0.5614749999999999 0.7460500000000000 0.0614750000000000
0.5614749999999999 0.7460500000000000 0.5614749999999999
0.0657450000000000 0.3004300000000000 0.0937500000000000
0.0657450000000000 0.3004300000000000 0.5937500000000000
0.0657450000000000 0.8004299999999999 0.0937500000000000
0.0657450000000000 0.8004299999999999 0.5937500000000000
0.5657449999999999 0.3004300000000000 0.0937500000000000
0.5657449999999999 0.3004300000000000 0.5937500000000000
0.5657449999999999 0.8004299999999999 0.0937500000000000
0.5657449999999999 0.8004299999999999 0.5937500000000000
0.0611500000000000 0.3205499999999999 0.1117000000000000
0.0611500000000000 0.3205499999999999 0.6117000000000000
0.0611500000000000 0.8205499999999999 0.1117000000000000
0.0611500000000000 0.8205499999999999 0.6117000000000000
0.5611500000000000 0.3205499999999999 0.1117000000000000
0.5611500000000000 0.3205499999999999 0.6117000000000000
0.5611500000000000 0.8205499999999999 0.1117000000000000
0.5611500000000000 0.8205499999999999 0.6117000000000000
0.0469500000000000 0.2072500000000000 0.0469500000000000
0.0469500000000000 0.2072500000000000 0.5469499999999999
0.0469500000000000 0.7072499999999999 0.0469500000000000
0.0469500000000000 0.7072499999999999 0.5469499999999999
0.5469499999999999 0.2072500000000000 0.0469500000000000
0.5469499999999999 0.2072500000000000 0.5469499999999999
0.5469499999999999 0.7072499999999999 0.0469500000000000
0.5469499999999999 0.7072499999999999 0.5469499999999999
0.0206500000000000 0.2101000000000000 0.0371500000000000
0.0206500000000000 0.2101000000000000 0.5371500000000000
0.0206500000000000 0.7101000000000000 0.0371500000000000
0.0206500000000000 0.7101000000000000 0.5371500000000000
0.5206500000000001 0.2101000000000000 0.0371500000000000
0.5206500000000001 0.2101000000000000 0.5371500000000000
0.5206500000000001 0.7101000000000000 0.0371500000000000
0.5206500000000001 0.7101000000000000 0.5371500000000000
0.0471000000000000 0.1886000000000000 0.0682000000000000
0.0471000000000000 0.1886000000000000 0.5681999999999999
0.0471000000000000 0.6886000000000000 0.0682000000000000
0.0471000000000000 0.6886000000000000 0.5681999999999999
0.5471000000000000 0.1886000000000000 0.0682000000000000
0.5471000000000000 0.1886000000000000 0.5681999999999999
0.5471000000000000 0.6886000000000000 0.0682000000000000
0.5471000000000000 0.6886000000000000 0.5681999999999999
0.0638000000000000 0.1980500000000000 0.0262500000000000
0.0638000000000000 0.1980500000000000 0.5262500000000000
0.0638000000000000 0.6980500000000001 0.0262500000000000
0.0638000000000000 0.6980500000000001 0.5262500000000000
0.5638000000000000 0.1980500000000000 0.0262500000000000
0.5638000000000000 0.1980500000000000 0.5262500000000000
0.5638000000000000 0.6980500000000001 0.0262500000000000
0.5638000000000000 0.6980500000000001 0.5262500000000000
0.0451350000000000 0.2658400000000000 0.0913900000000000
0.0451350000000000 0.2658400000000000 0.5913900000000000
0.0451350000000000 0.7658400000000001 0.0913900000000000
0.0451350000000000 0.7658400000000001 0.5913900000000000
0.5451350000000000 0.2658400000000000 0.0913900000000000
0.5451350000000000 0.2658400000000000 0.5913900000000000
0.5451350000000000 0.7658400000000001 0.0913900000000000
0.5451350000000000 0.7658400000000001 0.5913900000000000
0.2460500000000000 0.4385250000000001 0.4385250000000000
0.2460500000000000 0.4385250000000000 0.9385250000000001
0.2460500000000000 0.9385250000000001 0.4385250000000000
0.2460500000000000 0.9385250000000001 0.9385250000000001
0.7460500000000000 0.4385250000000001 0.4385250000000000
0.7460500000000000 0.4385250000000000 0.9385250000000001
0.7460500000000000 0.9385250000000001 0.4385250000000000
0.7460500000000000 0.9385250000000001 0.9385250000000001
0.3004300000000000 0.4342550000000000 0.4062499999999998
0.3004300000000000 0.4342550000000000 0.9062499999999999
0.3004300000000000 0.9342550000000001 0.4062499999999998
0.3004300000000000 0.9342550000000002 0.9062499999999999
0.8004299999999999 0.4342550000000000 0.4062499999999998
0.8004300000000000 0.4342550000000000 0.9062499999999999
0.8004299999999999 0.9342550000000001 0.4062499999999998
0.8004300000000000 0.9342550000000002 0.9062499999999999
0.3205499999999999 0.4388499999999999 0.3883000000000000
0.3205499999999999 0.4388499999999999 0.8883000000000000
0.3205499999999999 0.9388500000000000 0.3883000000000000
0.3205499999999999 0.9388500000000000 0.8883000000000000
0.8205499999999999 0.4388499999999999 0.3883000000000000
0.8205500000000000 0.4388499999999999 0.8883000000000000
0.8205499999999999 0.9388500000000000 0.3883000000000000
0.8205500000000000 0.9388500000000000 0.8883000000000000
0.2072500000000000 0.4530500000000000 0.4530500000000000
0.2072500000000000 0.4530500000000000 0.9530500000000000
0.2072500000000000 0.9530500000000000 0.4530500000000000
0.2072500000000000 0.9530499999999998 0.9530500000000000
0.7072499999999999 0.4530500000000000 0.4530500000000000
0.7072499999999999 0.4530500000000000 0.9530500000000000
0.7072499999999999 0.9530500000000000 0.4530500000000000
0.7072499999999999 0.9530499999999998 0.9530500000000000
0.2101000000000000 0.4793499999999999 0.4628499999999998
0.2101000000000000 0.4793500000000001 0.9628499999999999
0.2101000000000000 0.9793499999999999 0.4628499999999998
0.2101000000000000 0.9793499999999998 0.9628499999999999
0.7101000000000000 0.4793499999999999 0.4628499999999998
0.7101000000000000 0.4793500000000001 0.9628499999999999
0.7101000000000000 0.9793499999999999 0.4628499999999998
0.7100999999999998 0.9793499999999998 0.9628499999999999
0.1886000000000000 0.4529000000000001 0.4318000000000000
0.1886000000000000 0.4529000000000000 0.9318000000000000
0.1886000000000000 0.9529000000000001 0.4318000000000000
0.1886000000000000 0.9529000000000000 0.9318000000000000
0.6886000000000000 0.4529000000000001 0.4318000000000000
0.6886000000000000 0.4529000000000000 0.9318000000000000
0.6886000000000000 0.9529000000000001 0.4318000000000000
0.6886000000000000 0.9529000000000000 0.9318000000000000
0.1980500000000000 0.4362000000000000 0.4737499999999999
0.1980500000000000 0.4362000000000000 0.9737499999999998
0.1980500000000000 0.9361999999999999 0.4737499999999999
0.1980500000000000 0.9361999999999999 0.9737499999999998
0.6980500000000001 0.4362000000000000 0.4737499999999999
0.6980500000000001 0.4362000000000000 0.9737499999999998
0.6980500000000001 0.9361999999999999 0.4737499999999999
0.6980500000000001 0.9361999999999999 0.9737499999999998
0.2658400000000000 0.4548650000000000 0.4086100000000000
0.2658400000000000 0.4548649999999999 0.9086099999999999
0.2658400000000000 0.9548650000000001 0.4086100000000000
0.2658400000000000 0.9548650000000000 0.9086099999999999
0.7658400000000001 0.4548650000000000 0.4086100000000000
0.7658400000000001 0.4548649999999999 0.9086099999999999
0.7658400000000001 0.9548650000000001 0.4086100000000000
0.7658400000000001 0.9548650000000000 0.9086099999999999
0.4385250000000001 0.2460500000000000 0.4385250000000000
0.4385250000000000 0.2460500000000000 0.9385250000000001
0.4385250000000001 0.7460500000000000 0.4385250000000000
0.4385250000000000 0.7460500000000000 0.9385250000000001
0.9385250000000001 0.2460500000000000 0.4385250000000000
0.9385250000000001 0.2460500000000000 0.9385250000000001
0.9385250000000001 0.7460500000000000 0.4385250000000000
0.9385250000000001 0.7460500000000000 0.9385250000000001
0.4342550000000000 0.3004300000000000 0.4062499999999998
0.4342550000000000 0.3004300000000000 0.9062499999999999
0.4342550000000000 0.8004299999999999 0.4062499999999998
0.4342550000000000 0.8004300000000000 0.9062499999999999
0.9342550000000001 0.3004300000000000 0.4062499999999998
0.9342550000000002 0.3004300000000000 0.9062499999999999
0.9342550000000001 0.8004299999999999 0.4062499999999998
0.9342550000000002 0.8004300000000000 0.9062499999999999
0.4388499999999999 0.3205499999999999 0.3883000000000000
0.4388499999999999 0.3205499999999999 0.8883000000000000
0.4388499999999999 0.8205499999999999 0.3883000000000000
0.4388499999999999 0.8205500000000000 0.8883000000000000
0.9388500000000000 0.3205499999999999 0.3883000000000000
0.9388500000000000 0.3205499999999999 0.8883000000000000
0.9388500000000000 0.8205499999999999 0.3883000000000000
0.9388500000000000 0.8205500000000000 0.8883000000000000
0.4548650000000000 0.2658400000000000 0.4086100000000000
0.4548649999999999 0.2658400000000000 0.9086099999999999
0.4548649999999999 0.7658400000000001 0.4086100000000000
0.4548649999999999 0.7658400000000001 0.9086099999999999
0.9548650000000001 0.2658400000000000 0.4086100000000000
0.9548650000000000 0.2658400000000000 0.9086099999999999
0.9548650000000001 0.7658400000000001 0.4086100000000000
0.9548650000000000 0.7658400000000001 0.9086099999999999
0.2460500000000000 0.0614750000000000 0.0614750000000000
0.2460500000000000 0.0614750000000000 0.5614749999999999
0.2460500000000000 0.5614749999999999 0.0614750000000000
0.2460500000000000 0.5614749999999999 0.5614749999999999
0.7460500000000000 0.0614750000000000 0.0614750000000000
0.7460500000000000 0.0614750000000000 0.5614749999999999
0.7460500000000000 0.5614749999999999 0.0614750000000000
0.7460500000000000 0.5614749999999999 0.5614749999999999
0.3004300000000000 0.0657450000000000 0.0937500000000000
0.3004300000000000 0.0657450000000000 0.5937500000000000
0.3004300000000000 0.5657449999999999 0.0937500000000000
0.3004300000000000 0.5657449999999999 0.5937500000000000
0.8004299999999999 0.0657450000000000 0.0937500000000000
0.8004299999999999 0.0657450000000000 0.5937500000000000
0.8004299999999999 0.5657449999999999 0.0937500000000000
0.8004299999999999 0.5657449999999999 0.5937500000000000
0.3205499999999999 0.0611500000000000 0.1117000000000000
0.3205499999999999 0.0611500000000000 0.6117000000000000
0.3205499999999999 0.5611500000000000 0.1117000000000000
0.3205499999999999 0.5611500000000000 0.6117000000000000
0.8205499999999999 0.0611500000000000 0.1117000000000000
0.8205499999999999 0.0611500000000000 0.6117000000000000
0.8205499999999999 0.5611500000000000 0.1117000000000000
0.8205499999999999 0.5611500000000000 0.6117000000000000
0.2658400000000000 0.0451350000000000 0.0913900000000000
0.2658400000000000 0.0451350000000000 0.5913900000000000
0.2658400000000000 0.5451350000000000 0.0913900000000000
0.2658400000000000 0.5451350000000000 0.5913900000000000
0.7658400000000001 0.0451350000000000 0.0913900000000000
0.7658400000000001 0.0451350000000000 0.5913900000000000
0.7658400000000001 0.5451350000000000 0.0913900000000000
0.7658400000000001 0.5451350000000000 0.5913900000000000
0.0614750000000000 0.2539500000000001 0.4385250000000000
0.0614750000000000 0.2539500000000000 0.9385250000000001
0.0614750000000000 0.7539500000000000 0.4385250000000000
0.0614750000000000 0.7539500000000000 0.9385250000000001
0.5614749999999999 0.2539500000000001 0.4385250000000000
0.5614749999999999 0.2539500000000000 0.9385250000000001
0.5614749999999999 0.7539500000000000 0.4385250000000000
0.5614749999999999 0.7539500000000000 0.9385250000000001
0.0657450000000000 0.1995699999999999 0.4062499999999998
0.0657450000000000 0.1995699999999999 0.9062499999999999
0.0657450000000000 0.6995700000000000 0.4062499999999998
0.0657450000000000 0.6995700000000001 0.9062499999999999
0.5657449999999999 0.1995699999999999 0.4062499999999998
0.5657450000000001 0.1995699999999999 0.9062499999999999
0.5657449999999999 0.6995700000000000 0.4062499999999998
0.5657450000000001 0.6995700000000001 0.9062499999999999
0.0611500000000000 0.1794500000000000 0.3883000000000000
0.0611500000000000 0.1794500000000000 0.8883000000000000
0.0611500000000000 0.6794499999999999 0.3883000000000000
0.0611500000000000 0.6794500000000000 0.8883000000000000
0.5611500000000000 0.1794500000000000 0.3883000000000000
0.5611500000000001 0.1794500000000000 0.8883000000000000
0.5611500000000000 0.6794499999999999 0.3883000000000000
0.5611500000000001 0.6794500000000000 0.8883000000000000
0.0469500000000000 0.2927499999999999 0.4530500000000000
0.0469500000000000 0.2927499999999998 0.9530500000000000
0.0469500000000000 0.7927499999999998 0.4530500000000000
0.0469500000000000 0.7927499999999998 0.9530500000000000
0.5469499999999999 0.2927499999999999 0.4530500000000000
0.5469499999999999 0.2927499999999998 0.9530500000000000
0.5469499999999999 0.7927499999999998 0.4530500000000000
0.5469499999999999 0.7927499999999998 0.9530500000000000
0.0451350000000000 0.2341600000000000 0.4086100000000000
0.0451350000000000 0.2341600000000000 0.9086099999999999
0.0451350000000000 0.7341600000000000 0.4086100000000000
0.0451350000000000 0.7341600000000000 0.9086099999999999
0.5451350000000000 0.2341600000000000 0.4086100000000000
0.5451350000000000 0.2341600000000000 0.9086099999999999
0.5451350000000000 0.7341600000000000 0.4086100000000000
0.5451350000000000 0.7341600000000000 0.9086099999999999
0.2539500000000001 0.4385250000000000 0.0614750000000000
0.2539500000000001 0.4385250000000000 0.5614749999999999
0.2539500000000000 0.9385250000000001 0.0614750000000000
0.2539500000000000 0.9385250000000001 0.5614749999999999
0.7539500000000000 0.4385250000000000 0.0614750000000000
0.7539500000000000 0.4385250000000000 0.5614749999999999
0.7539500000000000 0.9385250000000001 0.0614750000000000
0.7539500000000000 0.9385250000000001 0.5614749999999999
0.1995699999999999 0.4342550000000000 0.0937500000000000
0.1995699999999999 0.4342550000000000 0.5937500000000000
0.1995699999999999 0.9342550000000001 0.0937500000000000
0.1995699999999999 0.9342550000000001 0.5937500000000000
0.6995700000000000 0.4342550000000000 0.0937500000000000
0.6995700000000000 0.4342550000000000 0.5937500000000000
0.6995700000000000 0.9342550000000001 0.0937500000000000
0.6995700000000000 0.9342550000000001 0.5937500000000000
0.1794500000000000 0.4388499999999999 0.1117000000000000
0.1794500000000000 0.4388499999999999 0.6117000000000000
0.1794500000000000 0.9388500000000000 0.1117000000000000
0.1794500000000000 0.9388500000000000 0.6117000000000000
0.6794499999999999 0.4388499999999999 0.1117000000000000
0.6794499999999999 0.4388499999999999 0.6117000000000000
0.6794499999999999 0.9388500000000000 0.1117000000000000
0.6794499999999999 0.9388500000000000 0.6117000000000000
0.2927499999999999 0.4530500000000000 0.0469500000000000
0.2927499999999999 0.4530500000000000 0.5469499999999999
0.2927499999999998 0.9530500000000000 0.0469500000000000
0.2927499999999998 0.9530500000000000 0.5469499999999999
0.7927499999999998 0.4530500000000000 0.0469500000000000
0.7927499999999998 0.4530500000000000 0.5469499999999999
0.7927499999999998 0.9530500000000000 0.0469500000000000
0.7927499999999998 0.9530500000000000 0.5469499999999999
0.2341600000000000 0.4548650000000000 0.0913900000000000
0.2341600000000000 0.4548649999999999 0.5913900000000000
0.2341600000000000 0.9548650000000001 0.0913900000000000
0.2341600000000000 0.9548650000000001 0.5913900000000000
0.7341600000000000 0.4548650000000000 0.0913900000000000
0.7341600000000000 0.4548649999999999 0.5913900000000000
0.7341600000000000 0.9548650000000001 0.0913900000000000
0.7341600000000000 0.9548650000000001 0.5913900000000000
0.0614750000000000 0.4385250000000000 0.2539500000000000
0.0614750000000000 0.4385250000000000 0.7539500000000000
0.0614750000000000 0.9385250000000001 0.2539500000000000
0.0614750000000000 0.9385250000000001 0.7539500000000000
0.5614749999999999 0.4385250000000000 0.2539500000000000
0.5614749999999999 0.4385250000000000 0.7539500000000000
0.5614749999999999 0.9385250000000001 0.2539500000000000
0.5614749999999999 0.9385250000000001 0.7539500000000000
0.0937500000000000 0.4342550000000000 0.1995700000000000
0.0937500000000000 0.4342550000000000 0.6995700000000000
0.0937500000000000 0.9342550000000001 0.1995700000000000
0.0937500000000000 0.9342550000000001 0.6995700000000000
0.5937500000000000 0.4342550000000000 0.1995700000000000
0.5937500000000000 0.4342550000000000 0.6995700000000000
0.5937500000000000 0.9342550000000001 0.1995700000000000
0.5937500000000000 0.9342550000000001 0.6995700000000000
0.1117000000000000 0.4388499999999999 0.1794500000000000
0.1117000000000000 0.4388499999999999 0.6794499999999999
0.1117000000000000 0.9388500000000000 0.1794500000000000
0.1117000000000000 0.9388500000000000 0.6794499999999999
0.6117000000000000 0.4388499999999999 0.1794500000000000
0.6117000000000000 0.4388499999999999 0.6794499999999999
0.6117000000000000 0.9388500000000000 0.1794500000000000
0.6117000000000000 0.9388500000000000 0.6794499999999999
0.0913900000000000 0.4548650000000000 0.2341600000000000
0.0913900000000000 0.4548649999999999 0.7341600000000000
0.0913900000000000 0.9548650000000001 0.2341600000000000
0.0913900000000000 0.9548650000000001 0.7341600000000000
0.5913900000000000 0.4548650000000000 0.2341600000000000
0.5913900000000000 0.4548649999999999 0.7341600000000000
0.5913900000000000 0.9548650000000001 0.2341600000000000
0.5913900000000000 0.9548650000000001 0.7341600000000000
0.4385250000000001 0.4385250000000000 0.2460500000000000
0.4385250000000001 0.4385250000000000 0.7460500000000000
0.4385250000000000 0.9385250000000001 0.2460500000000000
0.4385250000000000 0.9385250000000001 0.7460500000000000
0.9385250000000001 0.4385250000000000 0.2460500000000000
0.9385250000000001 0.4385250000000000 0.7460500000000000
0.9385250000000001 0.9385250000000001 0.2460500000000000
0.9385250000000001 0.9385250000000001 0.7460500000000000
0.4342550000000000 0.4062499999999998 0.3004300000000000
0.4342550000000000 0.4062499999999998 0.8004299999999999
0.4342550000000000 0.9062499999999999 0.3004300000000000
0.4342550000000000 0.9062499999999999 0.8004299999999999
0.9342550000000001 0.4062499999999998 0.3004300000000000
0.9342550000000001 0.4062499999999998 0.8004299999999999
0.9342550000000002 0.9062499999999999 0.3004300000000000
0.9342550000000002 0.9062499999999999 0.8004299999999999
0.4388499999999999 0.3883000000000000 0.3205499999999999
0.4388499999999999 0.3883000000000000 0.8205499999999999
0.4388499999999999 0.8883000000000000 0.3205499999999999
0.4388499999999999 0.8883000000000000 0.8205499999999999
0.9388500000000000 0.3883000000000000 0.3205499999999999
0.9388500000000000 0.3883000000000000 0.8205499999999999
0.9388500000000000 0.8883000000000000 0.3205499999999999
0.9388500000000000 0.8883000000000000 0.8205499999999999
0.4548650000000000 0.4086100000000000 0.2658400000000000
0.4548649999999999 0.4086100000000000 0.7658400000000001
0.4548649999999999 0.9086099999999999 0.2658400000000000
0.4548649999999999 0.9086099999999999 0.7658400000000001
0.9548650000000001 0.4086100000000000 0.2658400000000000
0.9548650000000001 0.4086100000000000 0.7658400000000001
0.9548650000000000 0.9086099999999999 0.2658400000000000
0.9548650000000000 0.9086099999999999 0.7658400000000001
0.4385250000000000 0.0614750000000000 0.2539500000000000
0.4385250000000000 0.0614750000000000 0.7539500000000000
0.4385250000000000 0.5614749999999999 0.2539500000000000
0.4385250000000000 0.5614749999999999 0.7539500000000000
0.9385250000000001 0.0614750000000000 0.2539500000000000
0.9385250000000001 0.0614750000000000 0.7539500000000000
0.9385250000000001 0.5614749999999999 0.2539500000000000
0.9385250000000001 0.5614749999999999 0.7539500000000000
0.4062499999999998 0.0657450000000000 0.1995700000000000
0.4062499999999998 0.0657450000000000 0.6995700000000000
0.4062499999999998 0.5657449999999999 0.1995700000000000
0.4062499999999998 0.5657449999999999 0.6995700000000000
0.9062499999999999 0.0657450000000000 0.1995700000000000
0.9062499999999999 0.0657450000000000 0.6995700000000000
0.9062499999999999 0.5657449999999999 0.1995700000000000
0.9062499999999999 0.5657449999999999 0.6995700000000000
0.3883000000000000 0.0611500000000000 0.1794500000000000
0.3883000000000000 0.0611500000000000 0.6794499999999999
0.3883000000000000 0.5611500000000000 0.1794500000000000
0.3883000000000000 0.5611500000000000 0.6794499999999999
0.8883000000000000 0.0611500000000000 0.1794500000000000
0.8883000000000000 0.0611500000000000 0.6794499999999999
0.8883000000000000 0.5611500000000000 0.1794500000000000
0.8883000000000000 0.5611500000000000 0.6794499999999999
0.4530500000000000 0.0469500000000000 0.2927499999999998
0.4530500000000000 0.0469500000000000 0.7927499999999998
0.4530500000000000 0.5469499999999999 0.2927499999999998
0.4530500000000000 0.5469499999999999 0.7927499999999998
0.9530500000000000 0.0469500000000000 0.2927499999999998
0.9530500000000000 0.0469500000000000 0.7927499999999998
0.9530500000000000 0.5469499999999999 0.2927499999999998
0.9530500000000000 0.5469499999999999 0.7927499999999998
0.4086100000000000 0.0451350000000000 0.2341600000000000
0.4086100000000000 0.0451350000000000 0.7341600000000000
0.4086100000000000 0.5451350000000000 0.2341600000000000
0.4086100000000000 0.5451350000000000 0.7341600000000000
0.9086099999999999 0.0451350000000000 0.2341600000000000
0.9086099999999999 0.0451350000000000 0.7341600000000000
0.9086099999999999 0.5451350000000000 0.2341600000000000
0.9086099999999999 0.5451350000000000 0.7341600000000000
0.0614750000000000 0.0614750000000000 0.2460500000000000
0.0614750000000000 0.0614750000000000 0.7460500000000000
0.0614750000000000 0.5614749999999999 0.2460500000000000
0.0614750000000000 0.5614749999999999 0.7460500000000000
0.5614749999999999 0.0614750000000000 0.2460500000000000
0.5614749999999999 0.0614750000000000 0.7460500000000000
0.5614749999999999 0.5614749999999999 0.2460500000000000
0.5614749999999999 0.5614749999999999 0.7460500000000000
0.0657450000000000 0.0937500000000000 0.3004300000000000
0.0657450000000000 0.0937500000000000 0.8004299999999999
0.0657450000000000 0.5937500000000000 0.3004300000000000
0.0657450000000000 0.5937500000000000 0.8004299999999999
0.5657449999999999 0.0937500000000000 0.3004300000000000
0.5657449999999999 0.0937500000000000 0.8004299999999999
0.5657449999999999 0.5937500000000000 0.3004300000000000
0.5657449999999999 0.5937500000000000 0.8004299999999999
0.0611500000000000 0.1117000000000000 0.3205499999999999
0.0611500000000000 0.1117000000000000 0.8205499999999999
0.0611500000000000 0.6117000000000000 0.3205499999999999
0.0611500000000000 0.6117000000000000 0.8205499999999999
0.5611500000000000 0.1117000000000000 0.3205499999999999
0.5611500000000000 0.1117000000000000 0.8205499999999999
0.5611500000000000 0.6117000000000000 0.3205499999999999
0.5611500000000000 0.6117000000000000 0.8205499999999999
0.0469500000000000 0.0469500000000000 0.2072500000000000
0.0469500000000000 0.0469500000000000 0.7072499999999999
0.0469500000000000 0.5469499999999999 0.2072500000000000
0.0469500000000000 0.5469499999999999 0.7072499999999999
0.5469499999999999 0.0469500000000000 0.2072500000000000
0.5469499999999999 0.0469500000000000 0.7072499999999999
0.5469499999999999 0.5469499999999999 0.2072500000000000
0.5469499999999999 0.5469499999999999 0.7072499999999999
0.0206500000000000 0.0371500000000000 0.2101000000000000
0.0206500000000000 0.0371500000000000 0.7101000000000000
0.0206500000000000 0.5371500000000000 0.2101000000000000
0.0206500000000000 0.5371500000000000 0.7101000000000000
0.5206500000000001 0.0371500000000000 0.2101000000000000
0.5206500000000001 0.0371500000000000 0.7101000000000000
0.5206500000000001 0.5371500000000000 0.2101000000000000
0.5206500000000001 0.5371500000000000 0.7101000000000000
0.0471000000000000 0.0682000000000000 0.1886000000000000
0.0471000000000000 0.0682000000000000 0.6886000000000000
0.0471000000000000 0.5681999999999999 0.1886000000000000
0.0471000000000000 0.5681999999999999 0.6886000000000000
0.5471000000000000 0.0682000000000000 0.1886000000000000
0.5471000000000000 0.0682000000000000 0.6886000000000000
0.5471000000000000 0.5681999999999999 0.1886000000000000
0.5471000000000000 0.5681999999999999 0.6886000000000000
0.0638000000000000 0.0262500000000000 0.1980500000000000
0.0638000000000000 0.0262500000000000 0.6980500000000001
0.0638000000000000 0.5262500000000000 0.1980500000000000
0.0638000000000000 0.5262500000000000 0.6980500000000001
0.5638000000000000 0.0262500000000000 0.1980500000000000
0.5638000000000000 0.0262500000000000 0.6980500000000001
0.5638000000000000 0.5262500000000000 0.1980500000000000
0.5638000000000000 0.5262500000000000 0.6980500000000001
0.0451350000000000 0.0913900000000000 0.2658400000000000
0.0451350000000000 0.0913900000000000 0.7658400000000001
0.0451350000000000 0.5913900000000000 0.2658400000000000
0.0451350000000000 0.5913900000000000 0.7658400000000001
0.5451350000000000 0.0913900000000000 0.2658400000000000
0.5451350000000000 0.0913900000000000 0.7658400000000001
0.5451350000000000 0.5913900000000000 0.2658400000000000
0.5451350000000000 0.5913900000000000 0.7658400000000001
0.0937500000000000 0.0657450000000000 0.3004300000000000
0.0937500000000000 0.0657450000000000 0.8004299999999999
0.0937500000000000 0.5657449999999999 0.3004300000000000
0.0937500000000000 0.5657449999999999 0.8004299999999999
0.5937500000000000 0.0657450000000000 0.3004300000000000
0.5937500000000000 0.0657450000000000 0.8004299999999999
0.5937500000000000 0.5657449999999999 0.3004300000000000
0.5937500000000000 0.5657449999999999 0.8004299999999999
0.1117000000000000 0.0611500000000000 0.3205499999999999
0.1117000000000000 0.0611500000000000 0.8205499999999999
0.1117000000000000 0.5611500000000000 0.3205499999999999
0.1117000000000000 0.5611500000000000 0.8205499999999999
0.6117000000000000 0.0611500000000000 0.3205499999999999
0.6117000000000000 0.0611500000000000 0.8205499999999999
0.6117000000000000 0.5611500000000000 0.3205499999999999
0.6117000000000000 0.5611500000000000 0.8205499999999999
0.0913900000000000 0.0451350000000000 0.2658400000000000
0.0913900000000000 0.0451350000000000 0.7658400000000001
0.0913900000000000 0.5451350000000000 0.2658400000000000
0.0913900000000000 0.5451350000000000 0.7658400000000001
0.5913900000000000 0.0451350000000000 0.2658400000000000
0.5913900000000000 0.0451350000000000 0.7658400000000001
0.5913900000000000 0.5451350000000000 0.2658400000000000
0.5913900000000000 0.5451350000000000 0.7658400000000001
0.0657450000000000 0.4062499999999998 0.1995700000000000
0.0657450000000000 0.4062499999999998 0.6995700000000000
0.0657450000000000 0.9062499999999999 0.1995700000000000
0.0657450000000000 0.9062499999999999 0.6995700000000000
0.5657449999999999 0.4062499999999998 0.1995700000000000
0.5657449999999999 0.4062499999999998 0.6995700000000000
0.5657450000000001 0.9062499999999999 0.1995700000000000
0.5657450000000001 0.9062499999999999 0.6995700000000000
0.0611500000000000 0.3883000000000000 0.1794500000000000
0.0611500000000000 0.3883000000000000 0.6794499999999999
0.0611500000000000 0.8883000000000000 0.1794500000000000
0.0611500000000000 0.8883000000000000 0.6794499999999999
0.5611500000000000 0.3883000000000000 0.1794500000000000
0.5611500000000000 0.3883000000000000 0.6794499999999999
0.5611500000000001 0.8883000000000000 0.1794500000000000
0.5611500000000001 0.8883000000000000 0.6794499999999999
0.0451350000000000 0.4086100000000000 0.2341600000000000
0.0451350000000000 0.4086100000000000 0.7341600000000000
0.0451350000000000 0.9086099999999999 0.2341600000000000
0.0451350000000000 0.9086099999999999 0.7341600000000000
0.5451350000000000 0.4086100000000000 0.2341600000000000
0.5451350000000000 0.4086100000000000 0.7341600000000000
0.5451350000000000 0.9086099999999999 0.2341600000000000
0.5451350000000000 0.9086099999999999 0.7341600000000000
0.4062499999999999 0.4342550000000000 0.3004300000000000
0.4062499999999999 0.4342550000000000 0.8004299999999999
0.4062499999999998 0.9342550000000001 0.3004300000000000
0.4062499999999998 0.9342550000000001 0.8004299999999999
0.9062499999999999 0.4342550000000000 0.3004300000000000
0.9062499999999999 0.4342550000000000 0.8004299999999999
0.9062499999999998 0.9342550000000001 0.3004300000000000
0.9062499999999998 0.9342550000000001 0.8004299999999999
0.3883000000000000 0.4388499999999999 0.3205499999999999
0.3883000000000000 0.4388499999999999 0.8205499999999999
0.3883000000000000 0.9388500000000000 0.3205499999999999
0.3883000000000000 0.9388500000000000 0.8205499999999999
0.8883000000000000 0.4388499999999999 0.3205499999999999
0.8883000000000000 0.4388499999999999 0.8205499999999999
0.8883000000000000 0.9388500000000000 0.3205499999999999
0.8883000000000000 0.9388500000000000 0.8205499999999999
0.4086100000000000 0.4548650000000000 0.2658400000000000
0.4086100000000000 0.4548649999999999 0.7658400000000001
0.4086100000000000 0.9548650000000001 0.2658400000000000
0.4086100000000000 0.9548650000000001 0.7658400000000001
0.9086099999999999 0.4548650000000000 0.2658400000000000
0.9086099999999999 0.4548649999999999 0.7658400000000001
0.9086099999999999 0.9548650000000001 0.2658400000000000
0.9086099999999999 0.9548650000000001 0.7658400000000001
0.4342550000000000 0.0937500000000000 0.1995700000000000
0.4342550000000000 0.0937500000000000 0.6995700000000000
0.4342550000000000 0.5937500000000000 0.1995700000000000
0.4342550000000000 0.5937500000000000 0.6995700000000000
0.9342550000000001 0.0937500000000000 0.1995700000000000
0.9342550000000001 0.0937500000000000 0.6995700000000000
0.9342550000000001 0.5937500000000000 0.1995700000000000
0.9342550000000001 0.5937500000000000 0.6995700000000000
0.4388499999999999 0.1117000000000000 0.1794500000000000
0.4388499999999999 0.1117000000000000 0.6794499999999999
0.4388499999999999 0.6117000000000000 0.1794500000000000
0.4388499999999999 0.6117000000000000 0.6794499999999999
0.9388500000000000 0.1117000000000000 0.1794500000000000
0.9388500000000000 0.1117000000000000 0.6794499999999999
0.9388500000000000 0.6117000000000000 0.1794500000000000
0.9388500000000000 0.6117000000000000 0.6794499999999999
0.4793500000000000 0.0371500000000000 0.2898999999999998
0.4793499999999999 0.0371500000000000 0.7898999999999998
0.4793499999999999 0.5371500000000000 0.2898999999999998
0.4793499999999999 0.5371500000000000 0.7898999999999998
0.9793499999999999 0.0371500000000000 0.2898999999999998
0.9793499999999999 0.0371500000000000 0.7898999999999998
0.9793499999999999 0.5371500000000000 0.2898999999999998
0.9793499999999999 0.5371500000000000 0.7898999999999998
0.4529000000000000 0.0682000000000000 0.3114000000000000
0.4529000000000000 0.0682000000000000 0.8114000000000000
0.4529000000000000 0.5681999999999999 0.3114000000000000
0.4529000000000000 0.5681999999999999 0.8114000000000000
0.9529000000000001 0.0682000000000000 0.3114000000000000
0.9529000000000001 0.0682000000000000 0.8114000000000000
0.9529000000000001 0.5681999999999999 0.3114000000000000
0.9529000000000001 0.5681999999999999 0.8114000000000000
0.4362000000000000 0.0262500000000000 0.3019500000000000
0.4362000000000000 0.0262500000000000 0.8019499999999999
0.4362000000000000 0.5262500000000000 0.3019500000000000
0.4362000000000000 0.5262500000000000 0.8019499999999999
0.9361999999999999 0.0262500000000000 0.3019500000000000
0.9361999999999999 0.0262500000000000 0.8019499999999999
0.9361999999999999 0.5262500000000000 0.3019500000000000
0.9361999999999999 0.5262500000000000 0.8019499999999999
0.4548650000000000 0.0913900000000000 0.2341600000000000
0.4548649999999999 0.0913900000000000 0.7341600000000000
0.4548649999999999 0.5913900000000000 0.2341600000000000
0.4548649999999999 0.5913900000000000 0.7341600000000000
0.9548650000000001 0.0913900000000000 0.2341600000000000
0.9548650000000001 0.0913900000000000 0.7341600000000000
0.9548650000000001 0.5913900000000000 0.2341600000000000
0.9548650000000001 0.5913900000000000 0.7341600000000000
0.1995699999999999 0.0937500000000000 0.4342550000000000
0.1995699999999999 0.0937500000000000 0.9342550000000001
0.1995699999999999 0.5937500000000000 0.4342550000000000
0.1995699999999999 0.5937500000000000 0.9342550000000001
0.6995700000000000 0.0937500000000000 0.4342550000000000
0.6995700000000000 0.0937500000000000 0.9342550000000001
0.6995700000000000 0.5937500000000000 0.4342550000000000
0.6995700000000000 0.5937500000000000 0.9342550000000001
0.1794500000000000 0.1117000000000000 0.4388499999999999
0.1794500000000000 0.1117000000000000 0.9388500000000000
0.1794500000000000 0.6117000000000000 0.4388499999999999
0.1794500000000000 0.6117000000000000 0.9388500000000000
0.6794499999999999 0.1117000000000000 0.4388499999999999
0.6794499999999999 0.1117000000000000 0.9388500000000000
0.6794499999999999 0.6117000000000000 0.4388499999999999
0.6794499999999999 0.6117000000000000 0.9388500000000000
0.2898999999999998 0.0371500000000000 0.4793500000000000
0.2898999999999998 0.0371500000000000 0.9793499999999999
0.2898999999999998 0.5371500000000000 0.4793500000000000
0.2898999999999998 0.5371499999999999 0.9793499999999999
0.7898999999999998 0.0371500000000000 0.4793500000000000
0.7898999999999998 0.0371500000000000 0.9793499999999999
0.7898999999999998 0.5371500000000000 0.4793500000000000
0.7898999999999998 0.5371499999999999 0.9793499999999999
0.3114000000000001 0.0682000000000000 0.4529000000000000
0.3114000000000000 0.0682000000000000 0.9529000000000001
0.3114000000000001 0.5681999999999999 0.4529000000000000
0.3114000000000000 0.5681999999999999 0.9529000000000001
0.8114000000000000 0.0682000000000000 0.4529000000000000
0.8114000000000000 0.0682000000000000 0.9529000000000001
0.8114000000000000 0.5681999999999999 0.4529000000000000
0.8114000000000000 0.5681999999999999 0.9529000000000001
0.3019500000000001 0.0262500000000000 0.4362000000000000
0.3019500000000000 0.0262500000000000 0.9361999999999999
0.3019500000000001 0.5262500000000000 0.4362000000000000
0.3019500000000000 0.5262500000000000 0.9361999999999999
0.8019499999999999 0.0262500000000000 0.4362000000000000
0.8019499999999999 0.0262500000000000 0.9361999999999999
0.8019499999999999 0.5262500000000000 0.4362000000000000
0.8019499999999999 0.5262500000000000 0.9361999999999999
0.2341600000000000 0.0913900000000000 0.4548650000000000
0.2341600000000000 0.0913900000000000 0.9548650000000001
0.2341600000000000 0.5913900000000000 0.4548650000000000
0.2341600000000000 0.5913900000000000 0.9548650000000001
0.7341600000000000 0.0913900000000000 0.4548650000000000
0.7341600000000000 0.0913900000000000 0.9548650000000001
0.7341600000000000 0.5913900000000000 0.4548650000000000
0.7341600000000000 0.5913900000000000 0.9548650000000001
0.1995699999999999 0.4062499999999998 0.0657450000000000
0.1995699999999999 0.4062499999999998 0.5657449999999999
0.1995699999999999 0.9062499999999999 0.0657450000000000
0.1995699999999999 0.9062499999999999 0.5657449999999999
0.6995700000000000 0.4062499999999998 0.0657450000000000
0.6995700000000000 0.4062499999999998 0.5657449999999999
0.6995700000000001 0.9062499999999999 0.0657450000000000
0.6995700000000001 0.9062499999999999 0.5657449999999999
0.1794500000000000 0.3883000000000000 0.0611500000000000
0.1794500000000000 0.3883000000000000 0.5611500000000000
0.1794500000000000 0.8883000000000000 0.0611500000000000
0.1794500000000000 0.8883000000000000 0.5611500000000000
0.6794499999999999 0.3883000000000000 0.0611500000000000
0.6794499999999999 0.3883000000000000 0.5611500000000000
0.6794500000000000 0.8883000000000000 0.0611500000000000
0.6794500000000000 0.8883000000000000 0.5611500000000000
0.2898999999999998 0.4628499999999998 0.0206500000000000
0.2898999999999998 0.4628499999999998 0.5206500000000001
0.2898999999999998 0.9628499999999999 0.0206500000000000
0.2898999999999998 0.9628499999999999 0.5206500000000001
0.7898999999999998 0.4628499999999998 0.0206500000000000
0.7898999999999998 0.4628499999999998 0.5206500000000001
0.7898999999999998 0.9628499999999999 0.0206500000000000
0.7898999999999998 0.9628499999999999 0.5206500000000001
0.3114000000000001 0.4318000000000000 0.0471000000000000
0.3114000000000001 0.4318000000000000 0.5471000000000000
0.3114000000000000 0.9318000000000000 0.0471000000000000
0.3114000000000000 0.9318000000000000 0.5471000000000000
0.8114000000000000 0.4318000000000000 0.0471000000000000
0.8114000000000000 0.4318000000000000 0.5471000000000000
0.8114000000000000 0.9318000000000000 0.0471000000000000
0.8114000000000000 0.9318000000000000 0.5471000000000000
0.3019500000000000 0.4737499999999999 0.0638000000000000
0.3019500000000000 0.4737499999999999 0.5638000000000000
0.3019500000000000 0.9737499999999998 0.0638000000000000
0.3019500000000000 0.9737499999999998 0.5638000000000000
0.8019499999999999 0.4737499999999999 0.0638000000000000
0.8019499999999999 0.4737499999999999 0.5638000000000000
0.8019499999999999 0.9737499999999998 0.0638000000000000
0.8019499999999999 0.9737499999999998 0.5638000000000000
0.2341600000000000 0.4086100000000000 0.0451350000000000
0.2341600000000000 0.4086100000000000 0.5451350000000000
0.2341600000000000 0.9086099999999999 0.0451350000000000
0.2341600000000000 0.9086099999999999 0.5451350000000000
0.7341600000000000 0.4086100000000000 0.0451350000000000
0.7341600000000000 0.4086100000000000 0.5451350000000000
0.7341600000000000 0.9086099999999999 0.0451350000000000
0.7341600000000000 0.9086099999999999 0.5451350000000000
0.4062499999999999 0.3004300000000000 0.4342550000000000
0.4062499999999998 0.3004300000000000 0.9342550000000001
0.4062499999999999 0.8004299999999999 0.4342550000000000
0.4062499999999998 0.8004299999999999 0.9342550000000001
0.9062499999999999 0.3004300000000000 0.4342550000000000
0.9062499999999998 0.3004300000000000 0.9342550000000001
0.9062499999999999 0.8004299999999999 0.4342550000000000
0.9062499999999998 0.8004299999999999 0.9342550000000001
0.3883000000000000 0.3205499999999999 0.4388499999999999
0.3883000000000000 0.3205499999999999 0.9388500000000000
0.3883000000000000 0.8205499999999999 0.4388499999999999
0.3883000000000000 0.8205499999999999 0.9388500000000000
0.8883000000000000 0.3205499999999999 0.4388499999999999
0.8883000000000000 0.3205499999999999 0.9388500000000000
0.8883000000000000 0.8205499999999999 0.4388499999999999
0.8883000000000000 0.8205499999999999 0.9388500000000000
0.4086100000000000 0.2658400000000000 0.4548650000000000
0.4086100000000000 0.2658400000000000 0.9548650000000001
0.4086100000000000 0.7658400000000001 0.4548650000000000
0.4086100000000000 0.7658400000000001 0.9548650000000001
0.9086099999999999 0.2658400000000000 0.4548650000000000
0.9086099999999999 0.2658400000000000 0.9548650000000001
0.9086099999999999 0.7658400000000001 0.4548650000000000
0.9086099999999999 0.7658400000000001 0.9548650000000001
0.3004300000000000 0.0937500000000000 0.0657450000000000
0.3004300000000000 0.0937500000000000 0.5657449999999999
0.3004300000000000 0.5937500000000000 0.0657450000000000
0.3004300000000000 0.5937500000000000 0.5657449999999999
0.8004299999999999 0.0937500000000000 0.0657450000000000
0.8004299999999999 0.0937500000000000 0.5657449999999999
0.8004299999999999 0.5937500000000000 0.0657450000000000
0.8004299999999999 0.5937500000000000 0.5657449999999999
0.3205499999999999 0.1117000000000000 0.0611500000000000
0.3205499999999999 0.1117000000000000 0.5611500000000000
0.3205499999999999 0.6117000000000000 0.0611500000000000
0.3205499999999999 0.6117000000000000 0.5611500000000000
0.8205499999999999 0.1117000000000000 0.0611500000000000
0.8205499999999999 0.1117000000000000 0.5611500000000000
0.8205499999999999 0.6117000000000000 0.0611500000000000
0.8205499999999999 0.6117000000000000 0.5611500000000000
0.2658400000000000 0.0913900000000000 0.0451350000000000
0.2658400000000000 0.0913900000000000 0.5451350000000000
0.2658400000000000 0.5913900000000000 0.0451350000000000
0.2658400000000000 0.5913900000000000 0.5451350000000000
0.7658400000000001 0.0913900000000000 0.0451350000000000
0.7658400000000001 0.0913900000000000 0.5451350000000000
0.7658400000000001 0.5913900000000000 0.0451350000000000
0.7658400000000001 0.5913900000000000 0.5451350000000000
0.0937500000000000 0.1995699999999999 0.4342550000000000
0.0937500000000000 0.1995699999999999 0.9342550000000001
0.0937500000000000 0.6995700000000000 0.4342550000000000
0.0937500000000000 0.6995700000000000 0.9342550000000001
0.5937500000000000 0.1995699999999999 0.4342550000000000
0.5937500000000000 0.1995699999999999 0.9342550000000001
0.5937500000000000 0.6995700000000000 0.4342550000000000
0.5937500000000000 0.6995700000000000 0.9342550000000001
0.1117000000000000 0.1794500000000000 0.4388499999999999
0.1117000000000000 0.1794500000000000 0.9388500000000000
0.1117000000000000 0.6794499999999999 0.4388499999999999
0.1117000000000000 0.6794499999999999 0.9388500000000000
0.6117000000000000 0.1794500000000000 0.4388499999999999
0.6117000000000000 0.1794500000000000 0.9388500000000000
0.6117000000000000 0.6794499999999999 0.4388499999999999
0.6117000000000000 0.6794499999999999 0.9388500000000000
0.0371500000000000 0.2898999999999998 0.4793500000000000
0.0371500000000000 0.2898999999999998 0.9793499999999999
0.0371500000000000 0.7898999999999998 0.4793500000000000
0.0371500000000000 0.7898999999999998 0.9793499999999999
0.5371500000000000 0.2898999999999998 0.4793500000000000
0.5371499999999999 0.2898999999999998 0.9793499999999999
0.5371500000000000 0.7898999999999998 0.4793500000000000
0.5371499999999999 0.7898999999999998 0.9793499999999999
0.0682000000000000 0.3114000000000001 0.4529000000000000
0.0682000000000000 0.3114000000000000 0.9529000000000001
0.0682000000000000 0.8114000000000000 0.4529000000000000
0.0682000000000000 0.8114000000000000 0.9529000000000001
0.5681999999999999 0.3114000000000001 0.4529000000000000
0.5681999999999999 0.3114000000000000 0.9529000000000001
0.5681999999999999 0.8114000000000000 0.4529000000000000
0.5681999999999999 0.8114000000000000 0.9529000000000001
0.0262500000000000 0.3019500000000001 0.4362000000000000
0.0262500000000000 0.3019500000000000 0.9361999999999999
0.0262500000000000 0.8019499999999999 0.4362000000000000
0.0262500000000000 0.8019499999999999 0.9361999999999999
0.5262500000000000 0.3019500000000001 0.4362000000000000
0.5262500000000000 0.3019500000000000 0.9361999999999999
0.5262500000000000 0.8019499999999999 0.4362000000000000
0.5262500000000000 0.8019499999999999 0.9361999999999999
0.0913900000000000 0.2341600000000000 0.4548650000000000
0.0913900000000000 0.2341600000000000 0.9548650000000001
0.0913900000000000 0.7341600000000000 0.4548650000000000
0.0913900000000000 0.7341600000000000 0.9548650000000001
0.5913900000000000 0.2341600000000000 0.4548650000000000
0.5913900000000000 0.2341600000000000 0.9548650000000001
0.5913900000000000 0.7341600000000000 0.4548650000000000
0.5913900000000000 0.7341600000000000 0.9548650000000001
0.3004300000000000 0.4062499999999999 0.4342550000000000
0.3004300000000000 0.4062499999999998 0.9342550000000001
0.3004300000000000 0.9062499999999999 0.4342550000000000
0.3004300000000000 0.9062499999999998 0.9342550000000001
0.8004299999999999 0.4062499999999999 0.4342550000000000
0.8004299999999999 0.4062499999999998 0.9342550000000001
0.8004300000000000 0.9062499999999999 0.4342550000000000
0.8004300000000000 0.9062499999999998 0.9342550000000001
0.3205499999999999 0.3883000000000000 0.4388499999999999
0.3205499999999999 0.3883000000000000 0.9388500000000000
0.3205499999999999 0.8883000000000000 0.4388499999999999
0.3205499999999999 0.8883000000000000 0.9388500000000000
0.8205499999999999 0.3883000000000000 0.4388499999999999
0.8205499999999999 0.3883000000000000 0.9388500000000000
0.8205500000000000 0.8883000000000000 0.4388499999999999
0.8205500000000000 0.8883000000000000 0.9388500000000000
0.2658400000000000 0.4086100000000000 0.4548650000000000
0.2658400000000000 0.4086100000000000 0.9548650000000001
0.2658400000000000 0.9086099999999999 0.4548650000000000
0.2658400000000000 0.9086099999999999 0.9548650000000001
0.7658400000000001 0.4086100000000000 0.4548650000000000
0.7658400000000001 0.4086100000000000 0.9548650000000001
0.7658400000000001 0.9086099999999999 0.4548650000000000
0.7658400000000001 0.9086099999999999 0.9548650000000001
0.4062499999999998 0.1995700000000000 0.0657450000000000
0.4062499999999998 0.1995699999999999 0.5657449999999999
0.4062499999999998 0.6995700000000000 0.0657450000000000
0.4062499999999998 0.6995700000000000 0.5657449999999999
0.9062499999999999 0.1995700000000000 0.0657450000000000
0.9062499999999999 0.1995699999999999 0.5657449999999999
0.9062499999999999 0.6995700000000000 0.0657450000000000
0.9062499999999999 0.6995700000000000 0.5657449999999999
0.3883000000000000 0.1794500000000000 0.0611500000000000
0.3883000000000000 0.1794500000000000 0.5611500000000000
0.3883000000000000 0.6794499999999999 0.0611500000000000
0.3883000000000000 0.6794499999999999 0.5611500000000000
0.8883000000000000 0.1794500000000000 0.0611500000000000
0.8883000000000000 0.1794500000000000 0.5611500000000000
0.8883000000000000 0.6794499999999999 0.0611500000000000
0.8883000000000000 0.6794499999999999 0.5611500000000000
0.4086100000000000 0.2341600000000000 0.0451350000000000
0.4086100000000000 0.2341600000000000 0.5451350000000000
0.4086100000000000 0.7341600000000000 0.0451350000000000
0.4086100000000000 0.7341600000000000 0.5451350000000000
0.9086099999999999 0.2341600000000000 0.0451350000000000
0.9086099999999999 0.2341600000000000 0.5451350000000000
0.9086099999999999 0.7341600000000000 0.0451350000000000
0.9086099999999999 0.7341600000000000 0.5451350000000000
0.0937500000000000 0.3004300000000000 0.0657450000000000
0.0937500000000000 0.3004300000000000 0.5657449999999999
0.0937500000000000 0.8004299999999999 0.0657450000000000
0.0937500000000000 0.8004299999999999 0.5657449999999999
0.5937500000000000 0.3004300000000000 0.0657450000000000
0.5937500000000000 0.3004300000000000 0.5657449999999999
0.5937500000000000 0.8004299999999999 0.0657450000000000
0.5937500000000000 0.8004299999999999 0.5657449999999999
0.1117000000000000 0.3205499999999999 0.0611500000000000
0.1117000000000000 0.3205499999999999 0.5611500000000000
0.1117000000000000 0.8205499999999999 0.0611500000000000
0.1117000000000000 0.8205499999999999 0.5611500000000000
0.6117000000000000 0.3205499999999999 0.0611500000000000
0.6117000000000000 0.3205499999999999 0.5611500000000000
0.6117000000000000 0.8205499999999999 0.0611500000000000
0.6117000000000000 0.8205499999999999 0.5611500000000000
0.0913900000000000 0.2658400000000000 0.0451350000000000
0.0913900000000000 0.2658400000000000 0.5451350000000000
0.0913900000000000 0.7658400000000001 0.0451350000000000
0.0913900000000000 0.7658400000000001 0.5451350000000000
0.5913900000000000 0.2658400000000000 0.0451350000000000
0.5913900000000000 0.2658400000000000 0.5451350000000000
0.5913900000000000 0.7658400000000001 0.0451350000000000
0.5913900000000000 0.7658400000000001 0.5451350000000000
0.1768527477028055 0.0402635987632986 0.0365248255870182
0.1768527477028055 0.0402635987632986 0.5365248255870182
0.1768527477028055 0.5402635987632985 0.0365248255870182
0.1768527477028055 0.5402635987632985 0.5365248255870182
0.6768527477028055 0.0402635987632986 0.0365248255870182
0.6768527477028055 0.0402635987632986 0.5365248255870182
0.6768527477028055 0.5402635987632985 0.0365248255870182
0.6768527477028055 0.5402635987632985 0.5365248255870182
0.2076473222414779 0.0487114221736232 0.0486999014927289
0.2076473222414779 0.0487114221736232 0.5486999014927290
0.2076473222414779 0.5487114221736232 0.0486999014927289
0.2076473222414779 0.5487114221736232 0.5486999014927290
0.7076473222414779 0.0487114221736232 0.0486999014927289
0.7076473222414779 0.0487114221736232 0.5486999014927290
0.7076473222414779 0.5487114221736232 0.0486999014927289
0.7076473222414779 0.5487114221736232 0.5486999014927290
0.4597367526732516 0.1768529830619434 0.4634755258559506
0.4597367526732516 0.1768529830619434 0.9634755258559505
0.4597367526732516 0.6768529830619434 0.4634755258559506
0.4597367526732516 0.6768529830619434 0.9634755258559505
0.9597367526732515 0.1768529830619434 0.4634755258559506
0.9597367526732514 0.1768529830619434 0.9634755258559505
0.9597367526732515 0.6768529830619434 0.4634755258559506
0.9597367526732514 0.6768529830619434 0.9634755258559505
0.4512887763820360 0.2076474552153781 0.4513002970665567
0.4512887763820359 0.2076474552153781 0.9513002970665566
0.4512887763820360 0.7076474552153781 0.4513002970665567
0.4512887763820359 0.7076474552153781 0.9513002970665566
0.9512887763820359 0.2076474552153781 0.4513002970665567
0.9512887763820358 0.2076474552153781 0.9513002970665566
0.9512887763820359 0.7076474552153781 0.4513002970665567
0.9512887763820358 0.7076474552153781 0.9513002970665566
0.4597364012367013 0.4634751744129817 0.1768527477028055
0.4597364012367013 0.4634751744129817 0.6768527477028055
0.4597364012367013 0.9634751744129816 0.1768527477028055
0.4597364012367013 0.9634751744129816 0.6768527477028055
0.9597364012367013 0.4634751744129817 0.1768527477028055
0.9597364012367013 0.4634751744129817 0.6768527477028055
0.9597364012367012 0.9634751744129816 0.1768527477028055
0.9597364012367012 0.9634751744129816 0.6768527477028055
0.4512885778263767 0.4513000985072709 0.2076473222414779
0.4512885778263767 0.4513000985072709 0.7076473222414779
0.4512885778263767 0.9513000985072709 0.2076473222414779
0.4512885778263767 0.9513000985072709 0.7076473222414779
0.9512885778263765 0.4513000985072709 0.2076473222414779
0.9512885778263765 0.4513000985072709 0.7076473222414779
0.9512885778263764 0.9513000985072709 0.2076473222414779
0.9512885778263764 0.9513000985072709 0.7076473222414779
0.0365244741440492 0.4597367526732517 0.3231470169380565
0.0365244741440492 0.4597367526732517 0.8231470169380566
0.0365244741440492 0.9597367526732515 0.3231470169380565
0.0365244741440492 0.9597367526732515 0.8231470169380566
0.5365244741440492 0.4597367526732517 0.3231470169380565
0.5365244741440492 0.4597367526732517 0.8231470169380566
0.5365244741440492 0.9597367526732515 0.3231470169380565
0.5365244741440492 0.9597367526732515 0.8231470169380566
0.0486997029334433 0.4512887763820360 0.2923525447846219
0.0486997029334433 0.4512887763820360 0.7923525447846218
0.0486997029334433 0.9512887763820359 0.2923525447846219
0.0486997029334433 0.9512887763820359 0.7923525447846218
0.5486997029334432 0.4512887763820360 0.2923525447846219
0.5486997029334432 0.4512887763820360 0.7923525447846218
0.5486997029334432 0.9512887763820359 0.2923525447846219
0.5486997029334432 0.9512887763820359 0.7923525447846218
0.3146606608329302 0.2345914825537223 0.3129559799171618
0.3146606608329302 0.2345914825537223 0.8129559799171617
0.3146606608329302 0.7345914825537223 0.3129559799171618
0.3146606608329302 0.7345914825537223 0.8129559799171617
0.8146606608329300 0.2345914825537223 0.3129559799171618
0.8146606608329300 0.2345914825537223 0.8129559799171617
0.8146606608329300 0.7345914825537223 0.3129559799171618
0.8146606608329300 0.7345914825537223 0.8129559799171617
0.3163213167139106 0.2007433303087695 0.3173660622686780
0.3163213167139106 0.2007433303087695 0.8173660622686780
0.3163213167139106 0.7007433303087695 0.3173660622686780
0.3163213167139106 0.7007433303087695 0.8173660622686780
0.8163213167139106 0.2007433303087695 0.3173660622686780
0.8163213167139106 0.2007433303087695 0.8173660622686780
0.8163213167139106 0.7007433303087695 0.3173660622686780
0.8163213167139106 0.7007433303087695 0.8173660622686780
0.2347596011579890 0.3214456026770097 0.3123826606193453
0.2347596011579889 0.3214456026770097 0.8123826606193453
0.2347596011579889 0.8214456026770095 0.3123826606193453
0.2347596011579889 0.8214456026770095 0.8123826606193453
0.7347596011579890 0.3214456026770097 0.3123826606193453
0.7347596011579890 0.3214456026770097 0.8123826606193453
0.7347596011579890 0.8214456026770095 0.3123826606193453
0.7347596011579890 0.8214456026770095 0.8123826606193453
0.2007897823786125 0.3197120317536404 0.3156917630126941
0.2007897823786125 0.3197120317536404 0.8156917630126941
0.2007897823786125 0.8197120317536403 0.3156917630126941
0.2007897823786125 0.8197120317536403 0.8156917630126941
0.7007897823786126 0.3197120317536404 0.3156917630126941
0.7007897823786126 0.3197120317536404 0.8156917630126941
0.7007897823786126 0.8197120317536403 0.3156917630126941
0.7007897823786126 0.8197120317536403 0.8156917630126941
