# Co-dmd_collapsedCo_p-F2-bdp_
1.000000
 28.1115999999999993   0.0000000000000000         0.0000000000
  0.0000000000000015  24.5204999999999984         0.0000000000
-10.9375519619857986   0.0000000000000025        27.1586940709
Co C C C C C C C C C C C C H H H H H H F F N N N N 
64 64 64 64 64 64 64 64 64 64 64 64 64 64 64 64 64 64 64 64 64 64 64 64 64 
Direct
0.1932500000000000 0.5094000000000000 0.1277500000000000
0.0567500000000000 0.0093999999999999 0.2472500000000000
0.0567500000000000 0.4906000000000001 0.1222500000000000
0.1932500000000000 0.9906000000000003 0.0027500000000000
0.1932500000000000 0.5094000000000001 0.3777500000000000
0.0567500000000000 0.0093999999999999 0.4972500000000000
0.0567500000000000 0.4906000000000001 0.3722500000000000
0.1932500000000000 0.9906000000000003 0.2527500000000000
0.1932499999999999 0.5094000000000000 0.6277500000000000
0.0567500000000000 0.0093999999999999 0.7472500000000000
0.0567500000000000 0.4906000000000001 0.6222500000000000
0.1932500000000000 0.9906000000000003 0.5027500000000000
0.1932499999999999 0.5094000000000000 0.8777499999999999
0.0567500000000000 0.0093999999999999 0.9972500000000000
0.0567499999999999 0.4906000000000000 0.8722499999999999
0.1932500000000000 0.9906000000000003 0.7527500000000000
0.4432500000000001 0.5094000000000000 0.1277500000000000
0.3067500000000000 0.0093999999999999 0.2472500000000000
0.3067500000000000 0.4906000000000001 0.1222500000000000
0.4432500000000001 0.9906000000000003 0.0027500000000000
0.4432500000000001 0.5094000000000001 0.3777500000000000
0.3067500000000000 0.0093999999999999 0.4972500000000000
0.3067500000000000 0.4906000000000001 0.3722500000000000
0.4432500000000000 0.9906000000000003 0.2527500000000000
0.4432500000000000 0.5094000000000000 0.6277500000000000
0.3067500000000000 0.0093999999999999 0.7472500000000000
0.3067499999999999 0.4906000000000001 0.6222500000000000
0.4432500000000001 0.9906000000000003 0.5027500000000000
0.4432500000000000 0.5094000000000000 0.8777499999999999
0.3067500000000000 0.0093999999999999 0.9972500000000000
0.3067499999999999 0.4906000000000000 0.8722499999999999
0.4432500000000001 0.9906000000000003 0.7527500000000000
0.6932500000000000 0.5094000000000000 0.1277500000000000
0.5567500000000000 0.0093999999999999 0.2472500000000000
0.5567500000000001 0.4906000000000001 0.1222500000000000
0.6932500000000000 0.9906000000000003 0.0027500000000000
0.6932500000000001 0.5094000000000001 0.3777500000000000
0.5567500000000000 0.0093999999999999 0.4972500000000000
0.5567500000000001 0.4906000000000001 0.3722500000000000
0.6932500000000000 0.9906000000000003 0.2527500000000000
0.6932500000000000 0.5094000000000000 0.6277500000000000
0.5567500000000000 0.0093999999999999 0.7472500000000000
0.5567500000000000 0.4906000000000001 0.6222500000000000
0.6932500000000000 0.9906000000000003 0.5027500000000000
0.6932499999999999 0.5094000000000000 0.8777499999999999
0.5567500000000000 0.0093999999999999 0.9972500000000000
0.5567499999999999 0.4906000000000000 0.8722499999999999
0.6932500000000000 0.9906000000000003 0.7527500000000000
0.9432500000000000 0.5094000000000000 0.1277500000000000
0.8067500000000000 0.0093999999999999 0.2472500000000000
0.8067500000000000 0.4906000000000001 0.1222500000000000
0.9432500000000000 0.9906000000000003 0.0027500000000000
0.9432500000000001 0.5094000000000001 0.3777500000000000
0.8067500000000000 0.0093999999999999 0.4972500000000000
0.8067500000000000 0.4906000000000001 0.3722500000000000
0.9432500000000001 0.9906000000000003 0.2527500000000000
0.9432500000000000 0.5094000000000000 0.6277500000000000
0.8067500000000001 0.0093999999999999 0.7472500000000000
0.8067500000000000 0.4906000000000001 0.6222500000000000
0.9432500000000000 0.9906000000000003 0.5027500000000000
0.9432500000000000 0.5094000000000000 0.8777499999999999
0.8067500000000000 0.0093999999999999 0.9972500000000000
0.8067499999999999 0.4906000000000000 0.8722499999999999
0.9432499999999999 0.9906000000000003 0.7527500000000000
0.1920500000000000 0.3113000000000000 0.0480750000000000
0.0579500000000000 0.8113000000000000 0.0769250000000000
0.0579500000000000 0.6887000000000001 0.2019250000000000
0.1920500000000000 0.1887000000000000 0.1730750000000000
0.1920500000000000 0.3113000000000000 0.2980749999999999
0.0579500000000000 0.8113000000000000 0.3269250000000000
0.0579500000000000 0.6887000000000001 0.4519250000000000
0.1920500000000000 0.1887000000000000 0.4230750000000000
0.1920500000000000 0.3113000000000001 0.5480750000000000
0.0579500000000000 0.8112999999999999 0.5769250000000000
0.0579500000000000 0.6887000000000000 0.7019250000000000
0.1920500000000000 0.1887000000000000 0.6730750000000000
0.1920500000000000 0.3113000000000001 0.7980750000000000
0.0579499999999999 0.8113000000000001 0.8269250000000000
0.0579500000000000 0.6887000000000001 0.9519250000000000
0.1920500000000000 0.1887000000000000 0.9230750000000000
0.4420500000000001 0.3113000000000000 0.0480750000000000
0.3079500000000000 0.8113000000000000 0.0769250000000000
0.3079500000000001 0.6887000000000001 0.2019250000000000
0.4420500000000001 0.1887000000000000 0.1730750000000000
0.4420500000000000 0.3113000000000000 0.2980749999999999
0.3079500000000001 0.8113000000000000 0.3269250000000000
0.3079500000000001 0.6887000000000001 0.4519250000000000
0.4420500000000001 0.1887000000000000 0.4230750000000000
0.4420500000000000 0.3113000000000001 0.5480750000000000
0.3079500000000001 0.8112999999999999 0.5769250000000000
0.3079500000000001 0.6887000000000000 0.7019250000000000
0.4420500000000000 0.1887000000000000 0.6730750000000000
0.4420500000000000 0.3113000000000001 0.7980750000000000
0.3079500000000000 0.8113000000000001 0.8269250000000000
0.3079500000000001 0.6887000000000001 0.9519250000000000
0.4420500000000001 0.1887000000000000 0.9230750000000000
0.6920500000000001 0.3113000000000000 0.0480750000000000
0.5579499999999999 0.8113000000000000 0.0769250000000000
0.5579499999999999 0.6887000000000001 0.2019250000000000
0.6920500000000001 0.1887000000000000 0.1730750000000000
0.6920500000000001 0.3113000000000000 0.2980749999999999
0.5579499999999999 0.8113000000000000 0.3269250000000000
0.5579499999999999 0.6887000000000001 0.4519250000000000
0.6920500000000001 0.1887000000000000 0.4230750000000000
0.6920500000000001 0.3113000000000001 0.5480750000000000
0.5579499999999999 0.8112999999999999 0.5769250000000000
0.5579499999999999 0.6887000000000000 0.7019250000000000
0.6920500000000001 0.1887000000000000 0.6730750000000000
0.6920500000000001 0.3113000000000001 0.7980750000000000
0.5579499999999999 0.8113000000000001 0.8269250000000000
0.5579500000000001 0.6887000000000001 0.9519250000000000
0.6920500000000001 0.1887000000000000 0.9230750000000000
0.9420500000000001 0.3113000000000000 0.0480750000000000
0.8079499999999999 0.8113000000000000 0.0769250000000000
0.8079499999999998 0.6887000000000001 0.2019250000000000
0.9420500000000001 0.1887000000000000 0.1730750000000000
0.9420500000000002 0.3113000000000000 0.2980749999999999
0.8079499999999999 0.8113000000000000 0.3269250000000000
0.8079500000000001 0.6887000000000001 0.4519250000000000
0.9420500000000001 0.1887000000000000 0.4230750000000000
0.9420500000000001 0.3113000000000001 0.5480750000000000
0.8079499999999999 0.8112999999999999 0.5769250000000000
0.8079499999999999 0.6887000000000000 0.7019250000000000
0.9420500000000001 0.1887000000000000 0.6730750000000000
0.9420500000000001 0.3113000000000001 0.7980750000000000
0.8079499999999998 0.8113000000000001 0.8269250000000000
0.8079499999999999 0.6887000000000001 0.9519250000000000
0.9420500000000002 0.1887000000000000 0.9230750000000000
0.1436000000000000 0.2917000000000001 0.0442250000000000
0.1064000000000000 0.7917000000000001 0.0807750000000000
0.1064000000000000 0.7083000000000000 0.2057750000000000
0.1436000000000000 0.2082999999999999 0.1692250000000000
0.1436000000000000 0.2917000000000000 0.2942250000000000
0.1064000000000000 0.7917000000000001 0.3307750000000000
0.1064000000000000 0.7083000000000000 0.4557750000000000
0.1436000000000000 0.2082999999999999 0.4192250000000000
0.1436000000000000 0.2917000000000001 0.5442250000000000
0.1064000000000000 0.7917000000000000 0.5807750000000000
0.1064000000000000 0.7082999999999999 0.7057750000000000
0.1435999999999999 0.2083000000000000 0.6692250000000000
0.1436000000000000 0.2917000000000001 0.7942250000000000
0.1063999999999999 0.7917000000000002 0.8307750000000000
0.1063999999999999 0.7083000000000000 0.9557750000000000
0.1435999999999999 0.2083000000000000 0.9192249999999998
0.3936000000000000 0.2917000000000001 0.0442250000000000
0.3564000000000001 0.7917000000000001 0.0807750000000000
0.3564000000000001 0.7083000000000000 0.2057750000000000
0.3936000000000000 0.2082999999999999 0.1692250000000000
0.3936000000000001 0.2917000000000000 0.2942250000000000
0.3564000000000001 0.7917000000000001 0.3307750000000000
0.3564000000000001 0.7083000000000000 0.4557750000000000
0.3936000000000001 0.2082999999999999 0.4192250000000000
0.3935999999999999 0.2917000000000001 0.5442250000000000
0.3564000000000001 0.7917000000000000 0.5807750000000000
0.3564000000000001 0.7082999999999999 0.7057750000000000
0.3935999999999999 0.2083000000000000 0.6692250000000000
0.3936000000000001 0.2917000000000001 0.7942250000000000
0.3564000000000000 0.7917000000000002 0.8307750000000000
0.3564000000000001 0.7083000000000000 0.9557750000000000
0.3935999999999999 0.2083000000000000 0.9192249999999998
0.6436000000000001 0.2917000000000001 0.0442250000000000
0.6064000000000001 0.7917000000000001 0.0807750000000000
0.6064000000000001 0.7083000000000000 0.2057750000000000
0.6436000000000001 0.2082999999999999 0.1692250000000000
0.6435999999999999 0.2917000000000000 0.2942250000000000
0.6064000000000001 0.7917000000000001 0.3307750000000000
0.6063999999999999 0.7083000000000000 0.4557750000000000
0.6435999999999999 0.2082999999999999 0.4192250000000000
0.6435999999999999 0.2917000000000001 0.5442250000000000
0.6064000000000001 0.7917000000000000 0.5807750000000000
0.6064000000000001 0.7082999999999999 0.7057750000000000
0.6435999999999999 0.2083000000000000 0.6692250000000000
0.6435999999999999 0.2917000000000001 0.7942250000000000
0.6063999999999999 0.7917000000000002 0.8307750000000000
0.6064000000000001 0.7083000000000000 0.9557750000000000
0.6435999999999999 0.2083000000000000 0.9192249999999998
0.8936000000000002 0.2917000000000001 0.0442250000000000
0.8564000000000001 0.7917000000000001 0.0807750000000000
0.8564000000000001 0.7083000000000000 0.2057750000000000
0.8936000000000002 0.2082999999999999 0.1692250000000000
0.8936000000000001 0.2917000000000000 0.2942250000000000
0.8564000000000002 0.7917000000000001 0.3307750000000000
0.8564000000000001 0.7083000000000000 0.4557750000000000
0.8936000000000001 0.2082999999999999 0.4192250000000000
0.8935999999999999 0.2917000000000001 0.5442250000000000
0.8564000000000001 0.7917000000000000 0.5807750000000000
0.8564000000000001 0.7082999999999999 0.7057750000000000
0.8936000000000001 0.2083000000000000 0.6692250000000000
0.8936000000000002 0.2917000000000001 0.7942250000000000
0.8564000000000001 0.7917000000000002 0.8307750000000000
0.8564000000000001 0.7083000000000000 0.9557750000000000
0.8935999999999999 0.2083000000000000 0.9192249999999998
0.1350750000000000 0.2351000000000000 0.0449250000000000
0.1149250000000000 0.7351000000000001 0.0800750000000000
0.1149250000000000 0.7649000000000000 0.2050750000000000
0.1350750000000000 0.2649000000000001 0.1699250000000000
0.1350750000000000 0.2351000000000000 0.2949249999999999
0.1149250000000000 0.7351000000000001 0.3300750000000000
0.1149250000000000 0.7649000000000000 0.4550750000000000
0.1350750000000000 0.2649000000000000 0.4199250000000000
0.1350750000000000 0.2351000000000000 0.5449250000000000
0.1149250000000000 0.7351000000000000 0.5800750000000000
0.1149250000000000 0.7648999999999999 0.7050750000000000
0.1350750000000000 0.2649000000000001 0.6699250000000000
0.1350750000000000 0.2351000000000000 0.7949250000000000
0.1149249999999999 0.7351000000000001 0.8300749999999999
0.1149249999999999 0.7649000000000000 0.9550750000000000
0.1350750000000000 0.2649000000000001 0.9199249999999999
0.3850750000000000 0.2351000000000000 0.0449250000000000
0.3649250000000000 0.7351000000000001 0.0800750000000000
0.3649250000000001 0.7649000000000000 0.2050750000000000
0.3850749999999999 0.2649000000000001 0.1699250000000000
0.3850750000000001 0.2351000000000000 0.2949249999999999
0.3649250000000001 0.7351000000000001 0.3300750000000000
0.3649250000000001 0.7649000000000000 0.4550750000000000
0.3850749999999999 0.2649000000000000 0.4199250000000000
0.3850750000000000 0.2351000000000000 0.5449250000000000
0.3649250000000000 0.7351000000000000 0.5800750000000000
0.3649250000000001 0.7648999999999999 0.7050750000000000
0.3850749999999999 0.2649000000000001 0.6699250000000000
0.3850749999999999 0.2351000000000000 0.7949250000000000
0.3649249999999999 0.7351000000000001 0.8300749999999999
0.3649250000000000 0.7649000000000000 0.9550750000000000
0.3850750000000000 0.2649000000000001 0.9199249999999999
0.6350750000000002 0.2351000000000000 0.0449250000000000
0.6149250000000001 0.7351000000000001 0.0800750000000000
0.6149249999999999 0.7649000000000000 0.2050750000000000
0.6350750000000002 0.2649000000000001 0.1699250000000000
0.6350750000000002 0.2351000000000000 0.2949249999999999
0.6149249999999999 0.7351000000000001 0.3300750000000000
0.6149249999999998 0.7649000000000000 0.4550750000000000
0.6350750000000001 0.2649000000000000 0.4199250000000000
0.6350750000000001 0.2351000000000000 0.5449250000000000
0.6149249999999998 0.7351000000000000 0.5800750000000000
0.6149249999999999 0.7648999999999999 0.7050750000000000
0.6350750000000001 0.2649000000000001 0.6699250000000000
0.6350750000000001 0.2351000000000000 0.7949250000000000
0.6149249999999998 0.7351000000000001 0.8300749999999999
0.6149249999999998 0.7649000000000000 0.9550750000000000
0.6350750000000001 0.2649000000000001 0.9199249999999999
0.8850750000000002 0.2351000000000000 0.0449250000000000
0.8649250000000002 0.7351000000000001 0.0800750000000000
0.8649250000000001 0.7649000000000000 0.2050750000000000
0.8850750000000002 0.2649000000000001 0.1699250000000000
0.8850750000000002 0.2351000000000000 0.2949249999999999
0.8649250000000001 0.7351000000000001 0.3300750000000000
0.8649249999999999 0.7649000000000000 0.4550750000000000
0.8850750000000001 0.2649000000000000 0.4199250000000000
0.8850750000000001 0.2351000000000000 0.5449250000000000
0.8649250000000001 0.7351000000000000 0.5800750000000000
0.8649250000000002 0.7648999999999999 0.7050750000000000
0.8850750000000002 0.2649000000000001 0.6699250000000000
0.8850750000000001 0.2351000000000000 0.7949250000000000
0.8649249999999999 0.7351000000000001 0.8300749999999999
0.8649249999999999 0.7649000000000000 0.9550750000000000
0.8850750000000001 0.2649000000000001 0.9199249999999999
0.1750250000000000 0.1981000000000000 0.0494250000000000
0.0749750000000000 0.6981000000000001 0.0755750000000000
0.0749750000000000 0.8019000000000001 0.2005750000000000
0.1750250000000000 0.3019000000000001 0.1744250000000000
0.1750250000000000 0.1981000000000000 0.2994250000000000
0.0749750000000000 0.6981000000000001 0.3255750000000000
0.0749750000000000 0.8019000000000001 0.4505749999999999
0.1750250000000000 0.3019000000000001 0.4244249999999999
0.1750249999999999 0.1981000000000000 0.5494250000000001
0.0749750000000000 0.6980999999999999 0.5755749999999999
0.0749750000000000 0.8018999999999999 0.7005749999999999
0.1750250000000000 0.3019000000000001 0.6744250000000001
0.1750249999999999 0.1981000000000000 0.7994249999999999
0.0749750000000000 0.6981000000000001 0.8255749999999999
0.0749750000000000 0.8019000000000001 0.9505749999999998
0.1750249999999999 0.3019000000000001 0.9244250000000001
0.4250250000000000 0.1981000000000000 0.0494250000000000
0.3249750000000000 0.6981000000000001 0.0755750000000000
0.3249750000000000 0.8019000000000001 0.2005750000000000
0.4250250000000000 0.3019000000000001 0.1744250000000000
0.4250250000000000 0.1981000000000000 0.2994250000000000
0.3249750000000000 0.6981000000000001 0.3255750000000000
0.3249750000000000 0.8019000000000001 0.4505749999999999
0.4250250000000000 0.3019000000000001 0.4244249999999999
0.4250250000000000 0.1981000000000000 0.5494250000000001
0.3249750000000000 0.6980999999999999 0.5755749999999999
0.3249750000000000 0.8018999999999999 0.7005749999999999
0.4250250000000000 0.3019000000000001 0.6744250000000001
0.4250249999999999 0.1981000000000000 0.7994249999999999
0.3249750000000000 0.6981000000000001 0.8255749999999999
0.3249750000000000 0.8019000000000001 0.9505749999999998
0.4250249999999999 0.3019000000000001 0.9244250000000001
0.6750250000000001 0.1981000000000000 0.0494250000000000
0.5749750000000000 0.6981000000000001 0.0755750000000000
0.5749750000000000 0.8019000000000001 0.2005750000000000
0.6750250000000001 0.3019000000000001 0.1744250000000000
0.6750250000000000 0.1981000000000000 0.2994250000000000
0.5749750000000000 0.6981000000000001 0.3255750000000000
0.5749749999999999 0.8019000000000001 0.4505749999999999
0.6750250000000000 0.3019000000000001 0.4244249999999999
0.6750250000000000 0.1981000000000000 0.5494250000000001
0.5749750000000000 0.6980999999999999 0.5755749999999999
0.5749750000000000 0.8018999999999999 0.7005749999999999
0.6750250000000000 0.3019000000000001 0.6744250000000001
0.6750250000000000 0.1981000000000000 0.7994249999999999
0.5749750000000000 0.6981000000000001 0.8255749999999999
0.5749749999999999 0.8019000000000001 0.9505749999999998
0.6750250000000000 0.3019000000000001 0.9244250000000001
0.9250250000000002 0.1981000000000000 0.0494250000000000
0.8249750000000000 0.6981000000000001 0.0755750000000000
0.8249750000000001 0.8019000000000001 0.2005750000000000
0.9250250000000002 0.3019000000000001 0.1744250000000000
0.9250250000000001 0.1981000000000000 0.2994250000000000
0.8249750000000001 0.6981000000000001 0.3255750000000000
0.8249750000000000 0.8019000000000001 0.4505749999999999
0.9250250000000001 0.3019000000000001 0.4244249999999999
0.9250250000000000 0.1981000000000000 0.5494250000000001
0.8249750000000001 0.6980999999999999 0.5755749999999999
0.8249750000000000 0.8018999999999999 0.7005749999999999
0.9250250000000000 0.3019000000000001 0.6744250000000001
0.9250250000000000 0.1981000000000000 0.7994249999999999
0.8249750000000000 0.6981000000000001 0.8255749999999999
0.8249749999999999 0.8019000000000001 0.9505749999999998
0.9250250000000000 0.3019000000000001 0.9244250000000001
0.2235000000000001 0.2178000000000000 0.0532500000000000
0.0265000000000000 0.7178000000000001 0.0717500000000000
0.0265000000000000 0.7822000000000000 0.1967500000000000
0.2235000000000000 0.2822000000000000 0.1782500000000000
0.2235000000000000 0.2178000000000000 0.3032500000000000
0.0265000000000000 0.7178000000000001 0.3217500000000000
0.0265000000000000 0.7822000000000000 0.4467500000000000
0.2235000000000000 0.2822000000000000 0.4282500000000000
0.2235000000000000 0.2178000000000000 0.5532500000000000
0.0265000000000000 0.7178000000000000 0.5717500000000000
0.0265000000000000 0.7821999999999999 0.6967500000000000
0.2235000000000000 0.2822000000000001 0.6782500000000000
0.2235000000000000 0.2178000000000000 0.8032500000000000
0.0264999999999999 0.7178000000000001 0.8217499999999999
0.0264999999999999 0.7822000000000001 0.9467500000000000
0.2234999999999999 0.2822000000000000 0.9282499999999999
0.4735000000000001 0.2178000000000000 0.0532500000000000
0.2765000000000000 0.7178000000000001 0.0717500000000000
0.2765000000000000 0.7822000000000000 0.1967500000000000
0.4735000000000001 0.2822000000000000 0.1782500000000000
0.4735000000000000 0.2178000000000000 0.3032500000000000
0.2765000000000000 0.7178000000000001 0.3217500000000000
0.2765000000000000 0.7822000000000000 0.4467500000000000
0.4735000000000001 0.2822000000000000 0.4282500000000000
0.4735000000000000 0.2178000000000000 0.5532500000000000
0.2765000000000000 0.7178000000000000 0.5717500000000000
0.2765000000000000 0.7821999999999999 0.6967500000000000
0.4735000000000000 0.2822000000000001 0.6782500000000000
0.4735000000000001 0.2178000000000000 0.8032500000000000
0.2764999999999999 0.7178000000000001 0.8217499999999999
0.2764999999999999 0.7822000000000001 0.9467500000000000
0.4735000000000000 0.2822000000000000 0.9282499999999999
0.7235000000000000 0.2178000000000000 0.0532500000000000
0.5265000000000001 0.7178000000000001 0.0717500000000000
0.5265000000000000 0.7822000000000000 0.1967500000000000
0.7235000000000000 0.2822000000000000 0.1782500000000000
0.7235000000000001 0.2178000000000000 0.3032500000000000
0.5265000000000000 0.7178000000000001 0.3217500000000000
0.5265000000000000 0.7822000000000000 0.4467500000000000
0.7235000000000000 0.2822000000000000 0.4282500000000000
0.7235000000000000 0.2178000000000000 0.5532500000000000
0.5265000000000000 0.7178000000000000 0.5717500000000000
0.5265000000000000 0.7821999999999999 0.6967500000000000
0.7235000000000000 0.2822000000000001 0.6782500000000000
0.7235000000000000 0.2178000000000000 0.8032500000000000
0.5265000000000000 0.7178000000000001 0.8217499999999999
0.5265000000000000 0.7822000000000001 0.9467500000000000
0.7235000000000000 0.2822000000000000 0.9282499999999999
0.9734999999999999 0.2178000000000000 0.0532500000000000
0.7765000000000001 0.7178000000000001 0.0717500000000000
0.7765000000000000 0.7822000000000000 0.1967500000000000
0.9735000000000000 0.2822000000000000 0.1782500000000000
0.9735000000000001 0.2178000000000000 0.3032500000000000
0.7765000000000000 0.7178000000000001 0.3217500000000000
0.7765000000000001 0.7822000000000000 0.4467500000000000
0.9735000000000000 0.2822000000000000 0.4282500000000000
0.9735000000000000 0.2178000000000000 0.5532500000000000
0.7765000000000000 0.7178000000000000 0.5717500000000000
0.7765000000000000 0.7821999999999999 0.6967500000000000
0.9735000000000000 0.2822000000000001 0.6782500000000000
0.9735000000000000 0.2178000000000000 0.8032500000000000
0.7764999999999999 0.7178000000000001 0.8217499999999999
0.7764999999999999 0.7822000000000001 0.9467500000000000
0.9735000000000000 0.2822000000000000 0.9282499999999999
0.2320000000000000 0.2744000000000000 0.0525750000000000
0.0180000000000000 0.7744000000000001 0.0724250000000000
0.0180000000000000 0.7256000000000000 0.1974250000000000
0.2320000000000000 0.2256000000000000 0.1775750000000000
0.2320000000000000 0.2744000000000000 0.3025750000000000
0.0180000000000000 0.7744000000000001 0.3224250000000000
0.0180000000000000 0.7256000000000000 0.4474250000000000
0.2320000000000000 0.2256000000000000 0.4275749999999999
0.2320000000000000 0.2744000000000000 0.5525750000000000
0.0180000000000000 0.7744000000000000 0.5724250000000000
0.0179999999999999 0.7255999999999999 0.6974249999999999
0.2319999999999999 0.2256000000000001 0.6775749999999999
0.2320000000000000 0.2744000000000000 0.8025750000000000
0.0179999999999999 0.7744000000000001 0.8224250000000000
0.0179999999999999 0.7256000000000000 0.9474250000000000
0.2320000000000000 0.2256000000000001 0.9275750000000000
0.4820000000000000 0.2744000000000000 0.0525750000000000
0.2680000000000000 0.7744000000000001 0.0724250000000000
0.2680000000000000 0.7256000000000000 0.1974250000000000
0.4820000000000000 0.2256000000000000 0.1775750000000000
0.4820000000000000 0.2744000000000000 0.3025750000000000
0.2680000000000000 0.7744000000000001 0.3224250000000000
0.2680000000000000 0.7256000000000000 0.4474250000000000
0.4820000000000000 0.2256000000000000 0.4275749999999999
0.4820000000000000 0.2744000000000000 0.5525750000000000
0.2680000000000000 0.7744000000000000 0.5724250000000000
0.2680000000000000 0.7255999999999999 0.6974249999999999
0.4820000000000000 0.2256000000000001 0.6775749999999999
0.4820000000000000 0.2744000000000000 0.8025750000000000
0.2680000000000000 0.7744000000000001 0.8224250000000000
0.2680000000000000 0.7256000000000000 0.9474250000000000
0.4820000000000000 0.2256000000000001 0.9275750000000000
0.7320000000000001 0.2744000000000000 0.0525750000000000
0.5180000000000000 0.7744000000000001 0.0724250000000000
0.5180000000000000 0.7256000000000000 0.1974250000000000
0.7320000000000000 0.2256000000000000 0.1775750000000000
0.7320000000000001 0.2744000000000000 0.3025750000000000
0.5180000000000000 0.7744000000000001 0.3224250000000000
0.5180000000000000 0.7256000000000000 0.4474250000000000
0.7320000000000001 0.2256000000000000 0.4275749999999999
0.7320000000000001 0.2744000000000000 0.5525750000000000
0.5180000000000000 0.7744000000000000 0.5724250000000000
0.5180000000000000 0.7255999999999999 0.6974249999999999
0.7320000000000000 0.2256000000000001 0.6775749999999999
0.7320000000000000 0.2744000000000000 0.8025750000000000
0.5180000000000000 0.7744000000000001 0.8224250000000000
0.5180000000000000 0.7256000000000000 0.9474250000000000
0.7320000000000000 0.2256000000000001 0.9275750000000000
0.9820000000000001 0.2744000000000000 0.0525750000000000
0.7680000000000001 0.7744000000000001 0.0724250000000000
0.7680000000000000 0.7256000000000000 0.1974250000000000
0.9820000000000000 0.2256000000000000 0.1775750000000000
0.9820000000000001 0.2744000000000000 0.3025750000000000
0.7680000000000000 0.7744000000000001 0.3224250000000000
0.7680000000000000 0.7256000000000000 0.4474250000000000
0.9820000000000001 0.2256000000000000 0.4275749999999999
0.9820000000000001 0.2744000000000000 0.5525750000000000
0.7680000000000000 0.7744000000000000 0.5724250000000000
0.7680000000000000 0.7255999999999999 0.6974249999999999
0.9820000000000000 0.2256000000000001 0.6775749999999999
0.9820000000000000 0.2744000000000000 0.8025750000000000
0.7680000000000000 0.7744000000000001 0.8224250000000000
0.7680000000000000 0.7256000000000000 0.9474250000000000
0.9820000000000001 0.2256000000000001 0.9275750000000000
0.2035500000000001 0.3723000000000001 0.0566250000000000
0.0464500000000000 0.8723000000000002 0.0683750000000000
0.0464500000000000 0.6277000000000000 0.1933750000000000
0.2035500000000000 0.1276999999999999 0.1816250000000000
0.2035500000000000 0.3723000000000000 0.3066249999999999
0.0464500000000000 0.8723000000000002 0.3183750000000000
0.0464500000000000 0.6277000000000000 0.4433749999999999
0.2035500000000000 0.1276999999999999 0.4316250000000000
0.2035500000000000 0.3723000000000001 0.5566250000000000
0.0464500000000000 0.8723000000000001 0.5683750000000000
0.0464499999999999 0.6276999999999999 0.6933749999999999
0.2035500000000000 0.1277000000000000 0.6816249999999999
0.2035500000000000 0.3723000000000001 0.8066250000000000
0.0464499999999999 0.8723000000000002 0.8183750000000000
0.0464499999999999 0.6276999999999999 0.9433750000000000
0.2035500000000000 0.1276999999999999 0.9316250000000000
0.4535500000000000 0.3723000000000001 0.0566250000000000
0.2964500000000000 0.8723000000000002 0.0683750000000000
0.2964500000000000 0.6277000000000000 0.1933750000000000
0.4535500000000000 0.1276999999999999 0.1816250000000000
0.4535500000000001 0.3723000000000000 0.3066249999999999
0.2964500000000000 0.8723000000000002 0.3183750000000000
0.2964500000000000 0.6277000000000000 0.4433749999999999
0.4535500000000000 0.1276999999999999 0.4316250000000000
0.4535500000000000 0.3723000000000001 0.5566250000000000
0.2964500000000000 0.8723000000000001 0.5683750000000000
0.2964499999999999 0.6276999999999999 0.6933749999999999
0.4535500000000000 0.1277000000000000 0.6816249999999999
0.4535500000000000 0.3723000000000001 0.8066250000000000
0.2964500000000000 0.8723000000000002 0.8183750000000000
0.2964500000000000 0.6276999999999999 0.9433750000000000
0.4535500000000000 0.1276999999999999 0.9316250000000000
0.7035499999999999 0.3723000000000001 0.0566250000000000
0.5464500000000001 0.8723000000000002 0.0683750000000000
0.5464500000000001 0.6277000000000000 0.1933750000000000
0.7035500000000000 0.1276999999999999 0.1816250000000000
0.7035500000000000 0.3723000000000000 0.3066249999999999
0.5464500000000001 0.8723000000000002 0.3183750000000000
0.5464500000000001 0.6277000000000000 0.4433749999999999
0.7035500000000000 0.1276999999999999 0.4316250000000000
0.7035500000000000 0.3723000000000001 0.5566250000000000
0.5464500000000000 0.8723000000000001 0.5683750000000000
0.5464500000000000 0.6276999999999999 0.6933749999999999
0.7035499999999999 0.1277000000000000 0.6816249999999999
0.7035499999999999 0.3723000000000001 0.8066250000000000
0.5464500000000000 0.8723000000000002 0.8183750000000000
0.5464500000000001 0.6276999999999999 0.9433750000000000
0.7035500000000000 0.1276999999999999 0.9316250000000000
0.9535500000000000 0.3723000000000001 0.0566250000000000
0.7964500000000001 0.8723000000000002 0.0683750000000000
0.7964500000000000 0.6277000000000000 0.1933750000000000
0.9535500000000001 0.1276999999999999 0.1816250000000000
0.9535500000000001 0.3723000000000000 0.3066249999999999
0.7964500000000000 0.8723000000000002 0.3183750000000000
0.7964500000000001 0.6277000000000000 0.4433749999999999
0.9535500000000001 0.1276999999999999 0.4316250000000000
0.9535500000000001 0.3723000000000001 0.5566250000000000
0.7964500000000000 0.8723000000000001 0.5683750000000000
0.7964500000000000 0.6276999999999999 0.6933749999999999
0.9535500000000001 0.1277000000000000 0.6816249999999999
0.9535500000000001 0.3723000000000001 0.8066250000000000
0.7964499999999999 0.8723000000000002 0.8183750000000000
0.7964499999999999 0.6276999999999999 0.9433750000000000
0.9535500000000001 0.1276999999999999 0.9316250000000000
0.1682500000000000 0.4127000000000001 0.0490750000000000
0.0817500000000000 0.9127000000000002 0.0759250000000000
0.0817500000000000 0.5873000000000000 0.2009250000000000
0.1682500000000000 0.0872999999999999 0.1740750000000000
0.1682500000000000 0.4127000000000000 0.2990750000000000
0.0817500000000000 0.9127000000000002 0.3259250000000000
0.0817500000000000 0.5873000000000000 0.4509250000000000
0.1682500000000000 0.0872999999999999 0.4240750000000000
0.1682500000000000 0.4127000000000001 0.5490750000000000
0.0817499999999999 0.9127000000000001 0.5759250000000000
0.0817499999999999 0.5872999999999999 0.7009250000000000
0.1682500000000000 0.0872999999999999 0.6740750000000000
0.1682500000000000 0.4127000000000001 0.7990750000000000
0.0817499999999999 0.9127000000000002 0.8259249999999999
0.0817499999999999 0.5872999999999999 0.9509250000000000
0.1682500000000000 0.0872999999999999 0.9240749999999999
0.4182500000000000 0.4127000000000001 0.0490750000000000
0.3317500000000000 0.9127000000000002 0.0759250000000000
0.3317500000000000 0.5873000000000000 0.2009250000000000
0.4182500000000000 0.0872999999999999 0.1740750000000000
0.4182500000000000 0.4127000000000000 0.2990750000000000
0.3317500000000000 0.9127000000000002 0.3259250000000000
0.3317500000000000 0.5873000000000000 0.4509250000000000
0.4182500000000000 0.0872999999999999 0.4240750000000000
0.4182500000000000 0.4127000000000001 0.5490750000000000
0.3317499999999999 0.9127000000000001 0.5759250000000000
0.3317499999999999 0.5872999999999999 0.7009250000000000
0.4182500000000000 0.0872999999999999 0.6740750000000000
0.4182499999999999 0.4127000000000001 0.7990750000000000
0.3317499999999999 0.9127000000000002 0.8259249999999999
0.3317500000000000 0.5872999999999999 0.9509250000000000
0.4182500000000000 0.0872999999999999 0.9240749999999999
0.6682500000000001 0.4127000000000001 0.0490750000000000
0.5817499999999999 0.9127000000000002 0.0759250000000000
0.5817500000000000 0.5873000000000000 0.2009250000000000
0.6682500000000001 0.0872999999999999 0.1740750000000000
0.6682500000000001 0.4127000000000000 0.2990750000000000
0.5817500000000000 0.9127000000000002 0.3259250000000000
0.5817499999999999 0.5873000000000000 0.4509250000000000
0.6682500000000000 0.0872999999999999 0.4240750000000000
0.6682500000000000 0.4127000000000001 0.5490750000000000
0.5817499999999999 0.9127000000000001 0.5759250000000000
0.5817499999999999 0.5872999999999999 0.7009250000000000
0.6682500000000000 0.0872999999999999 0.6740750000000000
0.6682500000000000 0.4127000000000001 0.7990750000000000
0.5817499999999999 0.9127000000000002 0.8259249999999999
0.5817500000000000 0.5872999999999999 0.9509250000000000
0.6682500000000000 0.0872999999999999 0.9240749999999999
0.9182500000000001 0.4127000000000001 0.0490750000000000
0.8317500000000001 0.9127000000000002 0.0759250000000000
0.8317500000000002 0.5873000000000000 0.2009250000000000
0.9182500000000001 0.0872999999999999 0.1740750000000000
0.9182500000000000 0.4127000000000000 0.2990750000000000
0.8317500000000001 0.9127000000000002 0.3259250000000000
0.8317500000000001 0.5873000000000000 0.4509250000000000
0.9182500000000000 0.0872999999999999 0.4240750000000000
0.9182500000000000 0.4127000000000001 0.5490750000000000
0.8317500000000001 0.9127000000000001 0.5759250000000000
0.8317500000000001 0.5872999999999999 0.7009250000000000
0.9182500000000000 0.0872999999999999 0.6740750000000000
0.9182500000000000 0.4127000000000001 0.7990750000000000
0.8317500000000000 0.9127000000000002 0.8259249999999999
0.8317500000000000 0.5872999999999999 0.9509250000000000
0.9182500000000000 0.0872999999999999 0.9240749999999999
0.0008250000000000 0.3956000000000000 0.0731500000000000
0.2491750000000000 0.8956000000000001 0.0518500000000000
0.2491750000000000 0.6044000000000002 0.1768500000000000
0.0008250000000000 0.1044000000000001 0.1981500000000000
0.0008250000000000 0.3956000000000000 0.3231499999999999
0.2491750000000000 0.8956000000000001 0.3018500000000000
0.2491750000000000 0.6044000000000002 0.4268500000000000
0.0008250000000000 0.1044000000000000 0.4481500000000000
0.0008250000000000 0.3956000000000001 0.5731500000000000
0.2491750000000000 0.8956000000000001 0.5518500000000000
0.2491750000000000 0.6044000000000000 0.6768499999999998
0.0008250000000000 0.1044000000000001 0.6981499999999999
0.0008250000000000 0.3956000000000001 0.8231500000000000
0.2491750000000000 0.8956000000000001 0.8018500000000000
0.2491750000000000 0.6044000000000000 0.9268500000000000
0.0008250000000000 0.1044000000000000 0.9481500000000000
0.2508250000000000 0.3956000000000000 0.0731500000000000
0.4991750000000000 0.8956000000000001 0.0518500000000000
0.4991750000000000 0.6044000000000002 0.1768500000000000
0.2508250000000000 0.1044000000000001 0.1981500000000000
0.2508250000000000 0.3956000000000000 0.3231499999999999
0.4991750000000000 0.8956000000000001 0.3018500000000000
0.4991750000000000 0.6044000000000002 0.4268500000000000
0.2508250000000000 0.1044000000000000 0.4481500000000000
0.2508250000000000 0.3956000000000001 0.5731500000000000
0.4991750000000000 0.8956000000000001 0.5518500000000000
0.4991750000000000 0.6044000000000000 0.6768499999999998
0.2508250000000000 0.1044000000000001 0.6981499999999999
0.2508250000000000 0.3956000000000001 0.8231500000000000
0.4991750000000000 0.8956000000000001 0.8018500000000000
0.4991750000000000 0.6044000000000000 0.9268500000000000
0.2508250000000000 0.1044000000000000 0.9481500000000000
0.5008250000000001 0.3956000000000000 0.0731500000000000
0.7491750000000000 0.8956000000000001 0.0518500000000000
0.7491750000000000 0.6044000000000002 0.1768500000000000
0.5008250000000001 0.1044000000000001 0.1981500000000000
0.5008250000000001 0.3956000000000000 0.3231499999999999
0.7491749999999999 0.8956000000000001 0.3018500000000000
0.7491749999999999 0.6044000000000002 0.4268500000000000
0.5008250000000001 0.1044000000000000 0.4481500000000000
0.5008250000000001 0.3956000000000001 0.5731500000000000
0.7491749999999999 0.8956000000000001 0.5518500000000000
0.7491749999999998 0.6044000000000000 0.6768499999999998
0.5008250000000001 0.1044000000000001 0.6981499999999999
0.5008250000000001 0.3956000000000001 0.8231500000000000
0.7491749999999999 0.8956000000000001 0.8018500000000000
0.7491749999999999 0.6044000000000000 0.9268500000000000
0.5008250000000001 0.1044000000000000 0.9481500000000000
0.7508250000000001 0.3956000000000000 0.0731500000000000
0.9991750000000000 0.8956000000000001 0.0518500000000000
0.9991750000000000 0.6044000000000002 0.1768500000000000
0.7508250000000001 0.1044000000000001 0.1981500000000000
0.7508250000000001 0.3956000000000000 0.3231499999999999
0.9991749999999999 0.8956000000000001 0.3018500000000000
0.9991749999999999 0.6044000000000002 0.4268500000000000
0.7508250000000001 0.1044000000000000 0.4481500000000000
0.7508250000000001 0.3956000000000001 0.5731500000000000
0.9991749999999998 0.8956000000000001 0.5518500000000000
0.9991749999999999 0.6044000000000000 0.6768499999999998
0.7508250000000001 0.1044000000000001 0.6981499999999999
0.7508250000000001 0.3956000000000001 0.8231500000000000
0.9991749999999999 0.8956000000000001 0.8018500000000000
0.9991749999999999 0.6044000000000000 0.9268500000000000
0.7508250000000001 0.1044000000000000 0.9481500000000000
0.1626500000000000 0.1374000000000000 0.0407500000000000
0.0873500000000000 0.6374000000000001 0.0842500000000000
0.0873500000000000 0.8626000000000000 0.2092500000000000
0.1626500000000000 0.3626000000000000 0.1657500000000000
0.1626500000000000 0.1374000000000000 0.2907500000000000
0.0873500000000000 0.6374000000000001 0.3342500000000000
0.0873500000000000 0.8626000000000000 0.4592499999999999
0.1626500000000000 0.3626000000000001 0.4157500000000000
0.1626500000000000 0.1374000000000000 0.5407500000000000
0.0873500000000000 0.6374000000000000 0.5842499999999999
0.0873500000000000 0.8625999999999999 0.7092499999999999
0.1626500000000000 0.3626000000000001 0.6657500000000001
0.1626500000000000 0.1374000000000000 0.7907500000000000
0.0873500000000000 0.6374000000000000 0.8342499999999999
0.0873499999999999 0.8626000000000001 0.9592499999999998
0.1626500000000000 0.3626000000000000 0.9157500000000001
0.4126500000000000 0.1374000000000000 0.0407500000000000
0.3373500000000000 0.6374000000000001 0.0842500000000000
0.3373500000000001 0.8626000000000000 0.2092500000000000
0.4126500000000000 0.3626000000000000 0.1657500000000000
0.4126500000000000 0.1374000000000000 0.2907500000000000
0.3373500000000001 0.6374000000000001 0.3342500000000000
0.3373500000000000 0.8626000000000000 0.4592499999999999
0.4126500000000000 0.3626000000000001 0.4157500000000000
0.4126500000000000 0.1374000000000000 0.5407500000000000
0.3373500000000001 0.6374000000000000 0.5842499999999999
0.3373500000000000 0.8625999999999999 0.7092499999999999
0.4126500000000000 0.3626000000000001 0.6657500000000001
0.4126500000000000 0.1374000000000000 0.7907500000000000
0.3373500000000001 0.6374000000000000 0.8342499999999999
0.3373500000000000 0.8626000000000001 0.9592499999999998
0.4126500000000000 0.3626000000000000 0.9157500000000001
0.6626500000000001 0.1374000000000000 0.0407500000000000
0.5873500000000001 0.6374000000000001 0.0842500000000000
0.5873500000000001 0.8626000000000000 0.2092500000000000
0.6626500000000001 0.3626000000000000 0.1657500000000000
0.6626500000000001 0.1374000000000000 0.2907500000000000
0.5873500000000000 0.6374000000000001 0.3342500000000000
0.5873500000000000 0.8626000000000000 0.4592499999999999
0.6626500000000000 0.3626000000000001 0.4157500000000000
0.6626500000000001 0.1374000000000000 0.5407500000000000
0.5873500000000000 0.6374000000000000 0.5842499999999999
0.5873500000000000 0.8625999999999999 0.7092499999999999
0.6626500000000001 0.3626000000000001 0.6657500000000001
0.6626500000000000 0.1374000000000000 0.7907500000000000
0.5873500000000000 0.6374000000000000 0.8342499999999999
0.5873500000000000 0.8626000000000001 0.9592499999999998
0.6626500000000001 0.3626000000000000 0.9157500000000001
0.9126500000000001 0.1374000000000000 0.0407500000000000
0.8373500000000001 0.6374000000000001 0.0842500000000000
0.8373500000000001 0.8626000000000000 0.2092500000000000
0.9126500000000001 0.3626000000000000 0.1657500000000000
0.9126500000000001 0.1374000000000000 0.2907500000000000
0.8373500000000000 0.6374000000000001 0.3342500000000000
0.8373500000000000 0.8626000000000000 0.4592499999999999
0.9126500000000000 0.3626000000000001 0.4157500000000000
0.9126500000000001 0.1374000000000000 0.5407500000000000
0.8373500000000000 0.6374000000000000 0.5842499999999999
0.8373500000000000 0.8625999999999999 0.7092499999999999
0.9126500000000000 0.3626000000000001 0.6657500000000001
0.9126500000000000 0.1374000000000000 0.7907500000000000
0.8373500000000001 0.6374000000000000 0.8342499999999999
0.8373500000000000 0.8626000000000001 0.9592499999999998
0.9126500000000001 0.3626000000000000 0.9157500000000001
0.1208500000000000 0.1118000000000000 0.0434000000000000
0.1291500000000000 0.6118000000000000 0.0816000000000000
0.1291500000000000 0.8882000000000001 0.2066000000000000
0.1208500000000000 0.3882000000000000 0.1684000000000000
0.1208500000000000 0.1118000000000000 0.2934000000000000
0.1291500000000000 0.6118000000000000 0.3316000000000000
0.1291500000000000 0.8882000000000001 0.4566000000000000
0.1208500000000000 0.3882000000000000 0.4184000000000000
0.1208500000000000 0.1118000000000000 0.5434000000000000
0.1291499999999999 0.6118000000000000 0.5816000000000000
0.1291500000000000 0.8882000000000000 0.7066000000000000
0.1208500000000000 0.3882000000000000 0.6684000000000000
0.1208499999999999 0.1118000000000000 0.7934000000000000
0.1291499999999999 0.6118000000000000 0.8316000000000000
0.1291500000000000 0.8882000000000001 0.9566000000000000
0.1208500000000000 0.3882000000000000 0.9184000000000000
0.3708500000000001 0.1118000000000000 0.0434000000000000
0.3791500000000000 0.6118000000000000 0.0816000000000000
0.3791500000000001 0.8882000000000001 0.2066000000000000
0.3708500000000000 0.3882000000000000 0.1684000000000000
0.3708500000000000 0.1118000000000000 0.2934000000000000
0.3791500000000000 0.6118000000000000 0.3316000000000000
0.3791500000000000 0.8882000000000001 0.4566000000000000
0.3708500000000000 0.3882000000000000 0.4184000000000000
0.3708500000000000 0.1118000000000000 0.5434000000000000
0.3791500000000000 0.6118000000000000 0.5816000000000000
0.3791500000000000 0.8882000000000000 0.7066000000000000
0.3708500000000000 0.3882000000000000 0.6684000000000000
0.3708500000000000 0.1118000000000000 0.7934000000000000
0.3791500000000000 0.6118000000000000 0.8316000000000000
0.3791500000000000 0.8882000000000001 0.9566000000000000
0.3708500000000000 0.3882000000000000 0.9184000000000000
0.6208500000000000 0.1118000000000000 0.0434000000000000
0.6291500000000000 0.6118000000000000 0.0816000000000000
0.6291500000000000 0.8882000000000001 0.2066000000000000
0.6208499999999999 0.3882000000000000 0.1684000000000000
0.6208500000000001 0.1118000000000000 0.2934000000000000
0.6291500000000000 0.6118000000000000 0.3316000000000000
0.6291500000000000 0.8882000000000001 0.4566000000000000
0.6208500000000000 0.3882000000000000 0.4184000000000000
0.6208500000000000 0.1118000000000000 0.5434000000000000
0.6291500000000000 0.6118000000000000 0.5816000000000000
0.6291499999999999 0.8882000000000000 0.7066000000000000
0.6208500000000000 0.3882000000000000 0.6684000000000000
0.6208499999999999 0.1118000000000000 0.7934000000000000
0.6291499999999999 0.6118000000000000 0.8316000000000000
0.6291499999999999 0.8882000000000001 0.9566000000000000
0.6208500000000000 0.3882000000000000 0.9184000000000000
0.8708500000000000 0.1118000000000000 0.0434000000000000
0.8791500000000000 0.6118000000000000 0.0816000000000000
0.8791500000000000 0.8882000000000001 0.2066000000000000
0.8708499999999999 0.3882000000000000 0.1684000000000000
0.8708500000000000 0.1118000000000000 0.2934000000000000
0.8791500000000001 0.6118000000000000 0.3316000000000000
0.8791500000000000 0.8882000000000001 0.4566000000000000
0.8708500000000001 0.3882000000000000 0.4184000000000000
0.8708500000000000 0.1118000000000000 0.5434000000000000
0.8791500000000000 0.6118000000000000 0.5816000000000000
0.8791500000000001 0.8882000000000000 0.7066000000000000
0.8708500000000000 0.3882000000000000 0.6684000000000000
0.8708499999999999 0.1118000000000000 0.7934000000000000
0.8791499999999999 0.6118000000000000 0.8316000000000000
0.8791499999999999 0.8882000000000001 0.9566000000000000
0.8708500000000001 0.3882000000000000 0.9184000000000000
0.1915000000000000 0.0994000000000000 0.0290750000000000
0.0585000000000000 0.5994000000000000 0.0959250000000000
0.0585000000000000 0.9006000000000001 0.2209250000000000
0.1915000000000000 0.4006000000000000 0.1540750000000000
0.1915000000000000 0.0994000000000000 0.2790750000000000
0.0585000000000000 0.5994000000000000 0.3459250000000000
0.0585000000000000 0.9006000000000001 0.4709250000000000
0.1915000000000000 0.4006000000000000 0.4040750000000000
0.1915000000000000 0.0994000000000000 0.5290750000000000
0.0585000000000000 0.5994000000000000 0.5959249999999999
0.0584999999999999 0.9006000000000000 0.7209250000000000
0.1915000000000000 0.4006000000000000 0.6540750000000000
0.1914999999999999 0.0994000000000000 0.7790749999999999
0.0585000000000000 0.5994000000000000 0.8459250000000000
0.0584999999999999 0.9006000000000001 0.9709249999999999
0.1915000000000000 0.4006000000000000 0.9040750000000000
0.4415000000000001 0.0994000000000000 0.0290750000000000
0.3085000000000001 0.5994000000000000 0.0959250000000000
0.3085000000000001 0.9006000000000001 0.2209250000000000
0.4415000000000001 0.4006000000000000 0.1540750000000000
0.4415000000000001 0.0994000000000000 0.2790750000000000
0.3085000000000001 0.5994000000000000 0.3459250000000000
0.3085000000000000 0.9006000000000001 0.4709250000000000
0.4415000000000001 0.4006000000000000 0.4040750000000000
0.4415000000000000 0.0994000000000000 0.5290750000000000
0.3085000000000000 0.5994000000000000 0.5959249999999999
0.3085000000000000 0.9006000000000000 0.7209250000000000
0.4415000000000000 0.4006000000000000 0.6540750000000000
0.4415000000000000 0.0994000000000000 0.7790749999999999
0.3085000000000001 0.5994000000000000 0.8459250000000000
0.3085000000000000 0.9006000000000001 0.9709249999999999
0.4415000000000000 0.4006000000000000 0.9040750000000000
0.6915000000000000 0.0994000000000000 0.0290750000000000
0.5585000000000001 0.5994000000000000 0.0959250000000000
0.5585000000000000 0.9006000000000001 0.2209250000000000
0.6915000000000001 0.4006000000000000 0.1540750000000000
0.6915000000000001 0.0994000000000000 0.2790750000000000
0.5585000000000001 0.5994000000000000 0.3459250000000000
0.5585000000000000 0.9006000000000001 0.4709250000000000
0.6915000000000000 0.4006000000000000 0.4040750000000000
0.6915000000000000 0.0994000000000000 0.5290750000000000
0.5585000000000000 0.5994000000000000 0.5959249999999999
0.5585000000000000 0.9006000000000000 0.7209250000000000
0.6915000000000000 0.4006000000000000 0.6540750000000000
0.6915000000000000 0.0994000000000000 0.7790749999999999
0.5585000000000000 0.5994000000000000 0.8459250000000000
0.5585000000000000 0.9006000000000001 0.9709249999999999
0.6915000000000000 0.4006000000000000 0.9040750000000000
0.9415000000000000 0.0994000000000000 0.0290750000000000
0.8085000000000000 0.5994000000000000 0.0959250000000000
0.8085000000000000 0.9006000000000001 0.2209250000000000
0.9415000000000001 0.4006000000000000 0.1540750000000000
0.9415000000000000 0.0994000000000000 0.2790750000000000
0.8085000000000000 0.5994000000000000 0.3459250000000000
0.8085000000000000 0.9006000000000001 0.4709250000000000
0.9415000000000000 0.4006000000000000 0.4040750000000000
0.9415000000000000 0.0994000000000000 0.5290750000000000
0.8084999999999999 0.5994000000000000 0.5959249999999999
0.8084999999999999 0.9006000000000000 0.7209250000000000
0.9415000000000000 0.4006000000000000 0.6540750000000000
0.9414999999999999 0.0994000000000000 0.7790749999999999
0.8085000000000000 0.5994000000000000 0.8459250000000000
0.8085000000000000 0.9006000000000001 0.9709249999999999
0.9415000000000000 0.4006000000000000 0.9040750000000000
0.0970050000000000 0.2218010000000000 0.0418792500000000
0.1529950000000000 0.7218010000000001 0.0831207500000000
0.1529950000000000 0.7781990000000000 0.2081207500000000
0.0970050000000000 0.2781990000000000 0.1668792500000000
0.0970050000000000 0.2218010000000000 0.2918792500000000
0.1529950000000000 0.7218010000000001 0.3331207500000000
0.1529950000000000 0.7781990000000000 0.4581207499999999
0.0970050000000000 0.2781990000000000 0.4168792500000000
0.0970050000000000 0.2218010000000000 0.5418792500000000
0.1529950000000000 0.7218010000000000 0.5831207500000000
0.1529949999999999 0.7781989999999999 0.7081207499999999
0.0970049999999999 0.2781990000000000 0.6668792499999999
0.0970050000000000 0.2218010000000000 0.7918792500000000
0.1529950000000000 0.7218010000000001 0.8331207500000000
0.1529950000000000 0.7781990000000001 0.9581207500000000
0.0970050000000000 0.2781990000000000 0.9168792500000000
0.3470050000000000 0.2218010000000000 0.0418792500000000
0.4029950000000000 0.7218010000000001 0.0831207500000000
0.4029950000000000 0.7781990000000000 0.2081207500000000
0.3470050000000000 0.2781990000000000 0.1668792500000000
0.3470050000000000 0.2218010000000000 0.2918792500000000
0.4029950000000000 0.7218010000000001 0.3331207500000000
0.4029950000000000 0.7781990000000000 0.4581207499999999
0.3470050000000000 0.2781990000000000 0.4168792500000000
0.3470050000000000 0.2218010000000000 0.5418792500000000
0.4029950000000000 0.7218010000000000 0.5831207500000000
0.4029950000000000 0.7781989999999999 0.7081207499999999
0.3470050000000000 0.2781990000000000 0.6668792499999999
0.3470050000000000 0.2218010000000000 0.7918792500000000
0.4029950000000000 0.7218010000000001 0.8331207500000000
0.4029950000000000 0.7781990000000001 0.9581207500000000
0.3470050000000000 0.2781990000000000 0.9168792500000000
0.5970050000000001 0.2218010000000000 0.0418792500000000
0.6529950000000001 0.7218010000000001 0.0831207500000000
0.6529950000000000 0.7781990000000000 0.2081207500000000
0.5970050000000000 0.2781990000000000 0.1668792500000000
0.5970050000000000 0.2218010000000000 0.2918792500000000
0.6529950000000000 0.7218010000000001 0.3331207500000000
0.6529949999999999 0.7781990000000000 0.4581207499999999
0.5970050000000000 0.2781990000000000 0.4168792500000000
0.5970050000000000 0.2218010000000000 0.5418792500000000
0.6529950000000000 0.7218010000000000 0.5831207500000000
0.6529949999999999 0.7781989999999999 0.7081207499999999
0.5970050000000000 0.2781990000000000 0.6668792499999999
0.5970050000000000 0.2218010000000000 0.7918792500000000
0.6529950000000000 0.7218010000000001 0.8331207500000000
0.6529950000000000 0.7781990000000001 0.9581207500000000
0.5970050000000000 0.2781990000000000 0.9168792500000000
0.8470050000000001 0.2218010000000000 0.0418792500000000
0.9029950000000002 0.7218010000000001 0.0831207500000000
0.9029950000000001 0.7781990000000000 0.2081207500000000
0.8470050000000000 0.2781990000000000 0.1668792500000000
0.8470050000000000 0.2218010000000000 0.2918792500000000
0.9029950000000001 0.7218010000000001 0.3331207500000000
0.9029950000000000 0.7781990000000000 0.4581207499999999
0.8470050000000000 0.2781990000000000 0.4168792500000000
0.8470050000000000 0.2218010000000000 0.5418792500000000
0.9029950000000002 0.7218010000000000 0.5831207500000000
0.9029950000000000 0.7781989999999999 0.7081207499999999
0.8470050000000000 0.2781990000000000 0.6668792499999999
0.8470050000000000 0.2218010000000000 0.7918792500000000
0.9029950000000000 0.7218010000000001 0.8331207500000000
0.9029950000000001 0.7781990000000001 0.9581207500000000
0.8470050000000000 0.2781990000000000 0.9168792500000000
0.0191850000000000 0.2899690000000000 0.0552887500000000
0.2308150000000000 0.7899690000000000 0.0697112500000000
0.2308150000000000 0.7100310000000001 0.1947112500000000
0.0191850000000000 0.2100310000000001 0.1802887500000000
0.0191850000000000 0.2899690000000000 0.3052887500000000
0.2308150000000000 0.7899690000000000 0.3197112500000000
0.2308150000000000 0.7100310000000001 0.4447112500000000
0.0191850000000000 0.2100310000000001 0.4302887500000000
0.0191850000000000 0.2899690000000000 0.5552887500000000
0.2308149999999999 0.7899689999999999 0.5697112500000000
0.2308149999999999 0.7100310000000000 0.6947112500000000
0.0191850000000000 0.2100310000000001 0.6802887500000000
0.0191850000000000 0.2899690000000000 0.8052887499999999
0.2308149999999999 0.7899690000000000 0.8197112500000000
0.2308150000000000 0.7100310000000001 0.9447112499999999
0.0191850000000000 0.2100310000000001 0.9302887500000000
0.2691850000000000 0.2899690000000000 0.0552887500000000
0.4808150000000000 0.7899690000000000 0.0697112500000000
0.4808150000000001 0.7100310000000001 0.1947112500000000
0.2691850000000000 0.2100310000000001 0.1802887500000000
0.2691850000000000 0.2899690000000000 0.3052887500000000
0.4808150000000000 0.7899690000000000 0.3197112500000000
0.4808150000000000 0.7100310000000001 0.4447112500000000
0.2691850000000000 0.2100310000000001 0.4302887500000000
0.2691850000000000 0.2899690000000000 0.5552887500000000
0.4808150000000000 0.7899689999999999 0.5697112500000000
0.4808150000000000 0.7100310000000000 0.6947112500000000
0.2691850000000000 0.2100310000000001 0.6802887500000000
0.2691850000000000 0.2899690000000000 0.8052887499999999
0.4808150000000000 0.7899690000000000 0.8197112500000000
0.4808150000000000 0.7100310000000001 0.9447112499999999
0.2691850000000000 0.2100310000000001 0.9302887500000000
0.5191850000000000 0.2899690000000000 0.0552887500000000
0.7308150000000001 0.7899690000000000 0.0697112500000000
0.7308150000000000 0.7100310000000001 0.1947112500000000
0.5191850000000000 0.2100310000000001 0.1802887500000000
0.5191850000000000 0.2899690000000000 0.3052887500000000
0.7308150000000000 0.7899690000000000 0.3197112500000000
0.7308150000000000 0.7100310000000001 0.4447112500000000
0.5191850000000000 0.2100310000000001 0.4302887500000000
0.5191850000000000 0.2899690000000000 0.5552887500000000
0.7308150000000000 0.7899689999999999 0.5697112500000000
0.7308150000000000 0.7100310000000000 0.6947112500000000
0.5191850000000000 0.2100310000000001 0.6802887500000000
0.5191850000000000 0.2899690000000000 0.8052887499999999
0.7308150000000000 0.7899690000000000 0.8197112500000000
0.7308150000000000 0.7100310000000001 0.9447112499999999
0.5191850000000000 0.2100310000000001 0.9302887500000000
0.7691850000000000 0.2899690000000000 0.0552887500000000
0.9808150000000001 0.7899690000000000 0.0697112500000000
0.9808150000000000 0.7100310000000001 0.1947112500000000
0.7691850000000000 0.2100310000000001 0.1802887500000000
0.7691850000000001 0.2899690000000000 0.3052887500000000
0.9808150000000000 0.7899690000000000 0.3197112500000000
0.9808150000000001 0.7100310000000001 0.4447112500000000
0.7691850000000000 0.2100310000000001 0.4302887500000000
0.7691850000000000 0.2899690000000000 0.5552887500000000
0.9808150000000000 0.7899689999999999 0.5697112500000000
0.9808150000000000 0.7100310000000000 0.6947112500000000
0.7691850000000000 0.2100310000000001 0.6802887500000000
0.7691850000000000 0.2899690000000000 0.8052887499999999
0.9808150000000000 0.7899690000000000 0.8197112500000000
0.9808150000000000 0.7100310000000001 0.9447112499999999
0.7691850000000000 0.2100310000000001 0.9302887500000000
0.1279625000000000 0.4081510000000000 0.0402852500000000
0.1220375000000000 0.9081509999999999 0.0847147500000000
0.1220375000000000 0.5918490000000002 0.2097147500000000
0.1279625000000000 0.0918490000000001 0.1652852500000000
0.1279625000000000 0.4081510000000000 0.2902852500000000
0.1220375000000000 0.9081509999999999 0.3347147500000000
0.1220375000000000 0.5918490000000002 0.4597147500000000
0.1279625000000000 0.0918490000000001 0.4152852500000000
0.1279625000000000 0.4081510000000000 0.5402852500000001
0.1220375000000000 0.9081509999999998 0.5847147500000001
0.1220375000000000 0.5918490000000001 0.7097147500000001
0.1279625000000000 0.0918490000000001 0.6652852499999998
0.1279625000000000 0.4081510000000000 0.7902852500000001
0.1220375000000000 0.9081510000000000 0.8347147500000001
0.1220375000000000 0.5918490000000001 0.9597147500000001
0.1279625000000000 0.0918490000000001 0.9152852499999999
0.3779625000000001 0.4081510000000000 0.0402852500000000
0.3720375000000000 0.9081509999999999 0.0847147500000000
0.3720375000000001 0.5918490000000002 0.2097147500000000
0.3779625000000000 0.0918490000000001 0.1652852500000000
0.3779625000000000 0.4081510000000000 0.2902852500000000
0.3720375000000000 0.9081509999999999 0.3347147500000000
0.3720375000000001 0.5918490000000002 0.4597147500000000
0.3779625000000000 0.0918490000000001 0.4152852500000000
0.3779625000000000 0.4081510000000000 0.5402852500000001
0.3720375000000000 0.9081509999999998 0.5847147500000001
0.3720375000000001 0.5918490000000001 0.7097147500000001
0.3779625000000000 0.0918490000000001 0.6652852499999998
0.3779625000000000 0.4081510000000000 0.7902852500000001
0.3720375000000000 0.9081510000000000 0.8347147500000001
0.3720375000000001 0.5918490000000001 0.9597147500000001
0.3779625000000000 0.0918490000000001 0.9152852499999999
0.6279625000000000 0.4081510000000000 0.0402852500000000
0.6220375000000000 0.9081509999999999 0.0847147500000000
0.6220375000000001 0.5918490000000002 0.2097147500000000
0.6279625000000000 0.0918490000000001 0.1652852500000000
0.6279625000000000 0.4081510000000000 0.2902852500000000
0.6220375000000000 0.9081509999999999 0.3347147500000000
0.6220374999999999 0.5918490000000002 0.4597147500000000
0.6279625000000000 0.0918490000000001 0.4152852500000000
0.6279625000000000 0.4081510000000000 0.5402852500000001
0.6220374999999999 0.9081509999999998 0.5847147500000001
0.6220375000000000 0.5918490000000001 0.7097147500000001
0.6279625000000000 0.0918490000000001 0.6652852499999998
0.6279625000000000 0.4081510000000000 0.7902852500000001
0.6220375000000000 0.9081510000000000 0.8347147500000001
0.6220375000000000 0.5918490000000001 0.9597147500000001
0.6279625000000000 0.0918490000000001 0.9152852499999999
0.8779625000000000 0.4081510000000000 0.0402852500000000
0.8720375000000000 0.9081509999999999 0.0847147500000000
0.8720375000000001 0.5918490000000002 0.2097147500000000
0.8779625000000001 0.0918490000000001 0.1652852500000000
0.8779625000000000 0.4081510000000000 0.2902852500000000
0.8720375000000000 0.9081509999999999 0.3347147500000000
0.8720375000000000 0.5918490000000002 0.4597147500000000
0.8779625000000000 0.0918490000000001 0.4152852500000000
0.8779625000000000 0.4081510000000000 0.5402852500000001
0.8720374999999999 0.9081509999999998 0.5847147500000001
0.8720375000000000 0.5918490000000001 0.7097147500000001
0.8779624999999999 0.0918490000000001 0.6652852499999998
0.8779625000000001 0.4081510000000000 0.7902852500000001
0.8720375000000000 0.9081510000000000 0.8347147500000001
0.8720375000000000 0.5918490000000001 0.9597147500000001
0.8779625000000000 0.0918490000000001 0.9152852499999999
0.0369350000000000 0.3747870000000000 0.0767262500000000
0.2130650000000000 0.8747870000000001 0.0482737500000000
0.2130650000000000 0.6252130000000000 0.1732737500000000
0.0369350000000000 0.1252130000000000 0.2017262500000000
0.0369350000000000 0.3747870000000000 0.3267262499999999
0.2130650000000000 0.8747870000000001 0.2982737500000000
0.2130650000000000 0.6252130000000001 0.4232737500000000
0.0369350000000000 0.1252130000000000 0.4517262500000000
0.0369350000000000 0.3747870000000000 0.5767262500000000
0.2130650000000000 0.8747870000000001 0.5482737500000000
0.2130650000000000 0.6252130000000000 0.6732737500000000
0.0369350000000000 0.1252130000000000 0.7017262500000000
0.0369350000000000 0.3747870000000000 0.8267262500000000
0.2130650000000000 0.8747870000000002 0.7982737500000000
0.2130650000000000 0.6252130000000000 0.9232737500000000
0.0369350000000000 0.1252130000000000 0.9517262500000000
0.2869350000000000 0.3747870000000000 0.0767262500000000
0.4630650000000000 0.8747870000000001 0.0482737500000000
0.4630649999999999 0.6252130000000000 0.1732737500000000
0.2869350000000000 0.1252130000000000 0.2017262500000000
0.2869349999999999 0.3747870000000000 0.3267262499999999
0.4630650000000001 0.8747870000000001 0.2982737500000000
0.4630650000000000 0.6252130000000001 0.4232737500000000
0.2869350000000000 0.1252130000000000 0.4517262500000000
0.2869350000000000 0.3747870000000000 0.5767262500000000
0.4630649999999999 0.8747870000000001 0.5482737500000000
0.4630650000000000 0.6252130000000000 0.6732737500000000
0.2869350000000001 0.1252130000000000 0.7017262500000000
0.2869349999999999 0.3747870000000000 0.8267262500000000
0.4630649999999999 0.8747870000000002 0.7982737500000000
0.4630650000000000 0.6252130000000000 0.9232737500000000
0.2869350000000000 0.1252130000000000 0.9517262500000000
0.5369349999999999 0.3747870000000000 0.0767262500000000
0.7130650000000002 0.8747870000000001 0.0482737500000000
0.7130650000000002 0.6252130000000000 0.1732737500000000
0.5369350000000001 0.1252130000000000 0.2017262500000000
0.5369349999999999 0.3747870000000000 0.3267262499999999
0.7130650000000001 0.8747870000000001 0.2982737500000000
0.7130650000000001 0.6252130000000001 0.4232737500000000
0.5369349999999999 0.1252130000000000 0.4517262500000000
0.5369349999999999 0.3747870000000000 0.5767262500000000
0.7130649999999999 0.8747870000000001 0.5482737500000000
0.7130649999999999 0.6252130000000000 0.6732737500000000
0.5369350000000001 0.1252130000000000 0.7017262500000000
0.5369349999999999 0.3747870000000000 0.8267262500000000
0.7130649999999999 0.8747870000000002 0.7982737500000000
0.7130650000000001 0.6252130000000000 0.9232737500000000
0.5369349999999999 0.1252130000000000 0.9517262500000000
0.7869349999999999 0.3747870000000000 0.0767262500000000
0.9630650000000003 0.8747870000000001 0.0482737500000000
0.9630650000000003 0.6252130000000000 0.1732737500000000
0.7869350000000001 0.1252130000000000 0.2017262500000000
0.7869350000000001 0.3747870000000000 0.3267262499999999
0.9630650000000002 0.8747870000000001 0.2982737500000000
0.9630650000000002 0.6252130000000001 0.4232737500000000
0.7869349999999999 0.1252130000000000 0.4517262500000000
0.7869349999999999 0.3747870000000000 0.5767262500000000
0.9630650000000001 0.8747870000000001 0.5482737500000000
0.9630650000000002 0.6252130000000000 0.6732737500000000
0.7869349999999999 0.1252130000000000 0.7017262500000000
0.7869349999999999 0.3747870000000000 0.8267262500000000
0.9630650000000001 0.8747870000000002 0.7982737500000000
0.9630650000000001 0.6252130000000000 0.9232737500000000
0.7869349999999999 0.1252130000000000 0.9517262500000000
0.0890375000000000 0.1327590000000000 0.0518235000000000
0.1609625000000000 0.6327590000000001 0.0731765000000000
0.1609625000000000 0.8672410000000002 0.1981765000000000
0.0890375000000000 0.3672410000000000 0.1768235000000000
0.0890375000000000 0.1327590000000000 0.3018235000000000
0.1609625000000000 0.6327590000000001 0.3231765000000000
0.1609625000000000 0.8672410000000002 0.4481765000000000
0.0890375000000000 0.3672410000000000 0.4268235000000000
0.0890375000000000 0.1327590000000000 0.5518235000000000
0.1609625000000000 0.6327590000000000 0.5731765000000000
0.1609625000000000 0.8672410000000000 0.6981764999999999
0.0890375000000000 0.3672410000000000 0.6768235000000000
0.0890375000000000 0.1327590000000000 0.8018235000000000
0.1609625000000000 0.6327590000000000 0.8231765000000000
0.1609625000000000 0.8672410000000002 0.9481765000000000
0.0890375000000000 0.3672410000000000 0.9268235000000000
0.3390375000000000 0.1327590000000000 0.0518235000000000
0.4109625000000000 0.6327590000000001 0.0731765000000000
0.4109625000000001 0.8672410000000002 0.1981765000000000
0.3390375000000000 0.3672410000000000 0.1768235000000000
0.3390375000000000 0.1327590000000000 0.3018235000000000
0.4109625000000000 0.6327590000000001 0.3231765000000000
0.4109625000000000 0.8672410000000002 0.4481765000000000
0.3390375000000000 0.3672410000000000 0.4268235000000000
0.3390375000000000 0.1327590000000000 0.5518235000000000
0.4109625000000000 0.6327590000000000 0.5731765000000000
0.4109625000000000 0.8672410000000000 0.6981764999999999
0.3390375000000000 0.3672410000000000 0.6768235000000000
0.3390374999999999 0.1327590000000000 0.8018235000000000
0.4109625000000000 0.6327590000000000 0.8231765000000000
0.4109625000000000 0.8672410000000002 0.9481765000000000
0.3390374999999999 0.3672410000000000 0.9268235000000000
0.5890375000000001 0.1327590000000000 0.0518235000000000
0.6609625000000000 0.6327590000000001 0.0731765000000000
0.6609625000000000 0.8672410000000002 0.1981765000000000
0.5890375000000000 0.3672410000000000 0.1768235000000000
0.5890375000000001 0.1327590000000000 0.3018235000000000
0.6609624999999999 0.6327590000000001 0.3231765000000000
0.6609624999999999 0.8672410000000002 0.4481765000000000
0.5890375000000001 0.3672410000000000 0.4268235000000000
0.5890375000000001 0.1327590000000000 0.5518235000000000
0.6609624999999999 0.6327590000000000 0.5731765000000000
0.6609624999999999 0.8672410000000000 0.6981764999999999
0.5890375000000001 0.3672410000000000 0.6768235000000000
0.5890375000000000 0.1327590000000000 0.8018235000000000
0.6609624999999999 0.6327590000000000 0.8231765000000000
0.6609624999999999 0.8672410000000002 0.9481765000000000
0.5890375000000000 0.3672410000000000 0.9268235000000000
0.8390375000000000 0.1327590000000000 0.0518235000000000
0.9109625000000001 0.6327590000000001 0.0731765000000000
0.9109625000000001 0.8672410000000002 0.1981765000000000
0.8390375000000001 0.3672410000000000 0.1768235000000000
0.8390375000000000 0.1327590000000000 0.3018235000000000
0.9109625000000001 0.6327590000000001 0.3231765000000000
0.9109625000000001 0.8672410000000002 0.4481765000000000
0.8390375000000001 0.3672410000000000 0.4268235000000000
0.8390375000000001 0.1327590000000000 0.5518235000000000
0.9109624999999999 0.6327590000000000 0.5731765000000000
0.9109625000000001 0.8672410000000000 0.6981764999999999
0.8390375000000000 0.3672410000000000 0.6768235000000000
0.8390374999999999 0.1327590000000000 0.8018235000000000
0.9109625000000001 0.6327590000000000 0.8231765000000000
0.9109625000000001 0.8672410000000002 0.9481765000000000
0.8390375000000000 0.3672410000000000 0.9268235000000000
0.2267300000000000 0.1075800000000000 0.0252395000000000
0.0232700000000000 0.6075800000000000 0.0997605000000000
0.0232700000000000 0.8924200000000001 0.2247605000000000
0.2267300000000000 0.3924200000000000 0.1502395000000000
0.2267300000000000 0.1075800000000000 0.2752395000000000
0.0232700000000000 0.6075800000000000 0.3497605000000000
0.0232700000000000 0.8924200000000001 0.4747605000000000
0.2267300000000000 0.3924200000000000 0.4002395000000000
0.2267300000000000 0.1075800000000000 0.5252395000000000
0.0232700000000000 0.6075800000000000 0.5997605000000000
0.0232700000000000 0.8924200000000001 0.7247605000000000
0.2267300000000000 0.3924200000000000 0.6502395000000000
0.2267299999999999 0.1075800000000000 0.7752394999999999
0.0232700000000000 0.6075800000000000 0.8497605000000000
0.0232700000000000 0.8924200000000001 0.9747604999999999
0.2267300000000000 0.3924200000000000 0.9002395000000000
0.4767299999999999 0.1075800000000000 0.0252395000000000
0.2732700000000000 0.6075800000000000 0.0997605000000000
0.2732700000000000 0.8924200000000001 0.2247605000000000
0.4767300000000000 0.3924200000000000 0.1502395000000000
0.4767300000000000 0.1075800000000000 0.2752395000000000
0.2732700000000000 0.6075800000000000 0.3497605000000000
0.2732700000000000 0.8924200000000001 0.4747605000000000
0.4767300000000000 0.3924200000000000 0.4002395000000000
0.4767300000000000 0.1075800000000000 0.5252395000000000
0.2732700000000000 0.6075800000000000 0.5997605000000000
0.2732700000000000 0.8924200000000001 0.7247605000000000
0.4767300000000000 0.3924200000000000 0.6502395000000000
0.4767299999999999 0.1075800000000000 0.7752394999999999
0.2732700000000000 0.6075800000000000 0.8497605000000000
0.2732700000000000 0.8924200000000001 0.9747604999999999
0.4767299999999999 0.3924200000000000 0.9002395000000000
0.7267300000000000 0.1075800000000000 0.0252395000000000
0.5232700000000000 0.6075800000000000 0.0997605000000000
0.5232700000000001 0.8924200000000001 0.2247605000000000
0.7267300000000000 0.3924200000000000 0.1502395000000000
0.7267300000000000 0.1075800000000000 0.2752395000000000
0.5232700000000001 0.6075800000000000 0.3497605000000000
0.5232700000000001 0.8924200000000001 0.4747605000000000
0.7267300000000000 0.3924200000000000 0.4002395000000000
0.7267300000000000 0.1075800000000000 0.5252395000000000
0.5232700000000000 0.6075800000000000 0.5997605000000000
0.5232700000000000 0.8924200000000001 0.7247605000000000
0.7267300000000000 0.3924200000000000 0.6502395000000000
0.7267299999999999 0.1075800000000000 0.7752394999999999
0.5232700000000001 0.6075800000000000 0.8497605000000000
0.5232700000000001 0.8924200000000001 0.9747604999999999
0.7267299999999999 0.3924200000000000 0.9002395000000000
0.9767300000000001 0.1075800000000000 0.0252395000000000
0.7732700000000000 0.6075800000000000 0.0997605000000000
0.7732700000000001 0.8924200000000001 0.2247605000000000
0.9767300000000001 0.3924200000000000 0.1502395000000000
0.9767300000000002 0.1075800000000000 0.2752395000000000
0.7732700000000000 0.6075800000000000 0.3497605000000000
0.7732700000000000 0.8924200000000001 0.4747605000000000
0.9767300000000001 0.3924200000000000 0.4002395000000000
0.9767300000000001 0.1075800000000000 0.5252395000000000
0.7732700000000001 0.6075800000000000 0.5997605000000000
0.7732699999999999 0.8924200000000001 0.7247605000000000
0.9767300000000001 0.3924200000000000 0.6502395000000000
0.9767300000000000 0.1075800000000000 0.7752394999999999
0.7732700000000000 0.6075800000000000 0.8497605000000000
0.7732700000000000 0.8924200000000001 0.9747604999999999
0.9767300000000001 0.3924200000000000 0.9002395000000000
0.0109000000000000 0.1833000000000000 0.0574500000000000
0.2391000000000000 0.6833000000000000 0.0675500000000000
0.2391000000000000 0.8167000000000001 0.1925500000000000
0.0109000000000000 0.3167000000000000 0.1824500000000000
0.0109000000000000 0.1833000000000000 0.3074500000000000
0.2391000000000000 0.6833000000000000 0.3175500000000000
0.2390999999999999 0.8167000000000001 0.4425499999999999
0.0109000000000000 0.3167000000000000 0.4324499999999999
0.0109000000000000 0.1833000000000000 0.5574500000000000
0.2391000000000000 0.6832999999999999 0.5675500000000000
0.2390999999999999 0.8167000000000000 0.6925499999999999
0.0109000000000000 0.3167000000000000 0.6824499999999999
0.0109000000000000 0.1833000000000000 0.8074500000000000
0.2391000000000000 0.6833000000000000 0.8175500000000000
0.2390999999999999 0.8167000000000001 0.9425500000000000
0.0109000000000000 0.3167000000000000 0.9324500000000000
0.2609000000000001 0.1833000000000000 0.0574500000000000
0.4891000000000000 0.6833000000000000 0.0675500000000000
0.4891000000000000 0.8167000000000001 0.1925500000000000
0.2609000000000000 0.3167000000000000 0.1824500000000000
0.2609000000000000 0.1833000000000000 0.3074500000000000
0.4891000000000000 0.6833000000000000 0.3175500000000000
0.4890999999999999 0.8167000000000001 0.4425499999999999
0.2609000000000000 0.3167000000000000 0.4324499999999999
0.2609000000000000 0.1833000000000000 0.5574500000000000
0.4891000000000000 0.6832999999999999 0.5675500000000000
0.4891000000000000 0.8167000000000000 0.6925499999999999
0.2609000000000000 0.3167000000000000 0.6824499999999999
0.2609000000000000 0.1833000000000000 0.8074500000000000
0.4891000000000000 0.6833000000000000 0.8175500000000000
0.4891000000000000 0.8167000000000001 0.9425500000000000
0.2609000000000000 0.3167000000000000 0.9324500000000000
0.5109000000000001 0.1833000000000000 0.0574500000000000
0.7391000000000000 0.6833000000000000 0.0675500000000000
0.7391000000000000 0.8167000000000001 0.1925500000000000
0.5109000000000001 0.3167000000000000 0.1824500000000000
0.5109000000000000 0.1833000000000000 0.3074500000000000
0.7391000000000000 0.6833000000000000 0.3175500000000000
0.7391000000000000 0.8167000000000001 0.4425499999999999
0.5109000000000000 0.3167000000000000 0.4324499999999999
0.5109000000000001 0.1833000000000000 0.5574500000000000
0.7391000000000000 0.6832999999999999 0.5675500000000000
0.7390999999999999 0.8167000000000000 0.6925499999999999
0.5109000000000000 0.3167000000000000 0.6824499999999999
0.5109000000000001 0.1833000000000000 0.8074500000000000
0.7390999999999999 0.6833000000000000 0.8175500000000000
0.7390999999999999 0.8167000000000001 0.9425500000000000
0.5109000000000000 0.3167000000000000 0.9324500000000000
0.7609000000000001 0.1833000000000000 0.0574500000000000
0.9891000000000001 0.6833000000000000 0.0675500000000000
0.9891000000000001 0.8167000000000001 0.1925500000000000
0.7609000000000001 0.3167000000000000 0.1824500000000000
0.7609000000000000 0.1833000000000000 0.3074500000000000
0.9891000000000001 0.6833000000000000 0.3175500000000000
0.9891000000000001 0.8167000000000001 0.4425499999999999
0.7609000000000000 0.3167000000000000 0.4324499999999999
0.7609000000000001 0.1833000000000000 0.5574500000000000
0.9891000000000001 0.6832999999999999 0.5675500000000000
0.9891000000000000 0.8167000000000000 0.6925499999999999
0.7609000000000000 0.3167000000000000 0.6824499999999999
0.7609000000000001 0.1833000000000000 0.8074500000000000
0.9891000000000001 0.6833000000000000 0.8175500000000000
0.9891000000000001 0.8167000000000001 0.9425500000000000
0.7609000000000000 0.3167000000000000 0.9324500000000000
0.1053250000000000 0.3270000000000001 0.0399250000000000
0.1446750000000000 0.8270000000000001 0.0850750000000000
0.1446750000000000 0.6730000000000000 0.2100750000000000
0.1053250000000000 0.1730000000000000 0.1649250000000000
0.1053250000000000 0.3270000000000000 0.2899250000000000
0.1446750000000000 0.8270000000000001 0.3350750000000000
0.1446750000000000 0.6730000000000000 0.4600750000000000
0.1053250000000000 0.1730000000000000 0.4149250000000000
0.1053250000000000 0.3270000000000001 0.5399250000000000
0.1446750000000000 0.8270000000000000 0.5850750000000000
0.1446750000000000 0.6729999999999999 0.7100750000000000
0.1053250000000000 0.1730000000000001 0.6649250000000000
0.1053250000000000 0.3270000000000001 0.7899250000000000
0.1446749999999999 0.8270000000000001 0.8350749999999999
0.1446750000000000 0.6730000000000002 0.9600750000000000
0.1053250000000000 0.1730000000000001 0.9149249999999999
0.3553250000000000 0.3270000000000001 0.0399250000000000
0.3946750000000000 0.8270000000000001 0.0850750000000000
0.3946750000000000 0.6730000000000000 0.2100750000000000
0.3553250000000000 0.1730000000000000 0.1649250000000000
0.3553250000000000 0.3270000000000000 0.2899250000000000
0.3946750000000001 0.8270000000000001 0.3350750000000000
0.3946750000000000 0.6730000000000000 0.4600750000000000
0.3553250000000000 0.1730000000000000 0.4149250000000000
0.3553250000000000 0.3270000000000001 0.5399250000000000
0.3946750000000000 0.8270000000000000 0.5850750000000000
0.3946750000000001 0.6729999999999999 0.7100750000000000
0.3553249999999999 0.1730000000000001 0.6649250000000000
0.3553250000000000 0.3270000000000001 0.7899250000000000
0.3946749999999999 0.8270000000000001 0.8350749999999999
0.3946750000000000 0.6730000000000002 0.9600750000000000
0.3553249999999999 0.1730000000000001 0.9149249999999999
0.6053250000000001 0.3270000000000001 0.0399250000000000
0.6446750000000000 0.8270000000000001 0.0850750000000000
0.6446750000000000 0.6730000000000000 0.2100750000000000
0.6053250000000001 0.1730000000000000 0.1649250000000000
0.6053250000000000 0.3270000000000000 0.2899250000000000
0.6446750000000000 0.8270000000000001 0.3350750000000000
0.6446749999999999 0.6730000000000000 0.4600750000000000
0.6053250000000001 0.1730000000000000 0.4149250000000000
0.6053250000000001 0.3270000000000001 0.5399250000000000
0.6446749999999999 0.8270000000000000 0.5850750000000000
0.6446749999999999 0.6729999999999999 0.7100750000000000
0.6053250000000000 0.1730000000000001 0.6649250000000000
0.6053250000000001 0.3270000000000001 0.7899250000000000
0.6446749999999999 0.8270000000000001 0.8350749999999999
0.6446749999999999 0.6730000000000002 0.9600750000000000
0.6053250000000000 0.1730000000000001 0.9149249999999999
0.8553250000000001 0.3270000000000001 0.0399250000000000
0.8946750000000001 0.8270000000000001 0.0850750000000000
0.8946750000000001 0.6730000000000000 0.2100750000000000
0.8553250000000000 0.1730000000000000 0.1649250000000000
0.8553250000000001 0.3270000000000000 0.2899250000000000
0.8946750000000001 0.8270000000000001 0.3350750000000000
0.8946750000000000 0.6730000000000000 0.4600750000000000
0.8553250000000001 0.1730000000000000 0.4149250000000000
0.8553250000000000 0.3270000000000001 0.5399250000000000
0.8946750000000001 0.8270000000000000 0.5850750000000000
0.8946750000000001 0.6729999999999999 0.7100750000000000
0.8553250000000000 0.1730000000000001 0.6649250000000000
0.8553250000000001 0.3270000000000001 0.7899250000000000
0.8946750000000000 0.8270000000000001 0.8350749999999999
0.8946750000000001 0.6730000000000002 0.9600750000000000
0.8553250000000000 0.1730000000000001 0.9149249999999999
0.1938250000000000 0.4602000000000000 0.0652750000000000
0.0561750000000000 0.9602000000000001 0.0597250000000000
0.0561750000000000 0.5398000000000002 0.1847250000000000
0.1938250000000000 0.0398000000000001 0.1902750000000000
0.1938250000000000 0.4601999999999999 0.3152750000000000
0.0561750000000000 0.9602000000000001 0.3097250000000000
0.0561750000000000 0.5398000000000002 0.4347250000000000
0.1938250000000000 0.0398000000000001 0.4402750000000000
0.1938250000000000 0.4602000000000001 0.5652750000000000
0.0561750000000000 0.9601999999999999 0.5597250000000000
0.0561750000000000 0.5398000000000001 0.6847250000000000
0.1938250000000000 0.0398000000000001 0.6902749999999999
0.1938250000000000 0.4602000000000001 0.8152750000000000
0.0561749999999999 0.9602000000000001 0.8097250000000000
0.0561749999999999 0.5398000000000001 0.9347250000000000
0.1938250000000000 0.0398000000000001 0.9402750000000000
0.4438250000000001 0.4602000000000000 0.0652750000000000
0.3061750000000000 0.9602000000000001 0.0597250000000000
0.3061750000000000 0.5398000000000002 0.1847250000000000
0.4438250000000001 0.0398000000000001 0.1902750000000000
0.4438250000000000 0.4601999999999999 0.3152750000000000
0.3061750000000000 0.9602000000000001 0.3097250000000000
0.3061750000000000 0.5398000000000002 0.4347250000000000
0.4438250000000000 0.0398000000000001 0.4402750000000000
0.4438250000000000 0.4602000000000001 0.5652750000000000
0.3061750000000000 0.9601999999999999 0.5597250000000000
0.3061750000000000 0.5398000000000001 0.6847250000000000
0.4438250000000000 0.0398000000000001 0.6902749999999999
0.4438250000000000 0.4602000000000001 0.8152750000000000
0.3061750000000000 0.9602000000000001 0.8097250000000000
0.3061749999999999 0.5398000000000001 0.9347250000000000
0.4438250000000001 0.0398000000000001 0.9402750000000000
0.6938250000000001 0.4602000000000000 0.0652750000000000
0.5561750000000001 0.9602000000000001 0.0597250000000000
0.5561750000000000 0.5398000000000002 0.1847250000000000
0.6938250000000001 0.0398000000000001 0.1902750000000000
0.6938250000000001 0.4601999999999999 0.3152750000000000
0.5561750000000000 0.9602000000000001 0.3097250000000000
0.5561750000000000 0.5398000000000002 0.4347250000000000
0.6938250000000000 0.0398000000000001 0.4402750000000000
0.6938250000000000 0.4602000000000001 0.5652750000000000
0.5561750000000000 0.9601999999999999 0.5597250000000000
0.5561749999999999 0.5398000000000001 0.6847250000000000
0.6938250000000000 0.0398000000000001 0.6902749999999999
0.6938250000000000 0.4602000000000001 0.8152750000000000
0.5561750000000000 0.9602000000000001 0.8097250000000000
0.5561749999999999 0.5398000000000001 0.9347250000000000
0.6938250000000001 0.0398000000000001 0.9402750000000000
0.9438250000000001 0.4602000000000000 0.0652750000000000
0.8061750000000001 0.9602000000000001 0.0597250000000000
0.8061750000000000 0.5398000000000002 0.1847250000000000
0.9438250000000001 0.0398000000000001 0.1902750000000000
0.9438250000000000 0.4601999999999999 0.3152750000000000
0.8061750000000000 0.9602000000000001 0.3097250000000000
0.8061750000000000 0.5398000000000002 0.4347250000000000
0.9438250000000000 0.0398000000000001 0.4402750000000000
0.9438250000000001 0.4602000000000001 0.5652750000000000
0.8061749999999999 0.9601999999999999 0.5597250000000000
0.8061749999999999 0.5398000000000001 0.6847250000000000
0.9438249999999999 0.0398000000000001 0.6902749999999999
0.9438250000000000 0.4602000000000001 0.8152750000000000
0.8061749999999999 0.9602000000000001 0.8097250000000000
0.8061749999999999 0.5398000000000001 0.9347250000000000
0.9438250000000001 0.0398000000000001 0.9402750000000000
0.2447000000000000 0.4505000000000001 0.0748000000000000
0.0053000000000000 0.9505000000000001 0.0502000000000000
0.0053000000000000 0.5495000000000000 0.1752000000000000
0.2447000000000000 0.0495000000000000 0.1998000000000000
0.2447000000000000 0.4505000000000000 0.3248000000000000
0.0053000000000000 0.9505000000000001 0.3002000000000000
0.0053000000000000 0.5495000000000001 0.4252000000000000
0.2447000000000000 0.0495000000000000 0.4497999999999999
0.2447000000000000 0.4505000000000001 0.5748000000000000
0.0053000000000000 0.9505000000000001 0.5502000000000000
0.0052999999999999 0.5495000000000000 0.6751999999999999
0.2447000000000000 0.0495000000000000 0.6997999999999999
0.2447000000000000 0.4505000000000001 0.8248000000000000
0.0053000000000000 0.9505000000000001 0.8002000000000000
0.0053000000000000 0.5495000000000000 0.9252000000000000
0.2447000000000000 0.0495000000000000 0.9498000000000000
0.4947000000000000 0.4505000000000001 0.0748000000000000
0.2553000000000000 0.9505000000000001 0.0502000000000000
0.2553000000000000 0.5495000000000000 0.1752000000000000
0.4947000000000000 0.0495000000000000 0.1998000000000000
0.4947000000000000 0.4505000000000000 0.3248000000000000
0.2553000000000000 0.9505000000000001 0.3002000000000000
0.2553000000000000 0.5495000000000001 0.4252000000000000
0.4947000000000000 0.0495000000000000 0.4497999999999999
0.4947000000000000 0.4505000000000001 0.5748000000000000
0.2553000000000000 0.9505000000000001 0.5502000000000000
0.2553000000000000 0.5495000000000000 0.6751999999999999
0.4947000000000000 0.0495000000000000 0.6997999999999999
0.4947000000000000 0.4505000000000001 0.8248000000000000
0.2553000000000000 0.9505000000000001 0.8002000000000000
0.2553000000000000 0.5495000000000000 0.9252000000000000
0.4947000000000000 0.0495000000000000 0.9498000000000000
0.7447000000000001 0.4505000000000001 0.0748000000000000
0.5053000000000000 0.9505000000000001 0.0502000000000000
0.5053000000000000 0.5495000000000000 0.1752000000000000
0.7447000000000001 0.0495000000000000 0.1998000000000000
0.7447000000000000 0.4505000000000000 0.3248000000000000
0.5053000000000000 0.9505000000000001 0.3002000000000000
0.5052999999999999 0.5495000000000001 0.4252000000000000
0.7447000000000000 0.0495000000000000 0.4497999999999999
0.7447000000000001 0.4505000000000001 0.5748000000000000
0.5053000000000000 0.9505000000000001 0.5502000000000000
0.5053000000000000 0.5495000000000000 0.6751999999999999
0.7447000000000001 0.0495000000000000 0.6997999999999999
0.7447000000000001 0.4505000000000001 0.8248000000000000
0.5053000000000000 0.9505000000000001 0.8002000000000000
0.5053000000000000 0.5495000000000000 0.9252000000000000
0.7447000000000001 0.0495000000000000 0.9498000000000000
0.9947000000000001 0.4505000000000001 0.0748000000000000
0.7553000000000001 0.9505000000000001 0.0502000000000000
0.7553000000000001 0.5495000000000000 0.1752000000000000
0.9947000000000001 0.0495000000000000 0.1998000000000000
0.9947000000000000 0.4505000000000000 0.3248000000000000
0.7553000000000001 0.9505000000000001 0.3002000000000000
0.7553000000000001 0.5495000000000001 0.4252000000000000
0.9947000000000000 0.0495000000000000 0.4497999999999999
0.9946999999999999 0.4505000000000001 0.5748000000000000
0.7553000000000001 0.9505000000000001 0.5502000000000000
0.7553000000000000 0.5495000000000000 0.6751999999999999
0.9947000000000001 0.0495000000000000 0.6997999999999999
0.9947000000000001 0.4505000000000001 0.8248000000000000
0.7553000000000000 0.9505000000000001 0.8002000000000000
0.7553000000000000 0.5495000000000000 0.9252000000000000
0.9947000000000000 0.0495000000000000 0.9498000000000000
0.1213250000000000 0.0592000000000000 0.0288250000000000
0.1286750000000000 0.5592000000000000 0.0961750000000000
0.1286750000000000 0.9408000000000000 0.2211750000000000
0.1213250000000000 0.4408000000000000 0.1538250000000000
0.1213250000000000 0.0592000000000000 0.2788250000000000
0.1286750000000000 0.5592000000000000 0.3461750000000000
0.1286750000000000 0.9408000000000000 0.4711750000000000
0.1213250000000000 0.4408000000000000 0.4038250000000000
0.1213250000000000 0.0592000000000000 0.5288250000000000
0.1286750000000000 0.5592000000000000 0.5961750000000000
0.1286750000000000 0.9407999999999999 0.7211750000000000
0.1213250000000000 0.4408000000000000 0.6538250000000000
0.1213250000000000 0.0592000000000000 0.7788250000000000
0.1286749999999999 0.5592000000000000 0.8461750000000000
0.1286749999999999 0.9408000000000001 0.9711749999999999
0.1213249999999999 0.4408000000000000 0.9038250000000000
0.3713250000000001 0.0592000000000000 0.0288250000000000
0.3786750000000000 0.5592000000000000 0.0961750000000000
0.3786750000000000 0.9408000000000000 0.2211750000000000
0.3713250000000000 0.4408000000000000 0.1538250000000000
0.3713250000000000 0.0592000000000000 0.2788250000000000
0.3786750000000000 0.5592000000000000 0.3461750000000000
0.3786750000000000 0.9408000000000000 0.4711750000000000
0.3713250000000000 0.4408000000000000 0.4038250000000000
0.3713250000000000 0.0592000000000000 0.5288250000000000
0.3786749999999999 0.5592000000000000 0.5961750000000000
0.3786750000000000 0.9407999999999999 0.7211750000000000
0.3713250000000000 0.4408000000000000 0.6538250000000000
0.3713250000000000 0.0592000000000000 0.7788250000000000
0.3786749999999999 0.5592000000000000 0.8461750000000000
0.3786749999999999 0.9408000000000001 0.9711749999999999
0.3713249999999999 0.4408000000000000 0.9038250000000000
0.6213250000000000 0.0592000000000000 0.0288250000000000
0.6286750000000000 0.5592000000000000 0.0961750000000000
0.6286750000000001 0.9408000000000000 0.2211750000000000
0.6213250000000000 0.4408000000000000 0.1538250000000000
0.6213250000000000 0.0592000000000000 0.2788250000000000
0.6286750000000000 0.5592000000000000 0.3461750000000000
0.6286750000000000 0.9408000000000000 0.4711750000000000
0.6213250000000000 0.4408000000000000 0.4038250000000000
0.6213250000000000 0.0592000000000000 0.5288250000000000
0.6286750000000000 0.5592000000000000 0.5961750000000000
0.6286750000000000 0.9407999999999999 0.7211750000000000
0.6213249999999999 0.4408000000000000 0.6538250000000000
0.6213249999999999 0.0592000000000000 0.7788250000000000
0.6286749999999999 0.5592000000000000 0.8461750000000000
0.6286749999999999 0.9408000000000001 0.9711749999999999
0.6213249999999999 0.4408000000000000 0.9038250000000000
0.8713250000000001 0.0592000000000000 0.0288250000000000
0.8786750000000000 0.5592000000000000 0.0961750000000000
0.8786750000000001 0.9408000000000000 0.2211750000000000
0.8713250000000002 0.4408000000000000 0.1538250000000000
0.8713250000000001 0.0592000000000000 0.2788250000000000
0.8786750000000000 0.5592000000000000 0.3461750000000000
0.8786750000000001 0.9408000000000000 0.4711750000000000
0.8713250000000001 0.4408000000000000 0.4038250000000000
0.8713250000000000 0.0592000000000000 0.5288250000000000
0.8786750000000000 0.5592000000000000 0.5961750000000000
0.8786750000000000 0.9407999999999999 0.7211750000000000
0.8713250000000001 0.4408000000000000 0.6538250000000000
0.8713250000000001 0.0592000000000000 0.7788250000000000
0.8786750000000000 0.5592000000000000 0.8461750000000000
0.8786750000000000 0.9408000000000001 0.9711749999999999
0.8713250000000001 0.4408000000000000 0.9038250000000000
0.1681000000000001 0.0502000000000000 0.0255250000000000
0.0819000000000000 0.5502000000000001 0.0994750000000000
0.0819000000000000 0.9498000000000001 0.2244750000000000
0.1681000000000000 0.4498000000000000 0.1505250000000000
0.1681000000000000 0.0502000000000000 0.2755250000000000
0.0819000000000000 0.5502000000000001 0.3494749999999999
0.0819000000000000 0.9498000000000001 0.4744750000000000
0.1681000000000000 0.4498000000000000 0.4005250000000000
0.1681000000000000 0.0502000000000000 0.5255250000000000
0.0818999999999999 0.5502000000000000 0.5994749999999999
0.0819000000000000 0.9498000000000001 0.7244750000000000
0.1681000000000000 0.4498000000000000 0.6505250000000000
0.1681000000000000 0.0502000000000000 0.7755249999999999
0.0819000000000000 0.5502000000000000 0.8494750000000000
0.0818999999999999 0.9498000000000001 0.9744749999999999
0.1681000000000000 0.4498000000000000 0.9005250000000000
0.4181000000000001 0.0502000000000000 0.0255250000000000
0.3319000000000000 0.5502000000000001 0.0994750000000000
0.3319000000000000 0.9498000000000001 0.2244750000000000
0.4181000000000000 0.4498000000000000 0.1505250000000000
0.4181000000000001 0.0502000000000000 0.2755250000000000
0.3319000000000000 0.5502000000000001 0.3494749999999999
0.3319000000000000 0.9498000000000001 0.4744750000000000
0.4181000000000000 0.4498000000000000 0.4005250000000000
0.4181000000000000 0.0502000000000000 0.5255250000000000
0.3318999999999999 0.5502000000000000 0.5994749999999999
0.3319000000000000 0.9498000000000001 0.7244750000000000
0.4181000000000000 0.4498000000000000 0.6505250000000000
0.4181000000000000 0.0502000000000000 0.7755249999999999
0.3319000000000000 0.5502000000000000 0.8494750000000000
0.3319000000000000 0.9498000000000001 0.9744749999999999
0.4181000000000000 0.4498000000000000 0.9005250000000000
0.6680999999999999 0.0502000000000000 0.0255250000000000
0.5819000000000001 0.5502000000000001 0.0994750000000000
0.5819000000000000 0.9498000000000001 0.2244750000000000
0.6681000000000001 0.4498000000000000 0.1505250000000000
0.6681000000000001 0.0502000000000000 0.2755250000000000
0.5818999999999999 0.5502000000000001 0.3494749999999999
0.5818999999999999 0.9498000000000001 0.4744750000000000
0.6681000000000000 0.4498000000000000 0.4005250000000000
0.6681000000000000 0.0502000000000000 0.5255250000000000
0.5818999999999999 0.5502000000000000 0.5994749999999999
0.5819000000000000 0.9498000000000001 0.7244750000000000
0.6680999999999999 0.4498000000000000 0.6505250000000000
0.6681000000000000 0.0502000000000000 0.7755249999999999
0.5818999999999999 0.5502000000000000 0.8494750000000000
0.5818999999999999 0.9498000000000001 0.9744749999999999
0.6681000000000000 0.4498000000000000 0.9005250000000000
0.9180999999999999 0.0502000000000000 0.0255250000000000
0.8319000000000001 0.5502000000000001 0.0994750000000000
0.8319000000000000 0.9498000000000001 0.2244750000000000
0.9181000000000001 0.4498000000000000 0.1505250000000000
0.9181000000000001 0.0502000000000000 0.2755250000000000
0.8319000000000000 0.5502000000000001 0.3494749999999999
0.8319000000000001 0.9498000000000001 0.4744750000000000
0.9181000000000000 0.4498000000000000 0.4005250000000000
0.9181000000000000 0.0502000000000000 0.5255250000000000
0.8318999999999999 0.5502000000000000 0.5994749999999999
0.8319000000000001 0.9498000000000001 0.7244750000000000
0.9180999999999999 0.4498000000000000 0.6505250000000000
0.9180999999999999 0.0502000000000000 0.7755249999999999
0.8318999999999999 0.5502000000000000 0.8494750000000000
0.8318999999999999 0.9498000000000001 0.9744749999999999
0.9180999999999999 0.4498000000000000 0.9005250000000000
