 Entering Gaussian System
 *********************************************
 Gaussian 98:
 frequency output generated by the xtb code
 *********************************************
                         Standard orientation:
 --------------------------------------------------------------------
  Center     Atomic     Atomic              Coordinates (Angstroms)
  Number     Number      Type              X           Y           Z
 --------------------------------------------------------------------
    1          8             0        2.572787    0.820396    0.617507
    2          7             0        1.942576   -0.099215    0.083043
    3          8             0        2.519212   -1.080314   -0.400113
    4          6             0        0.570981   -0.029173    0.024428
    5          7             0       -0.126636    1.012680    0.531356
    6          6             0       -1.388889    0.689309    0.270536
    7          6             0       -1.423700   -0.545708   -0.390680
    8          7             0       -0.183280   -0.996884   -0.544545
    9          1             0       -2.207284    1.329267    0.554632
   10          1             0       -2.275768   -1.100359   -0.746165
 --------------------------------------------------------------------
     1 basis functions        1 primitive gaussians
     1 alpha electrons        1 beta electrons

 Harmonic frequencies (cm**-1), IR intensities (km*mol⁻¹),
 Raman scattering activities (A**4/amu), Raman depolarization ratios,
 reduced masses (AMU), force constants (mDyne/A) and normal coordinates:
                      1                      2                      3
                        a                      a                      a 
 Frequencies --    83.4487               199.9438               206.5407
 Red. masses --    14.4671                12.0890                13.9236
 Frc consts  --     0.0000                 0.0000                 0.0000
 IR Inten    --     0.0045                 1.5126                 0.1555
 Raman Activ --     0.0000                 0.0000                 0.0000
 Depolar     --     0.0000                 0.0000                 0.0000
 Atom AN      X      Y      Z        X      Y      Z        X      Y      Z
   1   8     0.03   0.25  -0.48    -0.01  -0.13   0.24     0.46  -0.16  -0.05
   2   7    -0.00   0.00   0.00     0.01   0.06  -0.10     0.00   0.09   0.05
   3   8    -0.03  -0.25   0.48    -0.02  -0.13   0.24    -0.47  -0.11  -0.09
   4   6    -0.00   0.00   0.00     0.04   0.27  -0.50     0.01   0.28   0.15
   5   7    -0.02  -0.17   0.33     0.02   0.15  -0.29    -0.29   0.16   0.07
   6   6    -0.01  -0.11   0.20    -0.02  -0.15   0.28    -0.18  -0.15  -0.10
   7   6     0.01   0.11  -0.20    -0.02  -0.15   0.28     0.17  -0.17  -0.08
   8   7     0.02   0.17  -0.33     0.02   0.15  -0.29     0.30   0.13   0.09
   9   1    -0.01  -0.06   0.12    -0.01  -0.10   0.19    -0.10  -0.09  -0.06
  10   1     0.01   0.06  -0.12    -0.01  -0.10   0.19     0.10  -0.11  -0.05
                      4                      5                      6
                        a                      a                      a 
 Frequencies --   461.7783               554.2505               621.3566
 Red. masses --    14.5695                14.4346                10.7131
 Frc consts  --     0.0000                 0.0000                 0.0000
 IR Inten    --     1.1529                 3.4227                 0.0002
 Raman Activ --     0.0000                 0.0000                 0.0000
 Depolar     --     0.0000                 0.0000                 0.0000
 Atom AN      X      Y      Z        X      Y      Z        X      Y      Z
   1   8    -0.51   0.16   0.05    -0.44  -0.16  -0.11     0.00   0.01  -0.01
   2   7    -0.19   0.01  -0.01    -0.01  -0.33  -0.18     0.00  -0.00  -0.00
   3   8    -0.51  -0.10  -0.09     0.43  -0.20  -0.08    -0.00  -0.01   0.01
   4   6     0.07  -0.00   0.00     0.01   0.23   0.12    -0.00   0.00   0.00
   5   7     0.30   0.03   0.04    -0.21   0.28   0.13    -0.02  -0.19   0.35
   6   6     0.31  -0.00   0.02    -0.13   0.01  -0.01     0.03   0.24  -0.44
   7   6     0.31  -0.03   0.01     0.13  -0.01   0.01    -0.03  -0.24   0.44
   8   7     0.30  -0.06  -0.01     0.22   0.25   0.15     0.02   0.19  -0.35
   9   1     0.08  -0.01  -0.00    -0.09  -0.05  -0.03     0.02   0.14  -0.26
  10   1     0.08   0.01   0.01     0.08  -0.06  -0.02    -0.02  -0.14   0.26
                      7                      8                      9
                        a                      a                      a 
 Frequencies --   638.1596               725.1247               789.0690
 Red. masses --    13.5287                13.3493                14.9241
 Frc consts  --     0.0000                 0.0000                 0.0000
 IR Inten    --    58.5278                10.3442                28.4815
 Raman Activ --     0.0000                 0.0000                 0.0000
 Depolar     --     0.0000                 0.0000                 0.0000
 Atom AN      X      Y      Z        X      Y      Z        X      Y      Z
   1   8     0.01   0.07  -0.14    -0.01  -0.10   0.19    -0.08   0.48   0.25
   2   7    -0.03  -0.23   0.43     0.05   0.34  -0.65     0.48  -0.02   0.02
   3   8     0.01   0.07  -0.14    -0.01  -0.10   0.19    -0.11  -0.47  -0.26
   4   6    -0.03  -0.22   0.41    -0.03  -0.26   0.48     0.23  -0.01   0.01
   5   7     0.03   0.22  -0.41     0.01   0.07  -0.14    -0.11  -0.12  -0.07
   6   6    -0.01  -0.09   0.16    -0.00  -0.03   0.06    -0.15  -0.00  -0.01
   7   6    -0.01  -0.09   0.17    -0.00  -0.03   0.06    -0.15   0.02  -0.00
   8   7     0.03   0.22  -0.41     0.01   0.07  -0.14    -0.10   0.14   0.07
   9   1     0.00   0.01  -0.01     0.01   0.04  -0.08    -0.00   0.04   0.02
  10   1     0.00   0.01  -0.01     0.01   0.04  -0.08    -0.00  -0.04  -0.02
                     10                     11                     12
                        a                      a                      a 
 Frequencies --   804.6914               808.1093               917.6207
 Red. masses --     3.8287                 3.0703                12.0153
 Frc consts  --     0.0000                 0.0000                 0.0000
 IR Inten    --     0.0023                 1.6066                16.4407
 Raman Activ --     0.0000                 0.0000                 0.0000
 Depolar     --     0.0000                 0.0000                 0.0000
 Atom AN      X      Y      Z        X      Y      Z        X      Y      Z
   1   8    -0.00  -0.00   0.00     0.00   0.00  -0.00     0.01  -0.01  -0.00
   2   7     0.00  -0.00   0.00    -0.00  -0.02   0.03     0.00   0.01   0.01
   3   8     0.00   0.00  -0.00     0.00   0.00  -0.00    -0.01  -0.01  -0.00
   4   6     0.00  -0.00   0.00     0.01   0.11  -0.20    -0.01  -0.18  -0.10
   5   7    -0.00  -0.00   0.00    -0.00  -0.01   0.02    -0.24  -0.23  -0.14
   6   6     0.02   0.17  -0.32    -0.02  -0.12   0.23    -0.41   0.36   0.16
   7   6    -0.02  -0.17   0.32    -0.02  -0.12   0.23     0.43   0.31   0.20
   8   7    -0.00   0.00  -0.00    -0.00  -0.01   0.02     0.23  -0.25  -0.12
   9   1    -0.04  -0.29   0.54     0.04   0.30  -0.56    -0.12   0.09   0.04
  10   1     0.04   0.29  -0.54     0.04   0.30  -0.56     0.12   0.08   0.05
                     13                     14                     15
                        a                      a                      a 
 Frequencies --   976.2721              1091.5485              1129.6417
 Red. masses --     8.9431                 7.9358                 3.4374
 Frc consts  --     0.0000                 0.0000                 0.0000
 IR Inten    --     7.4428               131.2762                 6.4003
 Raman Activ --     0.0000                 0.0000                 0.0000
 Depolar     --     0.0000                 0.0000                 0.0000
 Atom AN      X      Y      Z        X      Y      Z        X      Y      Z
   1   8     0.07   0.16   0.09     0.09   0.12   0.07     0.02   0.01   0.01
   2   7     0.09  -0.00   0.00    -0.07   0.00  -0.00     0.00   0.01   0.01
   3   8     0.06  -0.16  -0.08     0.08  -0.13  -0.06    -0.02   0.02   0.01
   4   6    -0.15   0.01  -0.01    -0.16   0.01  -0.01    -0.01  -0.19  -0.10
   5   7    -0.06   0.43   0.22    -0.08   0.31   0.16     0.23   0.07   0.05
   6   6     0.10  -0.03  -0.01     0.05   0.29   0.16    -0.01   0.10   0.05
   7   6     0.10   0.02   0.02     0.03  -0.30  -0.16     0.02   0.10   0.06
   8   7    -0.08  -0.42  -0.23    -0.10  -0.30  -0.17    -0.22   0.10   0.04
   9   1    -0.27  -0.30  -0.18     0.26   0.34   0.20    -0.43  -0.40  -0.24
  10   1    -0.25   0.33   0.16     0.24  -0.36  -0.18     0.40  -0.44  -0.21
                     16                     17                     18
                        a                      a                      a 
 Frequencies --  1290.8148              1291.7662              1352.2836
 Red. masses --    12.8719                13.8880                12.7246
 Frc consts  --     0.0000                 0.0000                 0.0000
 IR Inten    --   250.3993               225.9893                18.3232
 Raman Activ --     0.0000                 0.0000                 0.0000
 Depolar     --     0.0000                 0.0000                 0.0000
 Atom AN      X      Y      Z        X      Y      Z        X      Y      Z
   1   8    -0.02  -0.05  -0.03     0.25   0.28   0.17    -0.04  -0.01  -0.01
   2   7    -0.14   0.01  -0.01    -0.46   0.02  -0.02    -0.01  -0.04  -0.02
   3   8    -0.02   0.05   0.02     0.23  -0.31  -0.15     0.04  -0.01  -0.01
   4   6     0.51  -0.03   0.02    -0.43   0.02  -0.02     0.02   0.63   0.34
   5   7    -0.48  -0.01  -0.04    -0.04  -0.21  -0.11     0.35  -0.25  -0.11
   6   6     0.35   0.03   0.04     0.20  -0.14  -0.06    -0.22  -0.01  -0.02
   7   6     0.34  -0.06  -0.01     0.21   0.12   0.08     0.22  -0.05  -0.01
   8   7    -0.48   0.06   0.00    -0.03   0.21   0.11    -0.36  -0.21  -0.13
   9   1     0.04  -0.06  -0.03     0.07  -0.04  -0.02    -0.06  -0.01  -0.01
  10   1     0.05   0.05   0.03     0.07   0.03   0.02     0.05  -0.00   0.00
                     19                     20                     21
                        a                      a                      a 
 Frequencies --  1353.1721              1471.6970              1481.8976
 Red. masses --    10.3728                11.8881                12.9402
 Frc consts  --     0.0000                 0.0000                 0.0000
 IR Inten    --   196.4991               133.5814               377.2504
 Raman Activ --     0.0000                 0.0000                 0.0000
 Depolar     --     0.0000                 0.0000                 0.0000
 Atom AN      X      Y      Z        X      Y      Z        X      Y      Z
   1   8     0.07   0.06   0.04     0.03   0.03   0.02     0.11   0.11   0.07
   2   7    -0.26   0.01  -0.01    -0.00  -0.01  -0.01    -0.53   0.03  -0.02
   3   8     0.07  -0.07  -0.03    -0.03   0.03   0.01     0.10  -0.12  -0.06
   4   6     0.15  -0.02  -0.00    -0.01  -0.31  -0.17     0.56  -0.03   0.03
   5   7     0.11  -0.15  -0.07     0.30   0.24   0.15     0.13   0.16   0.09
   6   6    -0.05   0.49   0.26    -0.44  -0.17  -0.12    -0.26  -0.18  -0.11
   7   6    -0.09  -0.48  -0.26     0.43  -0.21  -0.08    -0.26   0.20   0.09
   8   7     0.14   0.15   0.09    -0.28   0.26   0.12     0.12  -0.18  -0.08
   9   1    -0.27  -0.11  -0.08     0.07   0.15   0.09     0.02   0.05   0.03
  10   1    -0.27   0.14   0.06    -0.06   0.16   0.08     0.02  -0.05  -0.03
                     22                     23                     24
                        a                      a                      a 
 Frequencies --  1539.1187              3080.0558              3097.6124
 Red. masses --    14.6838                 1.7795                 1.9228
 Frc consts  --     0.0000                 0.0000                 0.0000
 IR Inten    --   396.6612                87.6510               195.2377
 Raman Activ --     0.0000                 0.0000                 0.0000
 Depolar     --     0.0000                 0.0000                 0.0000
 Atom AN      X      Y      Z        X      Y      Z        X      Y      Z
   1   8     0.20   0.31   0.18     0.00  -0.00  -0.00    -0.00  -0.00  -0.00
   2   7    -0.02  -0.71  -0.38     0.00   0.00   0.00     0.00  -0.00   0.00
   3   8    -0.18   0.33   0.16    -0.00  -0.00  -0.00    -0.00   0.00   0.00
   4   6     0.00   0.01   0.01    -0.00  -0.00  -0.00     0.00  -0.00   0.00
   5   7    -0.03  -0.00  -0.00     0.00   0.01   0.00     0.00   0.01   0.00
   6   6     0.01   0.01   0.01    -0.14   0.11   0.05    -0.15   0.12   0.05
   7   6    -0.01   0.01   0.01     0.15   0.10   0.06    -0.16  -0.11  -0.07
   8   7     0.03  -0.00  -0.00    -0.00   0.01   0.00     0.00  -0.01  -0.00
   9   1    -0.00  -0.00  -0.00     0.52  -0.40  -0.18     0.51  -0.40  -0.18
  10   1     0.00  -0.00  -0.00    -0.54  -0.35  -0.22     0.54   0.35   0.22
