10
 energy: -24.491516827252 gnorm: 0.000188358878 xtb: 6.7.1 (edcfbbe)
O            2.57278701874242        0.82039616312891        0.61750717369814
N            1.94257614822698       -0.09921542829689        0.08304305641185
O            2.51921208999885       -1.08031406793156       -0.40011279247043
C            0.57098057989206       -0.02917280338235        0.02442827690516
N           -0.12663639195644        1.01268038438856        0.53135561101833
C           -1.38888853688864        0.68930924876619        0.27053605297040
C           -1.42369973767456       -0.54570774037224       -0.39067957441270
N           -0.18327957648396       -0.99688362615977       -0.54454455108234
H           -2.20728410527882        1.32926667510201        0.55463195184788
H           -2.27576748857785       -1.10035880524284       -0.74616519488628
