# Co-MOF-10_CUK-1Co_680mpa
1.000000
 39.2021999999999977   0.0000000000000000         0.0000000000
  0.0000000000000017  27.6054000000000030         0.0000000000
 -5.4273479023881324   0.0000000000000024        32.6601218422
Co Co O H O O O O N C C C C C H C H C H 
18 18 18 18 18 18 18 18 18 18 18 18 18 18 18 18 18 18 18 
Direct
0.0000000000000000 0.1200333333333333 0.0833333333333333
0.0000000000000000 0.1200333333333333 0.4166666666666666
0.0000000000000000 0.1200333333333333 0.7499999999999999
0.0000000000000000 0.4533666666666667 0.0833333333333333
0.0000000000000000 0.4533666666666667 0.4166666666666666
0.0000000000000000 0.4533666666666667 0.7499999999999999
0.0000000000000000 0.7867000000000001 0.0833333333333333
0.0000000000000000 0.7867000000000001 0.4166666666666666
0.0000000000000000 0.7867000000000000 0.7499999999999999
0.4999999999999999 0.1200333333333333 0.0833333333333333
0.5000000000000000 0.1200333333333333 0.4166666666666666
0.5000000000000000 0.1200333333333333 0.7499999999999999
0.4999999999999999 0.4533666666666667 0.0833333333333333
0.5000000000000000 0.4533666666666667 0.4166666666666666
0.5000000000000000 0.4533666666666667 0.7499999999999999
0.4999999999999999 0.7867000000000001 0.0833333333333333
0.4999999999999999 0.7867000000000001 0.4166666666666666
0.4999999999999999 0.7867000000000000 0.7499999999999999
0.4614199999999999 0.1511666666666666 0.1569733333333333
0.4614200000000000 0.1511666666666666 0.4903066666666667
0.4614200000000001 0.1511666666666666 0.8236400000000000
0.4614199999999999 0.4844999999999999 0.1569733333333333
0.4614200000000000 0.4844999999999999 0.4903066666666667
0.4614200000000001 0.4844999999999999 0.8236400000000000
0.4614199999999999 0.8178333333333332 0.1569733333333333
0.4614199999999999 0.8178333333333332 0.4903066666666667
0.4614199999999999 0.8178333333333332 0.8236400000000000
0.9614199999999999 0.1511666666666666 0.1569733333333333
0.9614200000000001 0.1511666666666666 0.4903066666666667
0.9614200000000001 0.1511666666666666 0.8236400000000000
0.9614199999999999 0.4844999999999999 0.1569733333333333
0.9614200000000001 0.4844999999999999 0.4903066666666667
0.9614200000000001 0.4844999999999999 0.8236400000000000
0.9614199999999999 0.8178333333333332 0.1569733333333333
0.9614200000000001 0.8178333333333332 0.4903066666666667
0.9614200000000001 0.8178333333333332 0.8236400000000000
0.4897500000000001 0.2073000000000000 0.1859000000000000
0.4897500000000000 0.2073000000000000 0.5192333333333333
0.4897500000000001 0.2073000000000000 0.8525666666666666
0.4897500000000001 0.5406333333333334 0.1859000000000000
0.4897500000000000 0.5406333333333334 0.5192333333333333
0.4897500000000001 0.5406333333333333 0.8525666666666666
0.4897500000000000 0.8739666666666666 0.1859000000000000
0.4897499999999999 0.8739666666666666 0.5192333333333333
0.4897500000000000 0.8739666666666666 0.8525666666666666
0.9897500000000000 0.2073000000000000 0.1859000000000000
0.9897500000000001 0.2073000000000000 0.5192333333333333
0.9897499999999999 0.2073000000000000 0.8525666666666666
0.9897500000000000 0.5406333333333334 0.1859000000000000
0.9897500000000001 0.5406333333333334 0.5192333333333333
0.9897499999999999 0.5406333333333333 0.8525666666666666
0.9897500000000000 0.8739666666666666 0.1859000000000000
0.9897500000000001 0.8739666666666666 0.5192333333333333
0.9897499999999999 0.8739666666666666 0.8525666666666666
0.4859999999999999 0.2266666666666666 0.1776666666666667
0.4860000000000000 0.2266666666666666 0.5110000000000000
0.4860000000000000 0.2266666666666666 0.8443333333333333
0.4859999999999999 0.5599999999999999 0.1776666666666667
0.4860000000000000 0.5600000000000001 0.5110000000000000
0.4860000000000000 0.5599999999999999 0.8443333333333333
0.4859999999999999 0.8933333333333333 0.1776666666666667
0.4859999999999999 0.8933333333333333 0.5110000000000000
0.4859999999999999 0.8933333333333333 0.8443333333333333
0.9860000000000001 0.2266666666666666 0.1776666666666667
0.9860000000000001 0.2266666666666666 0.5110000000000000
0.9860000000000001 0.2266666666666666 0.8443333333333333
0.9860000000000001 0.5599999999999999 0.1776666666666667
0.9860000000000001 0.5600000000000001 0.5110000000000000
0.9860000000000001 0.5599999999999999 0.8443333333333333
0.9860000000000001 0.8933333333333333 0.1776666666666667
0.9860000000000001 0.8933333333333333 0.5110000000000000
0.9860000000000001 0.8933333333333333 0.8443333333333333
0.2836000000000000 0.0093333333333333 0.0698000000000000
0.2836000000000000 0.0093333333333333 0.4031333333333333
0.2836000000000000 0.0093333333333333 0.7364666666666667
0.2836000000000000 0.3426666666666667 0.0698000000000000
0.2836000000000000 0.3426666666666667 0.4031333333333333
0.2836000000000000 0.3426666666666667 0.7364666666666667
0.2836000000000000 0.6760000000000000 0.0698000000000000
0.2836000000000001 0.6760000000000000 0.4031333333333333
0.2836000000000001 0.6759999999999999 0.7364666666666667
0.7836000000000001 0.0093333333333333 0.0698000000000000
0.7836000000000001 0.0093333333333333 0.4031333333333333
0.7836000000000001 0.0093333333333333 0.7364666666666667
0.7836000000000001 0.3426666666666667 0.0698000000000000
0.7836000000000001 0.3426666666666667 0.4031333333333333
0.7836000000000001 0.3426666666666667 0.7364666666666667
0.7836000000000001 0.6760000000000000 0.0698000000000000
0.7836000000000001 0.6760000000000000 0.4031333333333333
0.7836000000000001 0.6759999999999999 0.7364666666666667
0.3099999999999999 0.0437333333333333 0.1268000000000000
0.3099999999999999 0.0437333333333333 0.4601333333333333
0.3100000000000000 0.0437333333333333 0.7934666666666665
0.3099999999999999 0.3770666666666667 0.1268000000000000
0.3099999999999999 0.3770666666666667 0.4601333333333333
0.3099999999999999 0.3770666666666667 0.7934666666666665
0.3099999999999999 0.7104000000000000 0.1268000000000000
0.3100000000000000 0.7104000000000000 0.4601333333333333
0.3100000000000000 0.7104000000000000 0.7934666666666665
0.8100000000000001 0.0437333333333333 0.1268000000000000
0.8100000000000001 0.0437333333333333 0.4601333333333333
0.8100000000000002 0.0437333333333333 0.7934666666666665
0.8100000000000001 0.3770666666666667 0.1268000000000000
0.8100000000000001 0.3770666666666667 0.4601333333333333
0.8100000000000002 0.3770666666666667 0.7934666666666665
0.8100000000000001 0.7104000000000000 0.1268000000000000
0.8100000000000001 0.7104000000000000 0.4601333333333333
0.8100000000000002 0.7104000000000000 0.7934666666666665
0.4342000000000000 0.0910666666666667 0.1298333333333333
0.4341999999999999 0.0910666666666666 0.4631666666666667
0.4341999999999999 0.0910666666666667 0.7965000000000000
0.4342000000000000 0.4244000000000000 0.1298333333333333
0.4341999999999999 0.4244000000000000 0.4631666666666667
0.4341999999999999 0.4244000000000000 0.7965000000000000
0.4341999999999999 0.7577333333333333 0.1298333333333333
0.4341999999999998 0.7577333333333333 0.4631666666666667
0.4341999999999999 0.7577333333333333 0.7965000000000000
0.9341999999999999 0.0910666666666667 0.1298333333333333
0.9341999999999999 0.0910666666666666 0.4631666666666667
0.9341999999999998 0.0910666666666667 0.7965000000000000
0.9341999999999999 0.4244000000000000 0.1298333333333333
0.9341999999999999 0.4244000000000000 0.4631666666666667
0.9341999999999998 0.4244000000000000 0.7965000000000000
0.9341999999999999 0.7577333333333333 0.1298333333333333
0.9341999999999999 0.7577333333333333 0.4631666666666667
0.9341999999999998 0.7577333333333333 0.7965000000000000
0.4600000000000001 0.0689000000000000 0.0772000000000000
0.4600000000000000 0.0689000000000000 0.4105333333333334
0.4600000000000000 0.0689000000000000 0.7438666666666666
0.4600000000000001 0.4022333333333333 0.0772000000000000
0.4600000000000000 0.4022333333333334 0.4105333333333334
0.4600000000000000 0.4022333333333334 0.7438666666666666
0.4600000000000000 0.7355666666666667 0.0772000000000000
0.4599999999999999 0.7355666666666667 0.4105333333333334
0.4600000000000000 0.7355666666666666 0.7438666666666666
0.9599999999999999 0.0689000000000000 0.0772000000000000
0.9599999999999999 0.0689000000000000 0.4105333333333334
0.9600000000000000 0.0689000000000000 0.7438666666666666
0.9599999999999999 0.4022333333333333 0.0772000000000000
0.9599999999999999 0.4022333333333334 0.4105333333333334
0.9600000000000000 0.4022333333333334 0.7438666666666666
0.9599999999999999 0.7355666666666667 0.0772000000000000
0.9599999999999999 0.7355666666666667 0.4105333333333334
0.9600000000000000 0.7355666666666666 0.7438666666666666
0.3366500000000001 0.0209666666666667 0.0316333333333333
0.3366500000000000 0.0209666666666667 0.3649666666666667
0.3366500000000000 0.0209666666666667 0.6982999999999999
0.3366500000000001 0.3543000000000000 0.0316333333333333
0.3366500000000000 0.3542999999999999 0.3649666666666667
0.3366500000000000 0.3543000000000000 0.6982999999999999
0.3366500000000001 0.6876333333333333 0.0316333333333333
0.3366500000000000 0.6876333333333333 0.3649666666666667
0.3366500000000000 0.6876333333333332 0.6982999999999999
0.8366499999999999 0.0209666666666667 0.0316333333333333
0.8366500000000000 0.0209666666666667 0.3649666666666667
0.8366500000000000 0.0209666666666667 0.6982999999999999
0.8366499999999999 0.3543000000000000 0.0316333333333333
0.8366500000000000 0.3542999999999999 0.3649666666666667
0.8366500000000000 0.3543000000000000 0.6982999999999999
0.8366499999999999 0.6876333333333333 0.0316333333333333
0.8366500000000000 0.6876333333333333 0.3649666666666667
0.8366500000000000 0.6876333333333332 0.6982999999999999
0.3087500000000000 0.0299000000000000 0.0904666666666667
0.3087500000000001 0.0299000000000000 0.4238000000000000
0.3087500000000001 0.0299000000000000 0.7571333333333333
0.3087500000000000 0.3632333333333334 0.0904666666666667
0.3087500000000001 0.3632333333333334 0.4238000000000000
0.3087500000000000 0.3632333333333334 0.7571333333333333
0.3087500000000000 0.6965666666666667 0.0904666666666667
0.3087500000000001 0.6965666666666667 0.4238000000000000
0.3087500000000001 0.6965666666666667 0.7571333333333333
0.8087500000000001 0.0299000000000000 0.0904666666666667
0.8087500000000001 0.0299000000000000 0.4238000000000000
0.8087500000000002 0.0299000000000000 0.7571333333333333
0.8087500000000001 0.3632333333333334 0.0904666666666667
0.8087500000000001 0.3632333333333334 0.4238000000000000
0.8087500000000002 0.3632333333333334 0.7571333333333333
0.8087500000000001 0.6965666666666667 0.0904666666666667
0.8087500000000001 0.6965666666666667 0.4238000000000000
0.8087500000000002 0.6965666666666667 0.7571333333333333
0.3397000000000000 0.0383666666666667 0.0704666666666666
0.3397000000000000 0.0383666666666667 0.4038000000000000
0.3397000000000000 0.0383666666666667 0.7371333333333333
0.3397000000000000 0.3717000000000000 0.0704666666666666
0.3397000000000000 0.3717000000000000 0.4038000000000000
0.3397000000000000 0.3717000000000000 0.7371333333333333
0.3397000000000000 0.7050333333333333 0.0704666666666666
0.3397000000000000 0.7050333333333333 0.4038000000000000
0.3397000000000000 0.7050333333333332 0.7371333333333333
0.8397000000000001 0.0383666666666667 0.0704666666666666
0.8397000000000000 0.0383666666666667 0.4038000000000000
0.8397000000000000 0.0383666666666667 0.7371333333333333
0.8397000000000001 0.3717000000000000 0.0704666666666666
0.8397000000000000 0.3717000000000000 0.4038000000000000
0.8397000000000000 0.3717000000000000 0.7371333333333333
0.8397000000000001 0.7050333333333333 0.0704666666666666
0.8397000000000000 0.7050333333333333 0.4038000000000000
0.8397000000000000 0.7050333333333332 0.7371333333333333
0.4341000000000000 0.0741000000000000 0.0954000000000000
0.4341000000000000 0.0741000000000000 0.4287333333333334
0.4341000000000000 0.0741000000000000 0.7620666666666667
0.4341000000000000 0.4074333333333333 0.0954000000000000
0.4341000000000000 0.4074333333333333 0.4287333333333334
0.4341000000000000 0.4074333333333333 0.7620666666666667
0.4340999999999999 0.7407666666666667 0.0954000000000000
0.4341000000000000 0.7407666666666667 0.4287333333333334
0.4340999999999999 0.7407666666666667 0.7620666666666667
0.9340999999999999 0.0741000000000000 0.0954000000000000
0.9340999999999999 0.0741000000000000 0.4287333333333334
0.9340999999999998 0.0741000000000000 0.7620666666666667
0.9340999999999999 0.4074333333333333 0.0954000000000000
0.9340999999999999 0.4074333333333333 0.4287333333333334
0.9340999999999998 0.4074333333333333 0.7620666666666667
0.9340999999999999 0.7407666666666667 0.0954000000000000
0.9340999999999999 0.7407666666666667 0.4287333333333334
0.9340999999999998 0.7407666666666667 0.7620666666666667
0.4001500000000000 0.0538000000000000 0.0725000000000000
0.4001500000000000 0.0538000000000000 0.4058333333333333
0.4001500000000000 0.0538000000000000 0.7391666666666666
0.4001500000000000 0.3871333333333333 0.0725000000000000
0.4001500000000000 0.3871333333333333 0.4058333333333333
0.4001500000000000 0.3871333333333333 0.7391666666666666
0.4001500000000000 0.7204666666666666 0.0725000000000000
0.4001500000000000 0.7204666666666666 0.4058333333333333
0.4001500000000000 0.7204666666666665 0.7391666666666666
0.9001500000000000 0.0538000000000000 0.0725000000000000
0.9001500000000001 0.0538000000000000 0.4058333333333333
0.9001500000000001 0.0538000000000000 0.7391666666666666
0.9001500000000000 0.3871333333333333 0.0725000000000000
0.9001500000000001 0.3871333333333333 0.4058333333333333
0.9001500000000001 0.3871333333333333 0.7391666666666666
0.9001500000000000 0.7204666666666666 0.0725000000000000
0.9001500000000001 0.7204666666666666 0.4058333333333333
0.9001500000000001 0.7204666666666665 0.7391666666666666
0.3711500000000000 0.0540333333333333 0.0914000000000000
0.3711500000000000 0.0540333333333333 0.4247333333333333
0.3711499999999999 0.0540333333333333 0.7580666666666666
0.3711500000000000 0.3873666666666666 0.0914000000000000
0.3711500000000000 0.3873666666666666 0.4247333333333333
0.3711499999999999 0.3873666666666666 0.7580666666666666
0.3711499999999999 0.7207000000000000 0.0914000000000000
0.3711500000000000 0.7207000000000000 0.4247333333333333
0.3711500000000000 0.7207000000000000 0.7580666666666666
0.8711500000000001 0.0540333333333333 0.0914000000000000
0.8711500000000001 0.0540333333333333 0.4247333333333333
0.8711500000000001 0.0540333333333333 0.7580666666666666
0.8711500000000001 0.3873666666666666 0.0914000000000000
0.8711500000000001 0.3873666666666666 0.4247333333333333
0.8711500000000001 0.3873666666666666 0.7580666666666666
0.8711500000000001 0.7207000000000000 0.0914000000000000
0.8711500000000001 0.7207000000000000 0.4247333333333333
0.8711500000000001 0.7207000000000000 0.7580666666666666
0.3728685000000000 0.0647603333333333 0.1182970000000000
0.3728685000000000 0.0647603333333333 0.4516303333333334
0.3728685000000000 0.0647603333333333 0.7849636666666666
0.3728685000000000 0.3980936666666666 0.1182970000000000
0.3728685000000000 0.3980936666666666 0.4516303333333334
0.3728685000000000 0.3980936666666666 0.7849636666666666
0.3728685000000000 0.7314270000000000 0.1182970000000000
0.3728685000000000 0.7314270000000000 0.4516303333333334
0.3728684999999999 0.7314270000000000 0.7849636666666666
0.8728685000000000 0.0647603333333333 0.1182970000000000
0.8728685000000000 0.0647603333333333 0.4516303333333334
0.8728684999999999 0.0647603333333333 0.7849636666666666
0.8728685000000000 0.3980936666666666 0.1182970000000000
0.8728685000000000 0.3980936666666666 0.4516303333333334
0.8728684999999999 0.3980936666666666 0.7849636666666666
0.8728685000000000 0.7314270000000000 0.1182970000000000
0.8728685000000000 0.7314270000000000 0.4516303333333334
0.8728684999999999 0.7314270000000000 0.7849636666666666
0.3646499999999999 0.0219333333333333 0.0139333333333333
0.3646500000000000 0.0219333333333333 0.3472666666666667
0.3646499999999999 0.0219333333333333 0.6805999999999999
0.3646499999999999 0.3552666666666666 0.0139333333333333
0.3646500000000000 0.3552666666666666 0.3472666666666667
0.3646499999999999 0.3552666666666666 0.6805999999999999
0.3646499999999999 0.6886000000000000 0.0139333333333333
0.3646500000000000 0.6886000000000000 0.3472666666666667
0.3646500000000000 0.6885999999999999 0.6805999999999999
0.8646500000000000 0.0219333333333333 0.0139333333333333
0.8646499999999999 0.0219333333333333 0.3472666666666667
0.8646499999999998 0.0219333333333333 0.6805999999999999
0.8646500000000000 0.3552666666666666 0.0139333333333333
0.8646499999999999 0.3552666666666666 0.3472666666666667
0.8646499999999998 0.3552666666666666 0.6805999999999999
0.8646500000000000 0.6886000000000000 0.0139333333333333
0.8646499999999999 0.6886000000000000 0.3472666666666667
0.8646499999999998 0.6885999999999999 0.6805999999999999
0.3624045000000000 0.0113730000000000 0.3202813333333334
0.3624045000000000 0.0113730000000000 0.6536146666666667
0.3624045000000000 0.0113730000000000 0.9869479999999999
0.3624045000000000 0.3447063333333333 0.3202813333333334
0.3624045000000000 0.3447063333333333 0.6536146666666667
0.3624045000000000 0.3447063333333333 0.9869479999999999
0.3624045000000000 0.6780396666666666 0.3202813333333334
0.3624045000000000 0.6780396666666665 0.6536146666666667
0.3624045000000001 0.6780396666666666 0.9869479999999999
0.8624044999999998 0.0113730000000000 0.3202813333333334
0.8624044999999999 0.0113730000000000 0.6536146666666667
0.8624045000000000 0.0113730000000000 0.9869479999999999
0.8624044999999998 0.3447063333333333 0.3202813333333334
0.8624044999999999 0.3447063333333333 0.6536146666666667
0.8624045000000000 0.3447063333333333 0.9869479999999999
0.8624044999999998 0.6780396666666666 0.3202813333333334
0.8624044999999999 0.6780396666666665 0.6536146666666667
0.8624045000000000 0.6780396666666666 0.9869479999999999
0.3971000000000000 0.0375666666666667 0.0328333333333333
0.3971000000000000 0.0375666666666667 0.3661666666666666
0.3971000000000000 0.0375666666666667 0.6995000000000000
0.3971000000000000 0.3709000000000000 0.0328333333333333
0.3971000000000000 0.3709000000000000 0.3661666666666666
0.3971000000000000 0.3709000000000000 0.6995000000000000
0.3971000000000000 0.7042333333333333 0.0328333333333333
0.3971000000000000 0.7042333333333333 0.3661666666666666
0.3971000000000000 0.7042333333333332 0.6995000000000000
0.8971000000000000 0.0375666666666667 0.0328333333333333
0.8971000000000000 0.0375666666666667 0.3661666666666666
0.8971000000000001 0.0375666666666667 0.6995000000000000
0.8971000000000000 0.3709000000000000 0.0328333333333333
0.8971000000000000 0.3709000000000000 0.3661666666666666
0.8971000000000001 0.3709000000000000 0.6995000000000000
0.8971000000000000 0.7042333333333333 0.0328333333333333
0.8971000000000000 0.7042333333333333 0.3661666666666666
0.8971000000000001 0.7042333333333332 0.6995000000000000
0.4160025000000000 0.0370210000000000 0.0191316666666667
0.4160025000000000 0.0370210000000000 0.3524650000000000
0.4160025000000000 0.0370210000000000 0.6857983333333334
0.4160025000000000 0.3703543333333333 0.0191316666666667
0.4160025000000000 0.3703543333333332 0.3524650000000000
0.4160025000000000 0.3703543333333333 0.6857983333333334
0.4160024999999999 0.7036876666666666 0.0191316666666667
0.4160024999999999 0.7036876666666666 0.3524650000000000
0.4160024999999999 0.7036876666666665 0.6857983333333334
0.9160025000000001 0.0370210000000000 0.0191316666666667
0.9160025000000002 0.0370210000000000 0.3524650000000000
0.9160025000000001 0.0370210000000000 0.6857983333333334
0.9160025000000001 0.3703543333333333 0.0191316666666667
0.9160025000000002 0.3703543333333332 0.3524650000000000
0.9160025000000001 0.3703543333333333 0.6857983333333334
0.9160025000000001 0.7036876666666666 0.0191316666666667
0.9160025000000002 0.7036876666666666 0.3524650000000000
0.9160025000000001 0.7036876666666665 0.6857983333333334
