# ZIF-69-crystal
1.000000
 26.0839999999999996   0.0000000000000000         0.0000000000
-13.0419999999999945  22.5894066323132989         0.0000000000
  0.0000000000000024   0.0000000000000041        38.8164000000
Zn N C C H C H N O C H N O C H N C C C H Cl H Cl C H C N C N C H 
48 48 48 48 24 48 48 48 48 48 48 48 48 48 48 48 48 48 48 48 24 24 24 24 24 24 24 24 24 24 24 
Direct
0.4351900000000000 0.3320300000000000 0.2021100000000000
0.6679700000000000 0.1031600000000000 0.2021100000000000
0.8968400000000000 0.5648100000000000 0.2021100000000000
0.5648099999999999 0.6679700000000000 0.4521100000000000
0.3320300000000002 0.8968400000000001 0.4521100000000000
0.1031600000000000 0.4351900000000001 0.4521100000000000
0.3320300000000000 0.4351900000000001 0.2978899999999999
0.1031600000000000 0.6679700000000001 0.2978899999999999
0.5648100000000000 0.8968400000000001 0.2978899999999999
0.6679700000000000 0.5648100000000000 0.0478900000000000
0.8968400000000000 0.3320300000000000 0.0478900000000000
0.4351900000000001 0.1031600000000000 0.0478900000000000
0.5648100000000000 0.6679700000000001 0.2978899999999999
0.3320300000000000 0.8968400000000001 0.2978899999999999
0.1031600000000000 0.4351900000000001 0.2978899999999999
0.4351900000000000 0.3320300000000000 0.0478900000000000
0.6679700000000000 0.1031600000000000 0.0478900000000000
0.8968400000000000 0.5648100000000000 0.0478900000000000
0.6679700000000000 0.5648100000000000 0.2021100000000000
0.8968400000000000 0.3320300000000000 0.2021100000000000
0.4351900000000001 0.1031600000000000 0.2021100000000000
0.3320300000000000 0.4351900000000001 0.4521100000000000
0.1031599999999999 0.6679700000000000 0.4521100000000000
0.5648100000000001 0.8968400000000001 0.4521100000000000
0.4351900000000000 0.3320300000000000 0.7021100000000000
0.6679700000000000 0.1031600000000000 0.7021100000000000
0.8968400000000000 0.5648100000000001 0.7021100000000000
0.5648099999999999 0.6679700000000000 0.9521099999999999
0.3320300000000001 0.8968400000000000 0.9521099999999999
0.1031600000000000 0.4351900000000001 0.9521099999999999
0.3320300000000000 0.4351900000000001 0.7978899999999999
0.1031600000000000 0.6679700000000001 0.7978899999999999
0.5648100000000001 0.8968400000000001 0.7978899999999999
0.6679700000000000 0.5648100000000000 0.5478900000000000
0.8968400000000000 0.3320300000000000 0.5478900000000000
0.4351900000000001 0.1031600000000000 0.5478900000000000
0.5648100000000000 0.6679700000000001 0.7978899999999999
0.3320300000000000 0.8968400000000001 0.7978899999999999
0.1031600000000000 0.4351900000000001 0.7978899999999999
0.4351900000000000 0.3320300000000000 0.5478900000000000
0.6679700000000000 0.1031600000000000 0.5478900000000000
0.8968399999999999 0.5648100000000000 0.5478900000000000
0.6679700000000001 0.5648100000000001 0.7021100000000000
0.8968400000000000 0.3320300000000000 0.7021100000000000
0.4351900000000001 0.1031600000000000 0.7021100000000000
0.3320300000000000 0.4351900000000001 0.9521099999999999
0.1031600000000000 0.6679700000000000 0.9521099999999999
0.5648100000000000 0.8968400000000000 0.9521099999999999
0.3730999999999999 0.3417000000000000 0.2254000000000000
0.6583000000000000 0.0314000000000000 0.2254000000000000
0.9686000000000001 0.6269000000000001 0.2254000000000000
0.6269000000000000 0.6583000000000000 0.4754000000000000
0.3416999999999999 0.9686000000000000 0.4754000000000000
0.0314000000000000 0.3731000000000000 0.4754000000000000
0.3417000000000000 0.3731000000000000 0.2746000000000000
0.0314000000000000 0.6583000000000001 0.2746000000000000
0.6269000000000000 0.9686000000000000 0.2746000000000000
0.6582999999999999 0.6269000000000000 0.0246000000000000
0.9686000000000000 0.3417000000000001 0.0246000000000000
0.3731000000000000 0.0314000000000000 0.0246000000000000
0.6269000000000001 0.6583000000000001 0.2746000000000000
0.3416999999999999 0.9686000000000000 0.2746000000000000
0.0314000000000000 0.3731000000000000 0.2746000000000000
0.3731000000000000 0.3417000000000001 0.0246000000000000
0.6582999999999999 0.0314000000000000 0.0246000000000000
0.9686000000000001 0.6269000000000000 0.0246000000000000
0.6582999999999999 0.6269000000000001 0.2254000000000000
0.9686000000000000 0.3417000000000000 0.2254000000000000
0.3730999999999999 0.0314000000000000 0.2254000000000000
0.3416999999999999 0.3731000000000000 0.4754000000000000
0.0314000000000000 0.6583000000000000 0.4754000000000000
0.6269000000000000 0.9686000000000000 0.4754000000000000
0.3731000000000000 0.3417000000000001 0.7253999999999999
0.6582999999999999 0.0314000000000000 0.7253999999999999
0.9686000000000000 0.6269000000000000 0.7253999999999999
0.6269000000000000 0.6583000000000000 0.9754000000000000
0.3416999999999999 0.9685999999999999 0.9754000000000000
0.0314000000000000 0.3731000000000000 0.9754000000000000
0.3416999999999999 0.3731000000000000 0.7746000000000000
0.0314000000000000 0.6583000000000001 0.7746000000000000
0.6269000000000000 0.9686000000000000 0.7746000000000000
0.6583000000000000 0.6269000000000000 0.5246000000000000
0.9685999999999999 0.3417000000000000 0.5246000000000000
0.3731000000000000 0.0314000000000000 0.5246000000000000
0.6269000000000001 0.6583000000000001 0.7746000000000000
0.3416999999999999 0.9686000000000000 0.7746000000000000
0.0314000000000000 0.3731000000000000 0.7746000000000000
0.3730999999999999 0.3417000000000000 0.5246000000000000
0.6582999999999999 0.0314000000000000 0.5246000000000000
0.9686000000000000 0.6269000000000000 0.5246000000000000
0.6583000000000000 0.6269000000000000 0.7253999999999999
0.9686000000000000 0.3417000000000001 0.7253999999999999
0.3731000000000000 0.0314000000000000 0.7253999999999999
0.3417000000000000 0.3731000000000000 0.9754000000000000
0.0314000000000000 0.6583000000000000 0.9754000000000000
0.6268999999999999 0.9685999999999999 0.9754000000000000
0.3175999999999999 0.2953000000000000 0.2379500000000000
0.7047000000000000 0.0223000000000000 0.2379500000000000
0.9777000000000000 0.6824000000000001 0.2379500000000000
0.6824000000000000 0.7047000000000000 0.4879499999999999
0.2953000000000000 0.9777000000000000 0.4879499999999999
0.0223000000000000 0.3175999999999999 0.4879499999999999
0.2953000000000000 0.3176000000000000 0.2620499999999999
0.0222999999999999 0.7047000000000001 0.2620499999999999
0.6824000000000001 0.9777000000000000 0.2620499999999999
0.7047000000000001 0.6824000000000000 0.0120500000000000
0.9777000000000000 0.2953000000000000 0.0120500000000000
0.3176000000000000 0.0223000000000000 0.0120500000000000
0.6824000000000001 0.7047000000000001 0.2620499999999999
0.2953000000000000 0.9777000000000000 0.2620499999999999
0.0223000000000000 0.3176000000000000 0.2620499999999999
0.3176000000000000 0.2953000000000000 0.0120500000000000
0.7047000000000000 0.0223000000000000 0.0120500000000000
0.9777000000000000 0.6824000000000000 0.0120500000000000
0.7047000000000001 0.6824000000000001 0.2379500000000000
0.9777000000000000 0.2953000000000000 0.2379500000000000
0.3176000000000000 0.0223000000000000 0.2379500000000000
0.2953000000000000 0.3175999999999999 0.4879499999999999
0.0223000000000000 0.7047000000000000 0.4879499999999999
0.6824000000000000 0.9777000000000000 0.4879499999999999
0.3176000000000000 0.2953000000000000 0.7379499999999999
0.7047000000000000 0.0223000000000000 0.7379499999999999
0.9777000000000000 0.6824000000000001 0.7379499999999999
0.6824000000000000 0.7047000000000000 0.9879499999999999
0.2953000000000000 0.9776999999999999 0.9879499999999999
0.0223000000000000 0.3176000000000000 0.9879499999999999
0.2953000000000000 0.3176000000000000 0.7620500000000000
0.0223000000000000 0.7047000000000001 0.7620500000000000
0.6824000000000001 0.9777000000000000 0.7620500000000000
0.7047000000000000 0.6824000000000000 0.5120500000000000
0.9776999999999999 0.2953000000000000 0.5120500000000000
0.3176000000000000 0.0223000000000000 0.5120500000000000
0.6824000000000001 0.7047000000000001 0.7620500000000000
0.2953000000000000 0.9777000000000000 0.7620500000000000
0.0223000000000000 0.3176000000000000 0.7620500000000000
0.3175999999999999 0.2953000000000000 0.5120500000000000
0.7046999999999999 0.0223000000000000 0.5120500000000000
0.9776999999999999 0.6824000000000000 0.5120500000000000
0.7047000000000000 0.6824000000000001 0.7379499999999999
0.9776999999999999 0.2953000000000000 0.7379499999999999
0.3176000000000000 0.0223000000000000 0.7379499999999999
0.2953000000000000 0.3176000000000000 0.9879499999999999
0.0223000000000000 0.7047000000000000 0.9879499999999999
0.6824000000000000 0.9776999999999999 0.9879499999999999
0.2286000000000000 0.2050000000000000 0.2372500000000000
0.7950000000000000 0.0236000000000000 0.2372500000000000
0.9763999999999999 0.7714000000000000 0.2372500000000000
0.7714000000000000 0.7950000000000002 0.4872500000000000
0.2049999999999999 0.9764000000000000 0.4872500000000000
0.0236000000000000 0.2286000000000000 0.4872500000000000
0.2050000000000000 0.2286000000000000 0.2627500000000000
0.0235999999999999 0.7950000000000002 0.2627500000000000
0.7713999999999999 0.9764000000000000 0.2627500000000000
0.7949999999999999 0.7714000000000000 0.0127500000000000
0.9764000000000000 0.2050000000000000 0.0127500000000000
0.2286000000000000 0.0236000000000000 0.0127500000000000
0.7713999999999999 0.7950000000000002 0.2627500000000000
0.2049999999999999 0.9764000000000000 0.2627500000000000
0.0236000000000000 0.2286000000000000 0.2627500000000000
0.2286000000000000 0.2050000000000000 0.0127500000000000
0.7950000000000000 0.0236000000000000 0.0127500000000000
0.9763999999999999 0.7714000000000000 0.0127500000000000
0.7949999999999999 0.7714000000000000 0.2372500000000000
0.9764000000000000 0.2050000000000000 0.2372500000000000
0.2286000000000000 0.0236000000000000 0.2372500000000000
0.2050000000000000 0.2286000000000000 0.4872500000000000
0.0236000000000000 0.7950000000000002 0.4872500000000000
0.7713999999999999 0.9764000000000000 0.4872500000000000
0.2286000000000000 0.2050000000000000 0.7372500000000000
0.7949999999999999 0.0236000000000000 0.7372500000000000
0.9764000000000000 0.7714000000000000 0.7372500000000000
0.7713999999999999 0.7950000000000000 0.9872500000000000
0.2049999999999999 0.9763999999999999 0.9872500000000000
0.0236000000000000 0.2286000000000001 0.9872500000000000
0.2050000000000000 0.2286000000000001 0.7627499999999999
0.0236000000000000 0.7950000000000002 0.7627499999999999
0.7714000000000000 0.9764000000000000 0.7627499999999999
0.7950000000000000 0.7714000000000000 0.5127500000000000
0.9764000000000000 0.2050000000000000 0.5127500000000000
0.2286000000000000 0.0236000000000000 0.5127500000000000
0.7714000000000000 0.7950000000000002 0.7627499999999999
0.2049999999999999 0.9764000000000000 0.7627499999999999
0.0236000000000000 0.2286000000000001 0.7627499999999999
0.2286000000000000 0.2050000000000000 0.5127500000000000
0.7949999999999999 0.0236000000000000 0.5127500000000000
0.9764000000000000 0.7714000000000000 0.5127500000000000
0.7950000000000000 0.7714000000000000 0.7372500000000000
0.9764000000000000 0.2050000000000000 0.7372500000000000
0.2286000000000000 0.0236000000000000 0.7372500000000000
0.2050000000000000 0.2286000000000001 0.9872500000000000
0.0235999999999999 0.7950000000000000 0.9872500000000000
0.7713999999999999 0.9763999999999999 0.9872500000000000
0.2048000000000000 0.1658000000000000 0.2287500000000000
0.8341999999999999 0.0390000000000000 0.2287500000000000
0.9609999999999999 0.7952000000000000 0.2287500000000000
0.7952000000000000 0.8342000000000002 0.4787500000000000
0.1658000000000000 0.9610000000000001 0.4787500000000000
0.0390000000000000 0.2048000000000000 0.4787500000000000
0.7952000000000000 0.8342000000000002 0.2712500000000000
0.1657999999999999 0.9610000000000001 0.2712500000000000
0.0390000000000000 0.2048000000000000 0.2712500000000000
0.2048000000000000 0.1658000000000000 0.0212500000000000
0.8341999999999999 0.0390000000000000 0.0212500000000000
0.9609999999999999 0.7952000000000000 0.0212500000000000
0.2048000000000000 0.1658000000000000 0.7287500000000000
0.8341999999999999 0.0390000000000000 0.7287500000000000
0.9610000000000000 0.7952000000000000 0.7287500000000000
0.7951999999999999 0.8342000000000001 0.9787499999999999
0.1657999999999999 0.9610000000000000 0.9787499999999999
0.0390000000000000 0.2048000000000001 0.9787499999999999
0.7952000000000000 0.8342000000000002 0.7712499999999999
0.1658000000000000 0.9610000000000001 0.7712499999999999
0.0390000000000000 0.2048000000000001 0.7712499999999999
0.2048000000000000 0.1658000000000000 0.5212499999999999
0.8341999999999999 0.0390000000000000 0.5212499999999999
0.9610000000000000 0.7952000000000000 0.5212499999999999
0.2846000000000000 0.2392000000000000 0.2258000000000000
0.7608000000000001 0.0454000000000000 0.2258000000000000
0.9546000000000001 0.7154000000000000 0.2258000000000000
0.7154000000000001 0.7608000000000001 0.4758000000000000
0.2392000000000000 0.9546000000000000 0.4758000000000000
0.0454000000000000 0.2846000000000000 0.4758000000000000
0.2391999999999999 0.2846000000000000 0.2742000000000000
0.0453999999999999 0.7608000000000001 0.2742000000000000
0.7154000000000001 0.9546000000000000 0.2742000000000000
0.7608000000000001 0.7154000000000000 0.0242000000000000
0.9546000000000000 0.2392000000000000 0.0242000000000000
0.2846000000000000 0.0454000000000000 0.0242000000000000
0.7154000000000000 0.7608000000000001 0.2742000000000000
0.2391999999999999 0.9546000000000000 0.2742000000000000
0.0454000000000000 0.2846000000000000 0.2742000000000000
0.2846000000000001 0.2392000000000000 0.0242000000000000
0.7608000000000000 0.0454000000000000 0.0242000000000000
0.9546000000000001 0.7154000000000000 0.0242000000000000
0.7608000000000001 0.7154000000000000 0.2258000000000000
0.9546000000000000 0.2392000000000000 0.2258000000000000
0.2846000000000000 0.0454000000000000 0.2258000000000000
0.2392000000000000 0.2846000000000000 0.4758000000000000
0.0454000000000001 0.7608000000000001 0.4758000000000000
0.7154000000000000 0.9546000000000000 0.4758000000000000
0.2846000000000001 0.2392000000000000 0.7258000000000000
0.7608000000000000 0.0454000000000000 0.7258000000000000
0.9546000000000000 0.7154000000000001 0.7258000000000000
0.7154000000000000 0.7608000000000000 0.9758000000000000
0.2391999999999999 0.9545999999999999 0.9758000000000000
0.0454000000000000 0.2846000000000001 0.9758000000000000
0.2392000000000000 0.2846000000000000 0.7741999999999999
0.0454000000000000 0.7608000000000001 0.7741999999999999
0.7154000000000001 0.9546000000000000 0.7741999999999999
0.7608000000000001 0.7154000000000001 0.5241999999999999
0.9546000000000000 0.2392000000000000 0.5241999999999999
0.2846000000000000 0.0454000000000000 0.5241999999999999
0.7154000000000001 0.7608000000000001 0.7741999999999999
0.2391999999999999 0.9546000000000000 0.7741999999999999
0.0454000000000000 0.2846000000000000 0.7741999999999999
0.2846000000000000 0.2392000000000000 0.5241999999999999
0.7608000000000000 0.0454000000000000 0.5241999999999999
0.9546000000000000 0.7154000000000001 0.5241999999999999
0.7608000000000001 0.7154000000000001 0.7258000000000000
0.9546000000000000 0.2392000000000000 0.7258000000000000
0.2846000000000001 0.0454000000000000 0.7258000000000000
0.2392000000000000 0.2846000000000001 0.9758000000000000
0.0454000000000000 0.7608000000000000 0.9758000000000000
0.7154000000000000 0.9545999999999999 0.9758000000000000
0.3008000000000000 0.2242000000000000 0.2094500000000000
0.7758000000000000 0.0766000000000000 0.2094500000000000
0.9234000000000000 0.6992000000000000 0.2094500000000000
0.6992000000000000 0.7758000000000002 0.4594500000000000
0.2242000000000000 0.9234000000000001 0.4594500000000000
0.0766000000000000 0.3008000000000000 0.4594500000000000
0.2242000000000000 0.3008000000000000 0.2905500000000000
0.0765999999999999 0.7758000000000002 0.2905500000000000
0.6991999999999999 0.9234000000000000 0.2905500000000000
0.7758000000000000 0.6992000000000000 0.0405500000000000
0.9233999999999999 0.2242000000000000 0.0405500000000000
0.3008000000000000 0.0766000000000000 0.0405500000000000
0.6991999999999999 0.7758000000000002 0.2905500000000000
0.2242000000000000 0.9234000000000000 0.2905500000000000
0.0766000000000000 0.3008000000000000 0.2905500000000000
0.3008000000000000 0.2242000000000000 0.0405500000000000
0.7758000000000000 0.0766000000000000 0.0405500000000000
0.9234000000000000 0.6992000000000000 0.0405500000000000
0.7758000000000000 0.6992000000000000 0.2094500000000000
0.9233999999999999 0.2242000000000000 0.2094500000000000
0.3008000000000000 0.0766000000000000 0.2094500000000000
0.2242000000000000 0.3008000000000000 0.4594500000000000
0.0766000000000001 0.7758000000000002 0.4594500000000000
0.6991999999999999 0.9234000000000001 0.4594500000000000
0.3008000000000001 0.2242000000000000 0.7094500000000000
0.7757999999999999 0.0766000000000000 0.7094500000000000
0.9233999999999999 0.6992000000000000 0.7094500000000000
0.6991999999999999 0.7758000000000000 0.9594499999999999
0.2242000000000000 0.9234000000000000 0.9594499999999999
0.0766000000000000 0.3008000000000000 0.9594499999999999
0.2242000000000000 0.3008000000000000 0.7905499999999999
0.0766000000000000 0.7758000000000002 0.7905499999999999
0.6991999999999999 0.9234000000000001 0.7905499999999999
0.7758000000000000 0.6992000000000000 0.5405499999999999
0.9233999999999999 0.2242000000000000 0.5405499999999999
0.3008000000000000 0.0766000000000000 0.5405499999999999
0.6992000000000000 0.7758000000000002 0.7905499999999999
0.2242000000000000 0.9234000000000001 0.7905499999999999
0.0766000000000000 0.3008000000000000 0.7905499999999999
0.3008000000000000 0.2242000000000000 0.5405499999999999
0.7757999999999999 0.0766000000000000 0.5405499999999999
0.9233999999999999 0.6992000000000000 0.5405499999999999
0.7758000000000000 0.6992000000000000 0.7094500000000000
0.9233999999999999 0.2242000000000000 0.7094500000000000
0.3008000000000000 0.0766000000000000 0.7094500000000000
0.2242000000000000 0.3008000000000000 0.9594499999999999
0.0766000000000000 0.7758000000000000 0.9594499999999999
0.6991999999999999 0.9234000000000000 0.9594499999999999
0.5155999999999999 0.3982999999999999 0.2148500000000000
0.6017000000000000 0.1173000000000000 0.2148500000000000
0.8827000000000000 0.4844000000000000 0.2148500000000000
0.4843999999999999 0.6017000000000000 0.4648499999999999
0.3982999999999999 0.8827000000000002 0.4648499999999999
0.1173000000000000 0.5155999999999999 0.4648499999999999
0.3983000000000000 0.5156000000000001 0.2851500000000000
0.1173000000000000 0.6017000000000001 0.2851500000000000
0.4844000000000000 0.8827000000000002 0.2851500000000000
0.6017000000000001 0.4844000000000001 0.0351500000000000
0.8827000000000000 0.3983000000000000 0.0351500000000000
0.5155999999999999 0.1173000000000000 0.0351500000000000
0.4844000000000000 0.6017000000000001 0.2851500000000000
0.3982999999999999 0.8827000000000002 0.2851500000000000
0.1173000000000000 0.5156000000000001 0.2851500000000000
0.5155999999999999 0.3983000000000000 0.0351500000000000
0.6017000000000000 0.1173000000000000 0.0351500000000000
0.8827000000000000 0.4844000000000001 0.0351500000000000
0.6017000000000001 0.4844000000000000 0.2148500000000000
0.8827000000000000 0.3982999999999999 0.2148500000000000
0.5155999999999999 0.1173000000000000 0.2148500000000000
0.3982999999999999 0.5155999999999999 0.4648499999999999
0.1173000000000000 0.6017000000000000 0.4648499999999999
0.4844000000000000 0.8827000000000002 0.4648499999999999
0.5155999999999999 0.3983000000000000 0.7148499999999999
0.6017000000000000 0.1173000000000000 0.7148499999999999
0.8827000000000000 0.4844000000000001 0.7148499999999999
0.4844000000000001 0.6017000000000000 0.9648499999999999
0.3982999999999999 0.8827000000000000 0.9648499999999999
0.1173000000000000 0.5155999999999999 0.9648499999999999
0.3982999999999999 0.5156000000000001 0.7851500000000000
0.1173000000000000 0.6017000000000001 0.7851500000000000
0.4844000000000000 0.8827000000000002 0.7851500000000000
0.6017000000000000 0.4844000000000000 0.5351500000000000
0.8826999999999999 0.3983000000000000 0.5351500000000000
0.5155999999999999 0.1173000000000000 0.5351500000000000
0.4844000000000000 0.6017000000000001 0.7851500000000000
0.3982999999999999 0.8827000000000002 0.7851500000000000
0.1173000000000000 0.5156000000000001 0.7851500000000000
0.5155999999999999 0.3983000000000000 0.5351500000000000
0.6016999999999999 0.1173000000000000 0.5351500000000000
0.8827000000000000 0.4844000000000000 0.5351500000000000
0.6017000000000001 0.4844000000000001 0.7148499999999999
0.8826999999999999 0.3983000000000000 0.7148499999999999
0.5155999999999999 0.1173000000000000 0.7148499999999999
0.3983000000000000 0.5155999999999999 0.9648499999999999
0.1173000000000000 0.6017000000000000 0.9648499999999999
0.4844000000000000 0.8827000000000000 0.9648499999999999
0.4672000000000000 0.4523000000000000 0.1885000000000000
0.5477000000000001 0.0149000000000000 0.1885000000000000
0.9850999999999999 0.5328000000000001 0.1885000000000000
0.5328000000000001 0.5477000000000000 0.4384999999999999
0.4523000000000000 0.9851000000000001 0.4384999999999999
0.0149000000000000 0.4672000000000000 0.4384999999999999
0.4523000000000000 0.4672000000000000 0.3114999999999999
0.0149000000000000 0.5477000000000000 0.3114999999999999
0.5327999999999999 0.9851000000000000 0.3114999999999999
0.5477000000000000 0.5328000000000001 0.0615000000000000
0.9851000000000001 0.4523000000000000 0.0615000000000000
0.4672000000000001 0.0149000000000000 0.0615000000000000
0.5328000000000001 0.5477000000000000 0.3114999999999999
0.4523000000000000 0.9851000000000000 0.3114999999999999
0.0149000000000000 0.4672000000000000 0.3114999999999999
0.4672000000000001 0.4523000000000000 0.0615000000000000
0.5477000000000000 0.0149000000000000 0.0615000000000000
0.9850999999999999 0.5328000000000001 0.0615000000000000
0.5477000000000000 0.5328000000000001 0.1885000000000000
0.9851000000000001 0.4523000000000000 0.1885000000000000
0.4672000000000000 0.0149000000000000 0.1885000000000000
0.4523000000000000 0.4672000000000000 0.4384999999999999
0.0149000000000000 0.5477000000000000 0.4384999999999999
0.5328000000000001 0.9851000000000001 0.4384999999999999
0.4672000000000001 0.4523000000000001 0.6884999999999999
0.5477000000000000 0.0149000000000000 0.6884999999999999
0.9850999999999999 0.5328000000000001 0.6884999999999999
0.5328000000000001 0.5477000000000000 0.9384999999999999
0.4523000000000000 0.9851000000000000 0.9384999999999999
0.0149000000000000 0.4672000000000000 0.9384999999999999
0.4523000000000000 0.4672000000000000 0.8115000000000000
0.0149000000000000 0.5477000000000001 0.8115000000000000
0.5328000000000001 0.9851000000000001 0.8115000000000000
0.5477000000000000 0.5328000000000001 0.5615000000000000
0.9851000000000000 0.4523000000000000 0.5615000000000000
0.4672000000000001 0.0149000000000000 0.5615000000000000
0.5328000000000001 0.5477000000000001 0.8115000000000000
0.4523000000000000 0.9851000000000001 0.8115000000000000
0.0149000000000000 0.4672000000000000 0.8115000000000000
0.4672000000000001 0.4523000000000000 0.5615000000000000
0.5477000000000000 0.0149000000000000 0.5615000000000000
0.9850999999999998 0.5328000000000001 0.5615000000000000
0.5477000000000000 0.5328000000000001 0.6884999999999999
0.9851000000000000 0.4523000000000001 0.6884999999999999
0.4672000000000001 0.0149000000000000 0.6884999999999999
0.4523000000000000 0.4672000000000000 0.9384999999999999
0.0149000000000001 0.5477000000000000 0.9384999999999999
0.5327999999999999 0.9851000000000000 0.9384999999999999
0.5565000000000001 0.3884000000000001 0.2334500000000000
0.6116000000000000 0.1681000000000000 0.2334500000000000
0.8319000000000001 0.4435000000000001 0.2334500000000000
0.4434999999999999 0.6116000000000000 0.4834499999999999
0.3884000000000001 0.8319000000000001 0.4834499999999999
0.1681000000000000 0.5565000000000000 0.4834499999999999
0.3884000000000000 0.5565000000000001 0.2665500000000000
0.1681000000000000 0.6116000000000001 0.2665500000000000
0.4434999999999999 0.8319000000000001 0.2665500000000000
0.6116000000000000 0.4435000000000001 0.0165500000000000
0.8319000000000001 0.3884000000000001 0.0165500000000000
0.5565000000000000 0.1681000000000000 0.0165500000000000
0.4434999999999999 0.6116000000000001 0.2665500000000000
0.3884000000000000 0.8319000000000001 0.2665500000000000
0.1681000000000000 0.5565000000000001 0.2665500000000000
0.5565000000000001 0.3884000000000001 0.0165500000000000
0.6116000000000000 0.1681000000000000 0.0165500000000000
0.8319000000000000 0.4435000000000001 0.0165500000000000
0.6116000000000000 0.4435000000000001 0.2334500000000000
0.8319000000000001 0.3884000000000001 0.2334500000000000
0.5565000000000000 0.1681000000000000 0.2334500000000000
0.3884000000000000 0.5565000000000000 0.4834499999999999
0.1681000000000000 0.6116000000000000 0.4834499999999999
0.4435000000000001 0.8319000000000001 0.4834499999999999
0.5565000000000001 0.3884000000000001 0.7334499999999999
0.6116000000000000 0.1681000000000000 0.7334499999999999
0.8319000000000001 0.4435000000000001 0.7334499999999999
0.4435000000000000 0.6116000000000000 0.9834499999999999
0.3884000000000001 0.8319000000000000 0.9834499999999999
0.1681000000000000 0.5564999999999999 0.9834499999999999
0.3884000000000000 0.5565000000000000 0.7665500000000000
0.1681000000000000 0.6116000000000001 0.7665500000000000
0.4435000000000000 0.8319000000000001 0.7665500000000000
0.6116000000000000 0.4435000000000000 0.5165500000000000
0.8319000000000000 0.3884000000000000 0.5165500000000000
0.5565000000000000 0.1681000000000000 0.5165500000000000
0.4434999999999999 0.6116000000000001 0.7665500000000000
0.3884000000000001 0.8319000000000001 0.7665500000000000
0.1681000000000000 0.5565000000000000 0.7665500000000000
0.5565000000000001 0.3884000000000000 0.5165500000000000
0.6116000000000000 0.1681000000000000 0.5165500000000000
0.8319000000000001 0.4435000000000000 0.5165500000000000
0.6116000000000000 0.4435000000000001 0.7334499999999999
0.8319000000000001 0.3884000000000001 0.7334499999999999
0.5565000000000000 0.1681000000000000 0.7334499999999999
0.3884000000000000 0.5564999999999999 0.9834499999999999
0.1681000000000000 0.6116000000000000 0.9834499999999999
0.4435000000000001 0.8319000000000000 0.9834499999999999
0.5490000000000000 0.3524000000000000 0.2439000000000000
0.6476000000000000 0.1966000000000000 0.2439000000000000
0.8033999999999999 0.4510000000000001 0.2439000000000000
0.4510000000000001 0.6476000000000000 0.4939000000000000
0.3523999999999999 0.8034000000000001 0.4939000000000000
0.1966000000000000 0.5490000000000000 0.4939000000000000
0.3524000000000000 0.5490000000000002 0.2561000000000000
0.1966000000000000 0.6476000000000001 0.2561000000000000
0.4510000000000000 0.8034000000000000 0.2561000000000000
0.6476000000000000 0.4510000000000001 0.0061000000000000
0.8033999999999999 0.3524000000000000 0.0061000000000000
0.5489999999999999 0.1966000000000000 0.0061000000000000
0.4510000000000001 0.6476000000000001 0.2561000000000000
0.3523999999999999 0.8034000000000000 0.2561000000000000
0.1966000000000000 0.5490000000000002 0.2561000000000000
0.5490000000000000 0.3524000000000000 0.0061000000000000
0.6476000000000000 0.1966000000000000 0.0061000000000000
0.8033999999999999 0.4510000000000001 0.0061000000000000
0.6476000000000000 0.4510000000000001 0.2439000000000000
0.8033999999999999 0.3524000000000000 0.2439000000000000
0.5490000000000000 0.1966000000000000 0.2439000000000000
0.3524000000000000 0.5490000000000000 0.4939000000000000
0.1966000000000000 0.6476000000000000 0.4939000000000000
0.4510000000000000 0.8034000000000001 0.4939000000000000
0.5490000000000000 0.3524000000000000 0.7439000000000000
0.6476000000000000 0.1966000000000000 0.7439000000000000
0.8034000000000000 0.4510000000000001 0.7439000000000000
0.4510000000000000 0.6476000000000000 0.9939000000000000
0.3523999999999999 0.8034000000000000 0.9939000000000000
0.1965999999999999 0.5490000000000000 0.9939000000000000
0.3524000000000000 0.5490000000000002 0.7560999999999999
0.1966000000000000 0.6476000000000001 0.7560999999999999
0.4510000000000001 0.8034000000000001 0.7560999999999999
0.6476000000000000 0.4510000000000000 0.5061000000000000
0.8033999999999998 0.3523999999999999 0.5061000000000000
0.5490000000000000 0.1966000000000000 0.5061000000000000
0.4510000000000001 0.6476000000000001 0.7560999999999999
0.3524000000000000 0.8034000000000001 0.7560999999999999
0.1966000000000000 0.5490000000000002 0.7560999999999999
0.5490000000000000 0.3523999999999999 0.5061000000000000
0.6475999999999998 0.1966000000000000 0.5061000000000000
0.8034000000000000 0.4510000000000000 0.5061000000000000
0.6476000000000000 0.4510000000000001 0.7439000000000000
0.8033999999999998 0.3524000000000000 0.7439000000000000
0.5490000000000000 0.1966000000000000 0.7439000000000000
0.3523999999999999 0.5490000000000000 0.9939000000000000
0.1965999999999999 0.6476000000000000 0.9939000000000000
0.4510000000000000 0.8034000000000000 0.9939000000000000
0.4055999999999999 0.3223000000000000 0.1545000000000000
0.6777000000000000 0.0833000000000000 0.1545000000000000
0.9167000000000000 0.5944000000000002 0.1545000000000000
0.5943999999999999 0.6777000000000000 0.4045000000000000
0.3223000000000000 0.9167000000000000 0.4045000000000000
0.0833000000000000 0.4056000000000001 0.4045000000000000
0.3223000000000000 0.4056000000000001 0.3454999999999999
0.0833000000000000 0.6777000000000000 0.3454999999999999
0.5943999999999999 0.9167000000000000 0.3454999999999999
0.6777000000000000 0.5944000000000002 0.0955000000000000
0.9167000000000000 0.3223000000000000 0.0955000000000000
0.4056000000000000 0.0833000000000000 0.0955000000000000
0.5943999999999999 0.6777000000000000 0.3454999999999999
0.3223000000000000 0.9167000000000000 0.3454999999999999
0.0833000000000000 0.4056000000000001 0.3454999999999999
0.4056000000000000 0.3223000000000000 0.0955000000000000
0.6777000000000000 0.0833000000000000 0.0955000000000000
0.9167000000000000 0.5944000000000002 0.0955000000000000
0.6777000000000000 0.5944000000000002 0.1545000000000000
0.9167000000000000 0.3223000000000000 0.1545000000000000
0.4056000000000000 0.0833000000000000 0.1545000000000000
0.3223000000000000 0.4056000000000001 0.4045000000000000
0.0833000000000000 0.6777000000000000 0.4045000000000000
0.5943999999999999 0.9167000000000000 0.4045000000000000
0.4056000000000000 0.3223000000000000 0.6545000000000000
0.6777000000000000 0.0833000000000000 0.6545000000000000
0.9167000000000000 0.5944000000000002 0.6545000000000000
0.5944000000000000 0.6777000000000001 0.9045000000000001
0.3223000000000000 0.9167000000000001 0.9045000000000001
0.0833000000000000 0.4056000000000000 0.9045000000000001
0.3223000000000000 0.4056000000000000 0.8454999999999999
0.0833000000000000 0.6777000000000001 0.8454999999999999
0.5944000000000002 0.9167000000000001 0.8454999999999999
0.6777000000000001 0.5944000000000000 0.5954999999999999
0.9167000000000000 0.3223000000000000 0.5954999999999999
0.4056000000000000 0.0833000000000000 0.5954999999999999
0.5944000000000000 0.6777000000000001 0.8454999999999999
0.3223000000000000 0.9167000000000001 0.8454999999999999
0.0833000000000000 0.4056000000000000 0.8454999999999999
0.4056000000000000 0.3223000000000000 0.5954999999999999
0.6777000000000000 0.0833000000000000 0.5954999999999999
0.9167000000000000 0.5944000000000000 0.5954999999999999
0.6777000000000001 0.5944000000000002 0.6545000000000000
0.9167000000000000 0.3223000000000000 0.6545000000000000
0.4056000000000000 0.0833000000000000 0.6545000000000000
0.3223000000000000 0.4056000000000000 0.9045000000000001
0.0833000000000000 0.6777000000000001 0.9045000000000001
0.5944000000000002 0.9167000000000001 0.9045000000000001
0.5099000000000000 0.3250000000000000 0.1526000000000000
0.6750000000000000 0.1849000000000000 0.1526000000000000
0.8151000000000000 0.4901000000000000 0.1526000000000000
0.4901000000000000 0.6750000000000000 0.4026000000000000
0.3250000000000000 0.8150999999999999 0.4026000000000000
0.1849000000000000 0.5099000000000000 0.4026000000000000
0.3250000000000000 0.5099000000000000 0.3473999999999999
0.1849000000000000 0.6750000000000000 0.3473999999999999
0.4901000000000000 0.8150999999999999 0.3473999999999999
0.6750000000000000 0.4901000000000000 0.0974000000000000
0.8150999999999999 0.3250000000000000 0.0974000000000000
0.5099000000000000 0.1849000000000000 0.0974000000000000
0.4901000000000000 0.6750000000000000 0.3473999999999999
0.3250000000000000 0.8150999999999999 0.3473999999999999
0.1849000000000001 0.5099000000000000 0.3473999999999999
0.5099000000000000 0.3250000000000000 0.0974000000000000
0.6749999999999999 0.1849000000000000 0.0974000000000000
0.8151000000000000 0.4901000000000000 0.0974000000000000
0.6750000000000000 0.4901000000000000 0.1526000000000000
0.8150999999999999 0.3250000000000000 0.1526000000000000
0.5099000000000000 0.1849000000000000 0.1526000000000000
0.3250000000000000 0.5099000000000000 0.4026000000000000
0.1849000000000000 0.6750000000000000 0.4026000000000000
0.4901000000000000 0.8150999999999999 0.4026000000000000
0.5099000000000000 0.3250000000000000 0.6526000000000001
0.6750000000000000 0.1849000000000000 0.6526000000000001
0.8151000000000000 0.4901000000000000 0.6526000000000001
0.4901000000000000 0.6750000000000002 0.9026000000000001
0.3250000000000000 0.8151000000000002 0.9026000000000001
0.1849000000000000 0.5099000000000001 0.9026000000000001
0.3250000000000000 0.5099000000000001 0.8473999999999999
0.1849000000000000 0.6750000000000002 0.8473999999999999
0.4901000000000000 0.8151000000000002 0.8473999999999999
0.6750000000000000 0.4901000000000000 0.5973999999999999
0.8150999999999998 0.3250000000000000 0.5973999999999999
0.5099000000000001 0.1849000000000000 0.5973999999999999
0.4901000000000000 0.6750000000000002 0.8473999999999999
0.3250000000000000 0.8151000000000002 0.8473999999999999
0.1849000000000000 0.5099000000000001 0.8473999999999999
0.5099000000000000 0.3250000000000000 0.5973999999999999
0.6750000000000000 0.1849000000000000 0.5973999999999999
0.8151000000000000 0.4901000000000000 0.5973999999999999
0.6750000000000000 0.4901000000000000 0.6526000000000001
0.8150999999999998 0.3250000000000000 0.6526000000000001
0.5099000000000001 0.1849000000000000 0.6526000000000001
0.3250000000000000 0.5099000000000001 0.9026000000000001
0.1849000000000000 0.6750000000000002 0.9026000000000001
0.4901000000000000 0.8151000000000002 0.9026000000000001
0.3564000000000000 0.3218000000000000 0.1433000000000000
0.6782000000000000 0.0346000000000000 0.1433000000000000
0.9653999999999998 0.6435999999999999 0.1433000000000000
0.6435999999999999 0.6782000000000000 0.3933000000000000
0.3217999999999999 0.9653999999999999 0.3933000000000000
0.0346000000000000 0.3564000000000000 0.3933000000000000
0.3218000000000000 0.3564000000000000 0.3567000000000000
0.0346000000000000 0.6782000000000000 0.3567000000000000
0.6435999999999998 0.9653999999999999 0.3567000000000000
0.6782000000000001 0.6435999999999999 0.1067000000000000
0.9654000000000000 0.3218000000000000 0.1067000000000000
0.3563999999999999 0.0346000000000000 0.1067000000000000
0.6435999999999999 0.6782000000000000 0.3567000000000000
0.3217999999999999 0.9653999999999999 0.3567000000000000
0.0346000000000000 0.3564000000000000 0.3567000000000000
0.3563999999999999 0.3218000000000000 0.1067000000000000
0.6782000000000000 0.0346000000000000 0.1067000000000000
0.9653999999999998 0.6435999999999999 0.1067000000000000
0.6782000000000001 0.6435999999999999 0.1433000000000000
0.9654000000000000 0.3218000000000000 0.1433000000000000
0.3563999999999999 0.0346000000000000 0.1433000000000000
0.3218000000000000 0.3564000000000000 0.3933000000000000
0.0346000000000000 0.6782000000000000 0.3933000000000000
0.6435999999999998 0.9653999999999999 0.3933000000000000
0.3564000000000000 0.3218000000000000 0.6433000000000000
0.6782000000000000 0.0346000000000000 0.6433000000000000
0.9653999999999998 0.6435999999999999 0.6433000000000000
0.6436000000000001 0.6782000000000000 0.8933000000000000
0.3218000000000000 0.9654000000000001 0.8933000000000000
0.0346000000000000 0.3564000000000000 0.8933000000000000
0.3218000000000000 0.3564000000000000 0.8567000000000000
0.0346000000000000 0.6782000000000000 0.8567000000000000
0.6436000000000001 0.9654000000000001 0.8567000000000000
0.6782000000000000 0.6435999999999999 0.6067000000000000
0.9653999999999999 0.3218000000000000 0.6067000000000000
0.3564000000000000 0.0346000000000000 0.6067000000000000
0.6436000000000001 0.6782000000000000 0.8567000000000000
0.3218000000000000 0.9654000000000001 0.8567000000000000
0.0346000000000000 0.3564000000000000 0.8567000000000000
0.3564000000000000 0.3218000000000000 0.6067000000000000
0.6782000000000000 0.0346000000000000 0.6067000000000000
0.9653999999999998 0.6435999999999999 0.6067000000000000
0.6782000000000000 0.6435999999999999 0.6433000000000000
0.9653999999999999 0.3218000000000000 0.6433000000000000
0.3564000000000000 0.0346000000000000 0.6433000000000000
0.3218000000000000 0.3564000000000000 0.8933000000000000
0.0346000000000000 0.6782000000000000 0.8933000000000000
0.6436000000000001 0.9654000000000001 0.8933000000000000
0.3266999999999999 0.3215000000000000 0.1575500000000000
0.6785000000000000 0.0052000000000000 0.1575500000000000
0.9948000000000000 0.6733000000000001 0.1575500000000000
0.6733000000000001 0.6785000000000000 0.4075500000000000
0.3215000000000000 0.9948000000000000 0.4075500000000000
0.0052000000000000 0.3267000000000000 0.4075500000000000
0.3215000000000000 0.3267000000000000 0.3424499999999999
0.0052000000000000 0.6785000000000000 0.3424499999999999
0.6732999999999999 0.9948000000000000 0.3424499999999999
0.6784999999999999 0.6733000000000001 0.0924500000000000
0.9948000000000000 0.3215000000000000 0.0924500000000000
0.3267000000000000 0.0052000000000000 0.0924500000000000
0.6733000000000000 0.6785000000000000 0.3424499999999999
0.3215000000000000 0.9948000000000000 0.3424499999999999
0.0052000000000000 0.3267000000000000 0.3424499999999999
0.3267000000000000 0.3215000000000000 0.0924500000000000
0.6785000000000000 0.0052000000000000 0.0924500000000000
0.9948000000000000 0.6733000000000001 0.0924500000000000
0.6784999999999999 0.6733000000000001 0.1575500000000000
0.9948000000000000 0.3215000000000000 0.1575500000000000
0.3266999999999999 0.0052000000000000 0.1575500000000000
0.3215000000000000 0.3267000000000000 0.4075500000000000
0.0052000000000001 0.6785000000000000 0.4075500000000000
0.6732999999999999 0.9948000000000000 0.4075500000000000
0.3267000000000000 0.3215000000000000 0.6575500000000000
0.6784999999999999 0.0052000000000000 0.6575500000000000
0.9948000000000000 0.6733000000000001 0.6575500000000000
0.6733000000000001 0.6785000000000001 0.9075500000000001
0.3215000000000000 0.9948000000000001 0.9075500000000001
0.0052000000000000 0.3267000000000000 0.9075500000000001
0.3215000000000000 0.3267000000000000 0.8424499999999999
0.0052000000000001 0.6785000000000001 0.8424499999999999
0.6733000000000001 0.9948000000000001 0.8424499999999999
0.6784999999999999 0.6733000000000000 0.5924499999999999
0.9947999999999999 0.3215000000000000 0.5924499999999999
0.3267000000000000 0.0052000000000000 0.5924499999999999
0.6733000000000001 0.6785000000000001 0.8424499999999999
0.3215000000000000 0.9948000000000001 0.8424499999999999
0.0052000000000000 0.3267000000000000 0.8424499999999999
0.3267000000000000 0.3215000000000000 0.5924499999999999
0.6784999999999999 0.0052000000000000 0.5924499999999999
0.9947999999999999 0.6733000000000000 0.5924499999999999
0.6785000000000000 0.6733000000000001 0.6575500000000000
0.9947999999999999 0.3215000000000000 0.6575500000000000
0.3267000000000000 0.0052000000000000 0.6575500000000000
0.3215000000000000 0.3267000000000000 0.9075500000000001
0.0052000000000000 0.6785000000000001 0.9075500000000001
0.6733000000000001 0.9948000000000001 0.9075500000000001
0.4313000000000000 0.2589000000000000 0.2198000000000000
0.7411000000000000 0.1724000000000000 0.2198000000000000
0.8276000000000001 0.5687000000000001 0.2198000000000000
0.5687000000000000 0.7411000000000000 0.4697999999999999
0.2589000000000000 0.8276000000000001 0.4697999999999999
0.1724000000000000 0.4313000000000000 0.4697999999999999
0.2589000000000000 0.4313000000000000 0.2802000000000000
0.1724000000000000 0.7411000000000000 0.2802000000000000
0.5687000000000000 0.8276000000000000 0.2802000000000000
0.7410999999999999 0.5687000000000001 0.0302000000000000
0.8276000000000000 0.2589000000000001 0.0302000000000000
0.4313000000000000 0.1724000000000000 0.0302000000000000
0.5687000000000000 0.7411000000000000 0.2802000000000000
0.2589000000000000 0.8276000000000000 0.2802000000000000
0.1724000000000000 0.4313000000000000 0.2802000000000000
0.4313000000000000 0.2589000000000001 0.0302000000000000
0.7411000000000000 0.1724000000000000 0.0302000000000000
0.8276000000000000 0.5687000000000001 0.0302000000000000
0.7410999999999999 0.5687000000000001 0.2198000000000000
0.8276000000000000 0.2589000000000000 0.2198000000000000
0.4313000000000000 0.1724000000000000 0.2198000000000000
0.2589000000000000 0.4313000000000000 0.4697999999999999
0.1724000000000000 0.7411000000000000 0.4697999999999999
0.5687000000000000 0.8276000000000001 0.4697999999999999
0.4313000000000000 0.2589000000000001 0.7197999999999999
0.7411000000000000 0.1724000000000000 0.7197999999999999
0.8276000000000001 0.5687000000000001 0.7197999999999999
0.5687000000000000 0.7410999999999999 0.9697999999999999
0.2589000000000000 0.8276000000000000 0.9697999999999999
0.1724000000000000 0.4313000000000000 0.9697999999999999
0.2589000000000000 0.4313000000000000 0.7802000000000000
0.1724000000000000 0.7411000000000000 0.7802000000000000
0.5687000000000000 0.8276000000000001 0.7802000000000000
0.7410999999999999 0.5687000000000000 0.5302000000000000
0.8276000000000000 0.2589000000000000 0.5302000000000000
0.4313000000000000 0.1724000000000000 0.5302000000000000
0.5687000000000000 0.7411000000000000 0.7802000000000000
0.2589000000000000 0.8276000000000001 0.7802000000000000
0.1724000000000000 0.4313000000000000 0.7802000000000000
0.4313000000000000 0.2589000000000000 0.5302000000000000
0.7411000000000000 0.1724000000000000 0.5302000000000000
0.8276000000000000 0.5687000000000000 0.5302000000000000
0.7411000000000000 0.5687000000000001 0.7197999999999999
0.8276000000000000 0.2589000000000001 0.7197999999999999
0.4313000000000001 0.1724000000000000 0.7197999999999999
0.2589000000000000 0.4313000000000000 0.9697999999999999
0.1724000000000000 0.7410999999999999 0.9697999999999999
0.5687000000000000 0.8276000000000000 0.9697999999999999
0.4252000000000000 0.2393000000000000 0.2529500000000000
0.7607000000000000 0.1859000000000000 0.2529500000000000
0.8141000000000000 0.5748000000000001 0.2529500000000000
0.5748000000000000 0.7607000000000000 0.0029500000000000
0.2393000000000000 0.8141000000000000 0.0029500000000000
0.1859000000000000 0.4252000000000001 0.0029500000000000
0.2393000000000000 0.4252000000000001 0.2470500000000000
0.1859000000000000 0.7607000000000000 0.2470500000000000
0.5748000000000000 0.8141000000000000 0.2470500000000000
0.7607000000000000 0.5748000000000000 0.4970500000000000
0.8140999999999999 0.2393000000000000 0.4970500000000000
0.4252000000000001 0.1859000000000000 0.4970500000000000
0.5748000000000000 0.7607000000000000 0.2470500000000000
0.2393000000000000 0.8141000000000000 0.2470500000000000
0.1859000000000000 0.4252000000000001 0.2470500000000000
0.4252000000000000 0.2393000000000000 0.4970500000000000
0.7606999999999999 0.1859000000000000 0.4970500000000000
0.8141000000000000 0.5748000000000000 0.4970500000000000
0.7607000000000002 0.5748000000000001 0.2529500000000000
0.8141000000000000 0.2393000000000000 0.2529500000000000
0.4252000000000000 0.1859000000000000 0.2529500000000000
0.2393000000000000 0.4252000000000001 0.0029500000000000
0.1859000000000000 0.7607000000000000 0.0029500000000000
0.5748000000000000 0.8141000000000000 0.0029500000000000
0.4252000000000000 0.2393000000000000 0.7529500000000000
0.7607000000000000 0.1859000000000000 0.7529500000000000
0.8141000000000002 0.5748000000000001 0.7529500000000000
0.5748000000000000 0.7607000000000002 0.5029500000000000
0.2393000000000000 0.8141000000000000 0.5029500000000000
0.1859000000000000 0.4252000000000000 0.5029500000000000
0.2393000000000000 0.4252000000000001 0.7470500000000000
0.1859000000000000 0.7607000000000002 0.7470500000000000
0.5748000000000000 0.8141000000000000 0.7470500000000000
0.7606999999999999 0.5748000000000000 0.9970499999999999
0.8141000000000000 0.2393000000000000 0.9970499999999999
0.4252000000000001 0.1859000000000000 0.9970499999999999
0.5748000000000000 0.7607000000000002 0.7470500000000000
0.2393000000000000 0.8141000000000000 0.7470500000000000
0.1859000000000000 0.4252000000000001 0.7470500000000000
0.4252000000000000 0.2393000000000000 0.9970499999999999
0.7607000000000000 0.1859000000000000 0.9970499999999999
0.8141000000000000 0.5748000000000000 0.9970499999999999
0.7607000000000000 0.5748000000000001 0.7529500000000000
0.8141000000000002 0.2393000000000000 0.7529500000000000
0.4252000000000001 0.1859000000000000 0.7529500000000000
0.2393000000000000 0.4252000000000000 0.5029500000000000
0.1859000000000000 0.7607000000000002 0.5029500000000000
0.5748000000000000 0.8141000000000000 0.5029500000000000
0.4218000000000000 0.2353000000000000 0.3129000000000000
0.7646999999999999 0.1865000000000000 0.3129000000000000
0.8135000000000000 0.5782000000000000 0.3129000000000000
0.5782000000000000 0.7647000000000002 0.0629000000000000
0.2353000000000000 0.8135000000000000 0.0629000000000000
0.1865000000000000 0.4218000000000001 0.0629000000000000
0.2353000000000000 0.4218000000000000 0.1871000000000000
0.1865000000000000 0.7647000000000002 0.1871000000000000
0.5782000000000000 0.8135000000000000 0.1871000000000000
0.7647000000000000 0.5782000000000000 0.4371000000000000
0.8135000000000000 0.2353000000000000 0.4371000000000000
0.4218000000000001 0.1865000000000000 0.4371000000000000
0.5782000000000000 0.7647000000000002 0.1871000000000000
0.2353000000000000 0.8135000000000000 0.1871000000000000
0.1865000000000000 0.4218000000000000 0.1871000000000000
0.4218000000000000 0.2353000000000000 0.4371000000000000
0.7647000000000000 0.1865000000000000 0.4371000000000000
0.8135000000000000 0.5782000000000000 0.4371000000000000
0.7647000000000000 0.5782000000000000 0.3129000000000000
0.8134999999999999 0.2353000000000000 0.3129000000000000
0.4217999999999999 0.1865000000000000 0.3129000000000000
0.2353000000000000 0.4218000000000001 0.0629000000000000
0.1865000000000000 0.7647000000000002 0.0629000000000000
0.5782000000000000 0.8135000000000000 0.0629000000000000
0.4218000000000000 0.2353000000000000 0.8128999999999998
0.7647000000000002 0.1865000000000000 0.8128999999999998
0.8135000000000000 0.5782000000000002 0.8128999999999998
0.5782000000000002 0.7647000000000002 0.5628999999999998
0.2353000000000000 0.8135000000000001 0.5628999999999998
0.1865000000000000 0.4218000000000000 0.5628999999999998
0.2353000000000000 0.4218000000000001 0.6871000000000000
0.1865000000000001 0.7647000000000002 0.6871000000000000
0.5782000000000000 0.8135000000000001 0.6871000000000000
0.7646999999999999 0.5782000000000000 0.9370999999999999
0.8135000000000000 0.2353000000000000 0.9370999999999999
0.4218000000000000 0.1865000000000000 0.9370999999999999
0.5782000000000002 0.7647000000000002 0.6871000000000000
0.2353000000000000 0.8135000000000001 0.6871000000000000
0.1865000000000000 0.4218000000000001 0.6871000000000000
0.4218000000000001 0.2353000000000000 0.9370999999999999
0.7647000000000000 0.1865000000000000 0.9370999999999999
0.8134999999999999 0.5782000000000000 0.9370999999999999
0.7647000000000000 0.5782000000000002 0.8128999999999998
0.8135000000000001 0.2353000000000000 0.8128999999999998
0.4218000000000000 0.1865000000000000 0.8128999999999998
0.2353000000000000 0.4218000000000000 0.5628999999999998
0.1865000000000001 0.7647000000000002 0.5628999999999998
0.5782000000000000 0.8135000000000001 0.5628999999999998
0.4182999999999999 0.2666000000000000 0.2824499999999999
0.7333999999999999 0.1517000000000000 0.2824499999999999
0.8483000000000001 0.5817000000000001 0.2824499999999999
0.5817000000000000 0.7334000000000002 0.0324500000000000
0.2665999999999999 0.8483000000000001 0.0324500000000000
0.1517000000000000 0.4183000000000000 0.0324500000000000
0.2666000000000000 0.4183000000000000 0.2175500000000000
0.1517000000000000 0.7334000000000002 0.2175500000000000
0.5817000000000000 0.8483000000000001 0.2175500000000000
0.7334000000000001 0.5817000000000000 0.4675500000000000
0.8482999999999998 0.2665999999999999 0.4675500000000000
0.4182999999999999 0.1517000000000000 0.4675500000000000
0.5817000000000000 0.7334000000000002 0.2175500000000000
0.2665999999999999 0.8483000000000001 0.2175500000000000
0.1517000000000000 0.4183000000000000 0.2175500000000000
0.4182999999999999 0.2665999999999999 0.4675500000000000
0.7333999999999998 0.1517000000000000 0.4675500000000000
0.8483000000000001 0.5817000000000000 0.4675500000000000
0.7334000000000001 0.5817000000000001 0.2824499999999999
0.8482999999999999 0.2666000000000000 0.2824499999999999
0.4182999999999999 0.1517000000000000 0.2824499999999999
0.2665999999999999 0.4183000000000000 0.0324500000000000
0.1517000000000000 0.7334000000000002 0.0324500000000000
0.5817000000000000 0.8483000000000001 0.0324500000000000
0.4182999999999999 0.2666000000000000 0.7824499999999999
0.7334000000000002 0.1517000000000000 0.7824499999999999
0.8483000000000001 0.5817000000000001 0.7824499999999999
0.5817000000000000 0.7334000000000002 0.5324500000000000
0.2665999999999999 0.8483000000000001 0.5324500000000000
0.1517000000000000 0.4182999999999999 0.5324500000000000
0.2666000000000000 0.4183000000000001 0.7175500000000000
0.1517000000000000 0.7334000000000002 0.7175500000000000
0.5817000000000000 0.8483000000000001 0.7175500000000000
0.7333999999999999 0.5817000000000000 0.9675500000000000
0.8482999999999998 0.2666000000000000 0.9675500000000000
0.4182999999999999 0.1517000000000000 0.9675500000000000
0.5817000000000001 0.7334000000000002 0.7175500000000000
0.2666000000000001 0.8483000000000001 0.7175500000000000
0.1517000000000000 0.4183000000000001 0.7175500000000000
0.4183000000000000 0.2666000000000000 0.9675500000000000
0.7334000000000001 0.1517000000000000 0.9675500000000000
0.8482999999999999 0.5817000000000000 0.9675500000000000
0.7334000000000001 0.5817000000000001 0.7824499999999999
0.8482999999999999 0.2666000000000000 0.7824499999999999
0.4182999999999999 0.1517000000000000 0.7824499999999999
0.2665999999999999 0.4182999999999999 0.5324500000000000
0.1517000000000001 0.7334000000000002 0.5324500000000000
0.5817000000000000 0.8483000000000001 0.5324500000000000
0.4125000000000000 0.2998000000000000 0.2825500000000000
0.7002000000000000 0.1127000000000000 0.2825500000000000
0.8873000000000000 0.5875000000000001 0.2825500000000000
0.5875000000000000 0.7002000000000000 0.0325500000000000
0.2998000000000000 0.8873000000000001 0.0325500000000000
0.1127000000000000 0.4125000000000000 0.0325500000000000
0.2998000000000000 0.4125000000000000 0.2174500000000000
0.1127000000000000 0.7002000000000002 0.2174500000000000
0.5875000000000000 0.8873000000000001 0.2174500000000000
0.7001999999999999 0.5875000000000000 0.4674499999999999
0.8872999999999999 0.2998000000000000 0.4674499999999999
0.4125000000000000 0.1127000000000000 0.4674499999999999
0.5875000000000001 0.7002000000000002 0.2174500000000000
0.2998000000000000 0.8873000000000001 0.2174500000000000
0.1127000000000000 0.4125000000000000 0.2174500000000000
0.4124999999999999 0.2998000000000000 0.4674499999999999
0.7001999999999999 0.1127000000000000 0.4674499999999999
0.8872999999999999 0.5875000000000000 0.4674499999999999
0.7001999999999999 0.5875000000000001 0.2825500000000000
0.8873000000000000 0.2998000000000000 0.2825500000000000
0.4125000000000000 0.1127000000000000 0.2825500000000000
0.2998000000000000 0.4125000000000000 0.0325500000000000
0.1127000000000000 0.7002000000000000 0.0325500000000000
0.5875000000000000 0.8873000000000001 0.0325500000000000
0.4125000000000000 0.2998000000000000 0.7825500000000000
0.7002000000000000 0.1127000000000000 0.7825500000000000
0.8873000000000000 0.5875000000000001 0.7825500000000000
0.5875000000000000 0.7002000000000000 0.5325500000000000
0.2998000000000000 0.8873000000000001 0.5325500000000000
0.1127000000000000 0.4125000000000000 0.5325500000000000
0.2998000000000001 0.4125000000000000 0.7174500000000000
0.1127000000000000 0.7002000000000000 0.7174500000000000
0.5875000000000000 0.8873000000000001 0.7174500000000000
0.7001999999999999 0.5875000000000000 0.9674499999999999
0.8873000000000000 0.2998000000000000 0.9674499999999999
0.4125000000000000 0.1127000000000000 0.9674499999999999
0.5875000000000000 0.7002000000000000 0.7174500000000000
0.2998000000000000 0.8873000000000001 0.7174500000000000
0.1127000000000000 0.4125000000000000 0.7174500000000000
0.4125000000000000 0.2998000000000000 0.9674499999999999
0.7001999999999999 0.1127000000000000 0.9674499999999999
0.8872999999999999 0.5875000000000000 0.9674499999999999
0.7002000000000000 0.5875000000000001 0.7825500000000000
0.8873000000000001 0.2998000000000000 0.7825500000000000
0.4124999999999999 0.1127000000000000 0.7825500000000000
0.2998000000000000 0.4125000000000000 0.5325500000000000
0.1127000000000000 0.7002000000000000 0.5325500000000000
0.5875000000000000 0.8873000000000001 0.5325500000000000
0.4055000000000000 0.2793000000000000 0.3488000000000000
0.7206999999999999 0.1262000000000000 0.3488000000000000
0.8737999999999998 0.5945000000000000 0.3488000000000000
0.7206999999999999 0.5945000000000000 0.4012000000000000
0.8738000000000000 0.2793000000000000 0.4012000000000000
0.4055000000000000 0.1262000000000000 0.4012000000000000
0.5945000000000000 0.7207000000000000 0.1512000000000000
0.2792999999999999 0.8738000000000000 0.1512000000000000
0.1262000000000000 0.4055000000000001 0.1512000000000000
0.2793000000000000 0.4055000000000001 0.0988000000000000
0.1262000000000000 0.7207000000000000 0.0988000000000000
0.5944999999999999 0.8738000000000000 0.0988000000000000
0.4054999999999999 0.2793000000000000 0.8488000000000000
0.7207000000000001 0.1262000000000000 0.8488000000000000
0.8738000000000000 0.5945000000000001 0.8488000000000000
0.7207000000000000 0.5945000000000001 0.9012000000000000
0.8738000000000001 0.2793000000000000 0.9012000000000000
0.4054999999999999 0.1262000000000000 0.9012000000000000
0.5945000000000000 0.7207000000000001 0.6512000000000000
0.2793000000000000 0.8738000000000001 0.6512000000000000
0.1262000000000000 0.4055000000000001 0.6512000000000000
0.2793000000000000 0.4055000000000000 0.5988000000000000
0.1262000000000001 0.7207000000000001 0.5988000000000000
0.5945000000000000 0.8738000000000001 0.5988000000000000
0.5757000000000000 0.7470000000000000 0.0847000000000000
0.2530000000000000 0.8287000000000001 0.0847000000000000
0.1713000000000000 0.4243000000000000 0.0847000000000000
0.2529999999999999 0.4243000000000000 0.1653000000000000
0.1713000000000000 0.7470000000000000 0.1653000000000000
0.5757000000000000 0.8287000000000001 0.1653000000000000
0.4243000000000000 0.2530000000000001 0.4152999999999999
0.7469999999999999 0.1713000000000000 0.4152999999999999
0.8287000000000000 0.5757000000000000 0.4152999999999999
0.7470000000000000 0.5757000000000000 0.3346999999999999
0.8286999999999998 0.2530000000000001 0.3346999999999999
0.4243000000000000 0.1713000000000000 0.3346999999999999
0.5757000000000000 0.7470000000000000 0.5847000000000000
0.2530000000000001 0.8287000000000001 0.5847000000000000
0.1713000000000000 0.4243000000000000 0.5847000000000000
0.2530000000000000 0.4243000000000001 0.6652999999999999
0.1713000000000000 0.7470000000000000 0.6652999999999999
0.5757000000000001 0.8287000000000001 0.6652999999999999
0.4243000000000000 0.2530000000000000 0.9153000000000000
0.7470000000000000 0.1713000000000000 0.9153000000000000
0.8287000000000000 0.5757000000000000 0.9153000000000000
0.7470000000000001 0.5757000000000001 0.8347000000000000
0.8287000000000000 0.2530000000000000 0.8347000000000000
0.4243000000000000 0.1713000000000000 0.8347000000000000
0.1348000000000000 0.1784000000000000 0.2720000000000000
0.0435999999999999 0.8652000000000001 0.2720000000000000
0.8216000000000000 0.9564000000000001 0.2720000000000000
0.8652000000000000 0.8216000000000000 0.0220000000000000
0.9564000000000000 0.1348000000000000 0.0220000000000000
0.1784000000000000 0.0436000000000000 0.0220000000000000
0.8652000000000000 0.8216000000000000 0.2280000000000000
0.9564000000000000 0.1348000000000000 0.2280000000000000
0.1784000000000000 0.0436000000000000 0.2280000000000000
0.1348000000000000 0.1784000000000000 0.4780000000000000
0.0436000000000000 0.8652000000000001 0.4780000000000000
0.8216000000000000 0.9564000000000001 0.4780000000000000
0.1348000000000000 0.1784000000000000 0.7719999999999999
0.0436000000000000 0.8652000000000001 0.7719999999999999
0.8216000000000000 0.9564000000000001 0.7719999999999999
0.8652000000000001 0.8216000000000000 0.5219999999999999
0.9563999999999999 0.1348000000000000 0.5219999999999999
0.1784000000000000 0.0436000000000000 0.5219999999999999
0.8652000000000001 0.8216000000000000 0.7280000000000000
0.9563999999999999 0.1348000000000000 0.7280000000000000
0.1784000000000000 0.0436000000000000 0.7280000000000000
0.1348000000000000 0.1784000000000001 0.9779999999999999
0.0436000000000000 0.8652000000000000 0.9779999999999999
0.8215999999999999 0.9564000000000000 0.9779999999999999
0.3835000000000000 0.3835000000000001 0.2500000000000000
0.6165000000000000 0.0000000000000000 0.2500000000000000
0.0000000000000000 0.6165000000000002 0.2500000000000000
0.6165000000000000 0.6165000000000000 0.0000000000000000
0.3835000000000000 0.0000000000000000 0.0000000000000000
0.0000000000000000 0.3835000000000001 0.0000000000000000
0.6165000000000000 0.6165000000000002 0.2500000000000000
0.3835000000000000 0.0000000000000000 0.2500000000000000
0.0000000000000000 0.3835000000000001 0.2500000000000000
0.3835000000000000 0.3835000000000001 0.0000000000000000
0.6165000000000000 0.0000000000000000 0.0000000000000000
0.0000000000000001 0.6165000000000000 0.0000000000000000
0.3835000000000001 0.3835000000000001 0.7500000000000000
0.6165000000000002 0.0000000000000000 0.7500000000000000
0.0000000000000000 0.6165000000000002 0.7500000000000000
0.6164999999999999 0.6165000000000000 0.4999999999999999
0.3835000000000000 0.0000000000000000 0.4999999999999999
0.0000000000000000 0.3835000000000000 0.4999999999999999
0.6165000000000000 0.6165000000000002 0.7500000000000000
0.3835000000000000 0.0000000000000000 0.7500000000000000
0.0000000000000000 0.3835000000000001 0.7500000000000000
0.3835000000000000 0.3835000000000000 0.4999999999999999
0.6164999999999999 0.0000000000000000 0.4999999999999999
0.0000000000000000 0.6165000000000000 0.4999999999999999
0.4199000000000001 0.4199000000000001 0.2500000000000000
0.5800999999999999 0.0000000000000000 0.2500000000000000
0.0000000000000001 0.5801000000000001 0.2500000000000000
0.5801000000000001 0.5800999999999999 0.0000000000000000
0.4199000000000000 0.0000000000000000 0.0000000000000000
0.0000000000000000 0.4199000000000001 0.0000000000000000
0.5801000000000001 0.5801000000000001 0.2500000000000000
0.4198999999999999 0.0000000000000000 0.2500000000000000
0.0000000000000001 0.4199000000000001 0.2500000000000000
0.4199000000000001 0.4199000000000001 0.0000000000000000
0.5800999999999999 0.0000000000000000 0.0000000000000000
0.0000000000000000 0.5800999999999999 0.0000000000000000
0.4199000000000001 0.4199000000000001 0.7500000000000000
0.5801000000000001 0.0000000000000000 0.7500000000000000
0.0000000000000000 0.5801000000000001 0.7500000000000000
0.5800999999999999 0.5800999999999999 0.4999999999999999
0.4199000000000001 0.0000000000000000 0.4999999999999999
0.0000000000000000 0.4199000000000000 0.4999999999999999
0.5800999999999999 0.5801000000000001 0.7500000000000000
0.4199000000000001 0.0000000000000000 0.7500000000000000
0.0000000000000000 0.4199000000000001 0.7500000000000000
0.4199000000000000 0.4199000000000000 0.4999999999999999
0.5800999999999999 0.0000000000000000 0.4999999999999999
0.0000000000000000 0.5800999999999999 0.4999999999999999
0.5480000000000000 0.4520000000000000 0.2043500000000000
0.5480000000000002 0.0960000000000000 0.2043500000000000
0.9040000000000000 0.4520000000000000 0.2043500000000000
0.4520000000000000 0.5480000000000000 0.4543499999999999
0.4520000000000000 0.9040000000000000 0.4543499999999999
0.0959999999999999 0.5480000000000000 0.4543499999999999
0.4520000000000000 0.5480000000000002 0.2956500000000000
0.0960000000000000 0.5480000000000002 0.2956500000000000
0.4520000000000000 0.9040000000000000 0.2956500000000000
0.5480000000000000 0.4520000000000000 0.0456500000000000
0.9040000000000000 0.4520000000000000 0.0456500000000000
0.5480000000000000 0.0960000000000000 0.0456500000000000
0.5480000000000002 0.4520000000000001 0.7043500000000000
0.5480000000000000 0.0960000000000000 0.7043500000000000
0.9040000000000000 0.4520000000000001 0.7043500000000000
0.4520000000000000 0.5479999999999999 0.9543500000000000
0.4520000000000000 0.9039999999999999 0.9543500000000000
0.0960000000000000 0.5479999999999999 0.9543500000000000
0.4520000000000000 0.5480000000000000 0.7956500000000000
0.0960000000000000 0.5480000000000000 0.7956500000000000
0.4520000000000000 0.9040000000000000 0.7956500000000000
0.5480000000000000 0.4520000000000000 0.5456500000000000
0.9040000000000000 0.4520000000000000 0.5456500000000000
0.5480000000000000 0.0960000000000000 0.5456500000000000
0.5192000000000001 0.4808000000000000 0.1905000000000000
0.5192000000000000 0.0384000000000000 0.1905000000000000
0.9616000000000000 0.4808000000000000 0.1905000000000000
0.4808000000000000 0.5192000000000000 0.4404999999999999
0.4808000000000001 0.9616000000000001 0.4404999999999999
0.0384000000000000 0.5192000000000000 0.4404999999999999
0.4808000000000000 0.5192000000000000 0.3094999999999999
0.0384000000000000 0.5192000000000000 0.3094999999999999
0.4808000000000000 0.9616000000000000 0.3094999999999999
0.5192000000000000 0.4808000000000001 0.0595000000000000
0.9616000000000000 0.4808000000000001 0.0595000000000000
0.5192000000000000 0.0384000000000000 0.0595000000000000
0.5192000000000000 0.4808000000000001 0.6904999999999999
0.5192000000000001 0.0384000000000000 0.6904999999999999
0.9615999999999999 0.4808000000000001 0.6904999999999999
0.4807999999999999 0.5191999999999999 0.9405000000000000
0.4808000000000000 0.9616000000000000 0.9405000000000000
0.0384000000000000 0.5191999999999999 0.9405000000000000
0.4807999999999999 0.5192000000000000 0.8095000000000000
0.0384000000000000 0.5192000000000000 0.8095000000000000
0.4808000000000000 0.9616000000000001 0.8095000000000000
0.5192000000000000 0.4808000000000000 0.5595000000000000
0.9615999999999999 0.4808000000000000 0.5595000000000000
0.5192000000000000 0.0384000000000000 0.5595000000000000
0.4319000000000001 0.3223000000000000 0.1250000000000000
0.6777000000000000 0.1096000000000000 0.1250000000000000
0.8903999999999999 0.5681000000000000 0.1250000000000000
0.5680999999999999 0.6777000000000000 0.3750000000000000
0.3222999999999999 0.8903999999999999 0.3750000000000000
0.1096000000000000 0.4319000000000001 0.3750000000000000
0.3223000000000000 0.4319000000000001 0.3750000000000000
0.1096000000000000 0.6777000000000000 0.3750000000000000
0.5680999999999999 0.8903999999999999 0.3750000000000000
0.6777000000000000 0.5681000000000000 0.1250000000000000
0.8904000000000000 0.3223000000000000 0.1250000000000000
0.4319000000000001 0.1096000000000000 0.1250000000000000
0.4319000000000001 0.3223000000000000 0.6249999999999999
0.6777000000000000 0.1096000000000000 0.6249999999999999
0.8904000000000000 0.5681000000000000 0.6249999999999999
0.5681000000000000 0.6777000000000001 0.8750000000000000
0.3223000000000000 0.8904000000000000 0.8750000000000000
0.1096000000000000 0.4319000000000000 0.8750000000000000
0.3223000000000000 0.4319000000000000 0.8750000000000000
0.1096000000000000 0.6777000000000001 0.8750000000000000
0.5681000000000000 0.8904000000000000 0.8750000000000000
0.6777000000000000 0.5681000000000000 0.6249999999999999
0.8904000000000000 0.3223000000000000 0.6249999999999999
0.4319000000000000 0.1096000000000000 0.6249999999999999
0.4884000000000000 0.3247000000000000 0.1250000000000000
0.6753000000000000 0.1637000000000000 0.1250000000000000
0.8362999999999999 0.5116000000000002 0.1250000000000000
0.5115999999999999 0.6753000000000000 0.3750000000000000
0.3247000000000000 0.8362999999999999 0.3750000000000000
0.1637000000000000 0.4884000000000001 0.3750000000000000
0.3247000000000000 0.4884000000000001 0.3750000000000000
0.1637000000000000 0.6753000000000000 0.3750000000000000
0.5115999999999999 0.8362999999999999 0.3750000000000000
0.6753000000000000 0.5116000000000002 0.1250000000000000
0.8362999999999998 0.3247000000000000 0.1250000000000000
0.4884000000000001 0.1637000000000000 0.1250000000000000
0.4884000000000001 0.3247000000000000 0.6249999999999999
0.6753000000000001 0.1637000000000000 0.6249999999999999
0.8362999999999999 0.5116000000000001 0.6249999999999999
0.5116000000000001 0.6753000000000000 0.8750000000000000
0.3247000000000000 0.8363000000000002 0.8750000000000000
0.1637000000000000 0.4884000000000000 0.8750000000000000
0.3247000000000000 0.4884000000000000 0.8750000000000000
0.1637000000000000 0.6753000000000000 0.8750000000000000
0.5116000000000001 0.8363000000000002 0.8750000000000000
0.6753000000000000 0.5116000000000001 0.6249999999999999
0.8362999999999998 0.3247000000000000 0.6249999999999999
0.4884000000000001 0.1637000000000000 0.6249999999999999
0.4359000000000000 0.2179500000000000 0.2022000000000000
0.7820499999999999 0.2179500000000000 0.2022000000000000
0.7820500000000000 0.5641000000000000 0.2022000000000000
0.5641000000000000 0.7820500000000001 0.4522000000000000
0.2179500000000001 0.7820500000000001 0.4522000000000000
0.2179500000000000 0.4359000000000000 0.4522000000000000
0.2179500000000000 0.4359000000000000 0.2978000000000000
0.2179500000000001 0.7820500000000001 0.2978000000000000
0.5641000000000002 0.7820500000000001 0.2978000000000000
0.7820500000000000 0.5641000000000000 0.0478000000000000
0.7820499999999999 0.2179500000000000 0.0478000000000000
0.4359000000000000 0.2179500000000000 0.0478000000000000
0.4359000000000001 0.2179500000000000 0.7021999999999998
0.7820499999999999 0.2179500000000000 0.7021999999999998
0.7820500000000000 0.5641000000000000 0.7021999999999998
0.5641000000000000 0.7820500000000000 0.9521999999999999
0.2179500000000001 0.7820500000000000 0.9521999999999999
0.2179500000000000 0.4359000000000000 0.9521999999999999
0.2179500000000000 0.4359000000000000 0.7978000000000001
0.2179500000000001 0.7820500000000001 0.7978000000000001
0.5641000000000002 0.7820500000000001 0.7978000000000001
0.7820499999999999 0.5641000000000000 0.5478000000000000
0.7820499999999999 0.2179500000000000 0.5478000000000000
0.4359000000000001 0.2179500000000000 0.5478000000000000
0.4421000000000000 0.2210500000000000 0.1780000000000000
0.7789500000000000 0.2210500000000000 0.1780000000000000
0.7789500000000000 0.5579000000000000 0.1780000000000000
0.5578999999999998 0.7789499999999999 0.4279999999999999
0.2210499999999999 0.7789499999999999 0.4279999999999999
0.2210500000000000 0.4421000000000000 0.4279999999999999
0.2210500000000000 0.4421000000000000 0.3220000000000000
0.2210500000000000 0.7789499999999999 0.3220000000000000
0.5578999999999998 0.7789499999999999 0.3220000000000000
0.7789500000000000 0.5579000000000000 0.0720000000000000
0.7789500000000000 0.2210500000000000 0.0720000000000000
0.4421000000000000 0.2210500000000000 0.0720000000000000
0.4421000000000000 0.2210500000000000 0.6779999999999999
0.7789499999999999 0.2210500000000000 0.6779999999999999
0.7789500000000000 0.5579000000000001 0.6779999999999999
0.5578999999999998 0.7789500000000000 0.9279999999999998
0.2210499999999999 0.7789500000000000 0.9279999999999998
0.2210500000000000 0.4421000000000000 0.9279999999999998
0.2210500000000000 0.4421000000000000 0.8220000000000000
0.2210500000000000 0.7789500000000001 0.8220000000000000
0.5579000000000000 0.7789500000000001 0.8220000000000000
0.7789500000000000 0.5579000000000000 0.5720000000000000
0.7789499999999999 0.2210500000000000 0.5720000000000000
0.4421000000000000 0.2210500000000000 0.5720000000000000
