# Co-dmd_mkt015s_sq
1.000000
 26.5415999999999990   0.0000000000000000         0.0000000000
  0.0000000000000016  26.5415999999999990         0.0000000000
  0.0000000000000018   0.0000000000000018        28.7004000000
Co N N C H C C C H C C C H C H 
8 8 8 8 8 8 8 8 8 8 8 8 8 8 8 
Direct
0.4944199999999999 0.4944200000000000 0.1874999999999999
0.4944199999999999 0.4944200000000000 0.6874999999999999
0.4944200000000000 0.9944200000000000 0.1874999999999999
0.4944200000000000 0.9944200000000000 0.6874999999999999
0.9944200000000000 0.4944200000000000 0.1874999999999999
0.9944200000000000 0.4944200000000000 0.6874999999999999
0.9944199999999999 0.9944200000000000 0.1874999999999999
0.9944199999999999 0.9944200000000000 0.6874999999999999
0.4337099999999999 0.4919999999999999 0.1474550000000000
0.4337099999999999 0.4919999999999999 0.6474549999999999
0.4337100000000000 0.9920000000000000 0.1474550000000000
0.4337100000000000 0.9920000000000000 0.6474549999999999
0.9337100000000000 0.4919999999999999 0.1474550000000000
0.9337100000000000 0.4919999999999999 0.6474549999999999
0.9337099999999999 0.9920000000000000 0.1474550000000000
0.9337099999999999 0.9920000000000000 0.6474549999999999
0.0555700000000000 0.0032500000000000 0.1017000000000000
0.0555700000000000 0.0032500000000000 0.6016999999999999
0.0555700000000000 0.5032500000000000 0.1017000000000000
0.0555700000000000 0.5032500000000001 0.6016999999999999
0.5555700000000000 0.0032500000000000 0.1017000000000000
0.5555700000000000 0.0032500000000000 0.6016999999999999
0.5555700000000000 0.5032500000000000 0.1017000000000000
0.5555700000000000 0.5032500000000001 0.6016999999999999
0.3860149999999999 0.4876000000000000 0.1607000000000000
0.3860149999999999 0.4876000000000000 0.6607000000000000
0.3860150000000000 0.9875999999999999 0.1607000000000000
0.3860150000000000 0.9875999999999999 0.6607000000000000
0.8860150000000000 0.4876000000000000 0.1607000000000000
0.8860150000000000 0.4876000000000000 0.6607000000000000
0.8860149999999999 0.9875999999999999 0.1607000000000000
0.8860149999999999 0.9875999999999999 0.6607000000000000
0.3755999999999999 0.4772999999999999 0.1908999999999999
0.3755999999999999 0.4773000000000000 0.6908999999999998
0.3755999999999999 0.9773000000000001 0.1908999999999999
0.3756000000000000 0.9773000000000001 0.6908999999999998
0.8755999999999998 0.4772999999999999 0.1908999999999999
0.8755999999999998 0.4773000000000000 0.6908999999999998
0.8755999999999997 0.9773000000000001 0.1908999999999999
0.8755999999999997 0.9773000000000001 0.6908999999999998
0.1358000000000000 0.0000000000000000 0.1250000000000000
0.1358000000000000 0.0000000000000000 0.6249999999999999
0.1358000000000000 0.4999999999999999 0.1250000000000000
0.1358000000000000 0.4999999999999999 0.6249999999999999
0.6357999999999999 0.0000000000000000 0.1250000000000000
0.6357999999999999 0.0000000000000000 0.6249999999999999
0.6357999999999999 0.4999999999999999 0.1250000000000000
0.6357999999999999 0.4999999999999999 0.6249999999999999
0.3535500000000000 0.0000000000000000 0.1250000000000000
0.3535500000000000 0.0000000000000000 0.6249999999999999
0.3535499999999999 0.4999999999999999 0.1250000000000000
0.3535499999999999 0.4999999999999999 0.6249999999999999
0.8535500000000000 0.0000000000000000 0.1250000000000000
0.8535500000000000 0.0000000000000000 0.6249999999999999
0.8535500000000000 0.4999999999999999 0.1250000000000000
0.8535500000000000 0.4999999999999999 0.6249999999999999
0.1035500000000000 0.0050500000000000 0.0878500000000000
0.1035500000000000 0.0050500000000000 0.5878499999999999
0.1035500000000000 0.5050500000000000 0.0878500000000000
0.1035500000000000 0.5050500000000000 0.5878499999999999
0.6035500000000000 0.0050500000000000 0.0878500000000000
0.6035500000000000 0.0050500000000000 0.5878499999999999
0.6035500000000000 0.5050500000000000 0.0878500000000000
0.6035500000000000 0.5050500000000000 0.5878499999999999
0.1140000000000000 0.0093000000000000 0.0564500000000000
0.1140000000000000 0.0093000000000000 0.5564499999999999
0.1140000000000000 0.5093000000000000 0.0564500000000000
0.1140000000000000 0.5093000000000001 0.5564499999999999
0.6140000000000000 0.0093000000000000 0.0564500000000000
0.6140000000000000 0.0093000000000000 0.5564499999999999
0.6140000000000000 0.5093000000000000 0.0564500000000000
0.6140000000000000 0.5093000000000001 0.5564499999999999
0.2977500000000000 0.0000000000000000 0.1250000000000000
0.2977500000000000 0.0000000000000000 0.6249999999999999
0.2977500000000000 0.4999999999999999 0.1250000000000000
0.2977500000000000 0.4999999999999999 0.6249999999999999
0.7977499999999998 0.0000000000000000 0.1250000000000000
0.7977499999999998 0.0000000000000000 0.6249999999999999
0.7977499999999998 0.4999999999999999 0.1250000000000000
0.7977499999999998 0.4999999999999999 0.6249999999999999
0.1919500000000000 0.0000000000000000 0.1250000000000000
0.1919500000000000 0.0000000000000000 0.6249999999999999
0.1919500000000000 0.4999999999999999 0.1250000000000000
0.1919500000000000 0.4999999999999999 0.6249999999999999
0.6919500000000001 0.0000000000000000 0.1250000000000000
0.6919500000000001 0.0000000000000000 0.6249999999999999
0.6919500000000001 0.4999999999999999 0.1250000000000000
0.6919500000000001 0.4999999999999999 0.6249999999999999
0.2188500000000000 0.0113000000000000 0.0855500000000000
0.2188500000000000 0.0113000000000000 0.5855499999999999
0.2188500000000000 0.5113000000000000 0.0855500000000000
0.2188500000000000 0.5113000000000000 0.5855499999999999
0.7188500000000000 0.0113000000000000 0.0855500000000000
0.7188500000000000 0.0113000000000000 0.5855499999999999
0.7188500000000000 0.5113000000000000 0.0855500000000000
0.7188500000000000 0.5113000000000000 0.5855499999999999
0.2013500000000000 0.0198000000000000 0.0578000000000000
0.2013500000000000 0.0198000000000000 0.5578000000000000
0.2013500000000000 0.5198000000000000 0.0578000000000000
0.2013500000000000 0.5198000000000000 0.5578000000000000
0.7013500000000000 0.0198000000000000 0.0578000000000000
0.7013500000000000 0.0198000000000000 0.5578000000000000
0.7013500000000000 0.5198000000000000 0.0578000000000000
0.7013500000000000 0.5198000000000000 0.5578000000000000
0.2705500000000000 0.0105499999999999 0.0854000000000000
0.2705500000000000 0.0105499999999999 0.5853999999999999
0.2705500000000000 0.5105499999999999 0.0854000000000000
0.2705500000000000 0.5105499999999999 0.5853999999999999
0.7705500000000001 0.0105499999999999 0.0854000000000000
0.7705500000000001 0.0105499999999999 0.5853999999999999
0.7705500000000001 0.5105499999999999 0.0854000000000000
0.7705500000000001 0.5105499999999999 0.5853999999999999
0.2879500000000000 0.0175000000000000 0.0572500000000000
0.2879499999999999 0.0175000000000000 0.5572499999999999
0.2879499999999999 0.5175000000000000 0.0572500000000000
0.2879499999999999 0.5175000000000001 0.5572499999999999
0.7879499999999998 0.0175000000000000 0.0572500000000000
0.7879499999999998 0.0175000000000000 0.5572499999999999
0.7879499999999998 0.5175000000000000 0.0572500000000000
0.7879499999999998 0.5175000000000001 0.5572499999999999
