%BLOCK LATTICE_CART
ang    # angstrom units
  13.270800000000    0.000000000000     0.000000000000   
  0.000000000000     13.270800000000    0.000000000000   
  0.000000000000     0.000000000000     14.350200000000  
%ENDBLOCK LATTICE_CART

%BLOCK POSITIONS_FRAC
Co     0.494420000000     0.494420000000     0.187500000000   
N      0.433710000000     0.492000000000     0.147455000000   
N      0.055570000000     0.003250000000     0.101700000000   
C      0.386015000000     0.487600000000     0.160700000000   
H      0.375600000000     0.477300000000     0.190900000000   
C      0.135800000000     0.000000000000     0.125000000000   
C      0.353550000000     0.000000000000     0.125000000000   
C      0.103550000000     0.005050000000     0.087850000000   
H      0.114000000000     0.009300000000     0.056450000000   
C      0.297750000000     0.000000000000     0.125000000000   
C      0.191950000000     0.000000000000     0.125000000000   
C      0.218850000000     0.011300000000     0.085550000000   
H      0.201350000000     0.019800000000     0.057800000000   
C      0.270550000000     0.010550000000     0.085400000000   
H      0.287950000000     0.017500000000     0.057250000000   
Co     0.494420000000     0.494420000000     0.687500000000   
N      0.433710000000     0.492000000000     0.647455000000   
N      0.055570000000     0.003250000000     0.601700000000   
C      0.386015000000     0.487600000000     0.660700000000   
H      0.375600000000     0.477300000000     0.690900000000   
C      0.135800000000     0.000000000000     0.625000000000   
C      0.353550000000     0.000000000000     0.625000000000   
C      0.103550000000     0.005050000000     0.587850000000   
H      0.114000000000     0.009300000000     0.556450000000   
C      0.297750000000     0.000000000000     0.625000000000   
C      0.191950000000     0.000000000000     0.625000000000   
C      0.218850000000     0.011300000000     0.585550000000   
H      0.201350000000     0.019800000000     0.557800000000   
C      0.270550000000     0.010550000000     0.585400000000   
H      0.287950000000     0.017500000000     0.557250000000   
Co     0.494420000000     0.994420000000     0.187500000000   
N      0.433710000000     0.992000000000     0.147455000000   
N      0.055570000000     0.503250000000     0.101700000000   
C      0.386015000000     0.987600000000     0.160700000000   
H      0.375600000000     0.977300000000     0.190900000000   
C      0.135800000000     0.500000000000     0.125000000000   
C      0.353550000000     0.500000000000     0.125000000000   
C      0.103550000000     0.505050000000     0.087850000000   
H      0.114000000000     0.509300000000     0.056450000000   
C      0.297750000000     0.500000000000     0.125000000000   
C      0.191950000000     0.500000000000     0.125000000000   
C      0.218850000000     0.511300000000     0.085550000000   
H      0.201350000000     0.519800000000     0.057800000000   
C      0.270550000000     0.510550000000     0.085400000000   
H      0.287950000000     0.517500000000     0.057250000000   
Co     0.494420000000     0.994420000000     0.687500000000   
N      0.433710000000     0.992000000000     0.647455000000   
N      0.055570000000     0.503250000000     0.601700000000   
C      0.386015000000     0.987600000000     0.660700000000   
H      0.375600000000     0.977300000000     0.690900000000   
C      0.135800000000     0.500000000000     0.625000000000   
C      0.353550000000     0.500000000000     0.625000000000   
C      0.103550000000     0.505050000000     0.587850000000   
H      0.114000000000     0.509300000000     0.556450000000   
C      0.297750000000     0.500000000000     0.625000000000   
C      0.191950000000     0.500000000000     0.625000000000   
C      0.218850000000     0.511300000000     0.585550000000   
H      0.201350000000     0.519800000000     0.557800000000   
C      0.270550000000     0.510550000000     0.585400000000   
H      0.287950000000     0.517500000000     0.557250000000   
Co     0.994420000000     0.494420000000     0.187500000000   
N      0.933710000000     0.492000000000     0.147455000000   
N      0.555570000000     0.003250000000     0.101700000000   
C      0.886015000000     0.487600000000     0.160700000000   
H      0.875600000000     0.477300000000     0.190900000000   
C      0.635800000000     0.000000000000     0.125000000000   
C      0.853550000000     0.000000000000     0.125000000000   
C      0.603550000000     0.005050000000     0.087850000000   
H      0.614000000000     0.009300000000     0.056450000000   
C      0.797750000000     0.000000000000     0.125000000000   
C      0.691950000000     0.000000000000     0.125000000000   
C      0.718850000000     0.011300000000     0.085550000000   
H      0.701350000000     0.019800000000     0.057800000000   
C      0.770550000000     0.010550000000     0.085400000000   
H      0.787950000000     0.017500000000     0.057250000000   
Co     0.994420000000     0.494420000000     0.687500000000   
N      0.933710000000     0.492000000000     0.647455000000   
N      0.555570000000     0.003250000000     0.601700000000   
C      0.886015000000     0.487600000000     0.660700000000   
H      0.875600000000     0.477300000000     0.690900000000   
C      0.635800000000     0.000000000000     0.625000000000   
C      0.853550000000     0.000000000000     0.625000000000   
C      0.603550000000     0.005050000000     0.587850000000   
H      0.614000000000     0.009300000000     0.556450000000   
C      0.797750000000     0.000000000000     0.625000000000   
C      0.691950000000     0.000000000000     0.625000000000   
C      0.718850000000     0.011300000000     0.585550000000   
H      0.701350000000     0.019800000000     0.557800000000   
C      0.770550000000     0.010550000000     0.585400000000   
H      0.787950000000     0.017500000000     0.557250000000   
Co     0.994420000000     0.994420000000     0.187500000000   
N      0.933710000000     0.992000000000     0.147455000000   
N      0.555570000000     0.503250000000     0.101700000000   
C      0.886015000000     0.987600000000     0.160700000000   
H      0.875600000000     0.977300000000     0.190900000000   
C      0.635800000000     0.500000000000     0.125000000000   
C      0.853550000000     0.500000000000     0.125000000000   
C      0.603550000000     0.505050000000     0.087850000000   
H      0.614000000000     0.509300000000     0.056450000000   
C      0.797750000000     0.500000000000     0.125000000000   
C      0.691950000000     0.500000000000     0.125000000000   
C      0.718850000000     0.511300000000     0.085550000000   
H      0.701350000000     0.519800000000     0.057800000000   
C      0.770550000000     0.510550000000     0.085400000000   
H      0.787950000000     0.517500000000     0.057250000000   
Co     0.994420000000     0.994420000000     0.687500000000   
N      0.933710000000     0.992000000000     0.647455000000   
N      0.555570000000     0.503250000000     0.601700000000   
C      0.886015000000     0.987600000000     0.660700000000   
H      0.875600000000     0.977300000000     0.690900000000   
C      0.635800000000     0.500000000000     0.625000000000   
C      0.853550000000     0.500000000000     0.625000000000   
C      0.603550000000     0.505050000000     0.587850000000   
H      0.614000000000     0.509300000000     0.556450000000   
C      0.797750000000     0.500000000000     0.625000000000   
C      0.691950000000     0.500000000000     0.625000000000   
C      0.718850000000     0.511300000000     0.585550000000   
H      0.701350000000     0.519800000000     0.557800000000   
C      0.770550000000     0.510550000000     0.585400000000   
H      0.787950000000     0.517500000000     0.557250000000   
%ENDBLOCK POSITIONS_FRAC
