# Co-dmd_mkt009s_sq
1.000000
 26.5781999999999989   0.0000000000000000         0.0000000000
  0.0000000000000016  26.5781999999999989         0.0000000000
  0.0000000000000026   0.0000000000000026        43.2262000000
Co Co N N N N N N C H C C H C C H C H C C H C H C H C C H C H C C C H C H C C C H F F F F F F 
4 4 4 4 4 4 4 4 4 4 4 4 4 4 4 4 4 4 4 4 4 4 4 4 4 4 4 4 4 4 4 4 4 4 4 4 4 4 4 4 4 4 4 4 4 4 
Direct
0.4989300000000000 0.0147700000000000 0.0419700000000000
0.4989300000000000 0.5147699999999999 0.0419700000000000
0.9989300000000001 0.0147700000000000 0.0419700000000000
0.9989300000000001 0.5147699999999999 0.0419700000000000
0.4995800000000000 0.4995800000000001 0.1250000000000000
0.4995800000000001 0.9995800000000000 0.1250000000000000
0.9995800000000000 0.4995800000000001 0.1250000000000000
0.9995799999999999 0.9995800000000000 0.1250000000000000
0.0604000000000000 0.0149500000000000 0.0681900000000000
0.0604000000000000 0.5149500000000000 0.0681900000000000
0.5604000000000000 0.0149500000000000 0.0681900000000000
0.5604000000000000 0.5149500000000000 0.0681900000000000
0.0593500000000000 0.0018000000000000 0.0980800000000000
0.0593500000000000 0.5018000000000001 0.0980800000000000
0.5593500000000001 0.0018000000000000 0.0980800000000000
0.5593500000000001 0.5018000000000001 0.0980800000000000
0.4382000000000000 0.0124000000000000 0.0684100000000000
0.4382000000000000 0.5124000000000000 0.0684100000000000
0.9382000000000000 0.0124000000000000 0.0684100000000000
0.9382000000000000 0.5124000000000000 0.0684100000000000
0.4382500000000001 0.0010500000000000 0.0992700000000000
0.4382500000000000 0.5010500000000000 0.0992700000000000
0.9382500000000000 0.0010500000000000 0.0992700000000000
0.9382500000000000 0.5010500000000000 0.0992700000000000
0.4975499999999999 0.4542000000000000 0.0153300000000000
0.4975500000000000 0.9542000000000000 0.0153300000000000
0.9975499999999999 0.4542000000000000 0.0153300000000000
0.9975499999999998 0.9542000000000000 0.0153300000000000
0.0018000000000000 0.0760500000000000 0.0160200000000000
0.0018000000000000 0.5760500000000000 0.0160200000000000
0.5018000000000001 0.0760500000000000 0.0160200000000000
0.5018000000000001 0.5760500000000000 0.0160200000000000
0.1075000000000000 0.0205500000000000 0.0596800000000000
0.1075000000000000 0.5205500000000000 0.0596800000000000
0.6075000000000000 0.0205500000000000 0.0596800000000000
0.6075000000000000 0.5205500000000000 0.0596800000000000
0.1179500000000000 0.0312000000000000 0.0402000000000000
0.1179500000000000 0.5312000000000000 0.0402000000000000
0.6179500000000000 0.0312000000000000 0.0402000000000000
0.6179500000000000 0.5312000000000000 0.0402000000000000
0.1394000000000000 0.0082500000000000 0.0838500000000000
0.1394000000000000 0.5082500000000000 0.0838500000000000
0.6394000000000001 0.0082500000000000 0.0838500000000000
0.6394000000000001 0.5082500000000000 0.0838500000000000
0.1073500000000000 0.0000500000000000 0.1072400000000000
0.1073500000000000 0.5000500000000000 0.1072400000000000
0.6073500000000002 0.0000500000000000 0.1072400000000000
0.6073500000000002 0.5000500000000000 0.1072400000000000
0.1173000000000000 0.4939000000000001 0.1275000000000000
0.1173000000000000 0.9939000000000001 0.1275000000000000
0.6173000000000000 0.4939000000000001 0.1275000000000000
0.6172999999999998 0.9939000000000001 0.1275000000000000
0.1953000000000000 0.0079500000000000 0.0838200000000000
0.1953000000000000 0.5079500000000001 0.0838200000000000
0.6953000000000001 0.0079500000000000 0.0838200000000000
0.6953000000000001 0.5079500000000001 0.0838200000000000
0.2233500000000000 0.0169500000000000 0.0570400000000000
0.2233500000000000 0.5169500000000001 0.0570400000000000
0.7233499999999999 0.0169500000000000 0.0570400000000000
0.7233499999999999 0.5169500000000001 0.0570400000000000
0.2066500000000000 0.0235000000000000 0.0386000000000000
0.2066500000000000 0.5235000000000000 0.0386000000000000
0.7066500000000000 0.0235000000000000 0.0386000000000000
0.7066500000000000 0.5235000000000000 0.0386000000000000
0.2753500000000000 0.0163000000000000 0.0573600000000000
0.2753500000000000 0.5163000000000000 0.0573600000000000
0.7753500000000000 0.0163000000000000 0.0573600000000000
0.7753500000000000 0.5163000000000000 0.0573600000000000
0.2926500000000000 0.0220000000000000 0.0390000000000000
0.2926500000000000 0.5220000000000000 0.0390000000000000
0.7926500000000001 0.0220000000000000 0.0390000000000000
0.7926500000000001 0.5220000000000000 0.0390000000000000
0.3024500000000001 0.0076000000000000 0.0839100000000000
0.3024500000000000 0.5076000000000001 0.0839100000000000
0.8024500000000001 0.0076000000000000 0.0839100000000000
0.8024500000000001 0.5076000000000001 0.0839100000000000
0.2749500000000000 0.0005000000000000 0.1100700000000000
0.2749500000000000 0.5004999999999999 0.1100700000000000
0.7749500000000000 0.0005000000000000 0.1100700000000000
0.7749500000000000 0.5004999999999999 0.1100700000000000
0.2918500000000000 0.4967000000000000 0.1288000000000000
0.2918500000000001 0.9967000000000000 0.1288000000000000
0.7918499999999999 0.4967000000000000 0.1288000000000000
0.7918499999999998 0.9967000000000000 0.1288000000000000
0.2224000000000000 0.4986500000000000 0.1101400000000000
0.2224000000000000 0.9986500000000000 0.1101400000000000
0.7223999999999999 0.4986500000000000 0.1101400000000000
0.7223999999999998 0.9986500000000000 0.1101400000000000
0.2055500000000000 0.4909500000000000 0.1284000000000000
0.2055500000000000 0.9909500000000000 0.1284000000000000
0.7055500000000000 0.4909500000000000 0.1284000000000000
0.7055499999999999 0.9909500000000000 0.1284000000000000
0.3900500000000001 0.0149500000000000 0.0595400000000000
0.3900500000000000 0.5149500000000000 0.0595400000000000
0.8900500000000000 0.0149500000000000 0.0595400000000000
0.8900500000000000 0.5149500000000000 0.0595400000000000
0.3796000000000000 0.0211000000000000 0.0393000000000000
0.3795999999999999 0.5211000000000000 0.0393000000000000
0.8795999999999999 0.0211000000000000 0.0393000000000000
0.8795999999999999 0.5211000000000000 0.0393000000000000
0.3581000000000000 0.0074000000000000 0.0838700000000000
0.3580999999999999 0.5074000000000001 0.0838700000000000
0.8581000000000001 0.0074000000000000 0.0838700000000000
0.8581000000000001 0.5074000000000001 0.0838700000000000
0.3904500000000000 0.4972500000000000 0.1085400000000000
0.3904500000000001 0.9972500000000000 0.1085400000000000
0.8904500000000000 0.4972500000000000 0.1085400000000000
0.8904499999999999 0.9972500000000000 0.1085400000000000
0.3802500000000000 0.4890000000000000 0.1285000000000000
0.3802500000000000 0.9890000000000000 0.1285000000000000
0.8802500000000001 0.4890000000000000 0.1285000000000000
0.8802500000000000 0.9890000000000000 0.1285000000000000
0.4932000000000001 0.4070500000000000 0.0242700000000000
0.4932000000000001 0.9070500000000000 0.0242700000000000
0.9932000000000002 0.4070500000000000 0.0242700000000000
0.9932000000000001 0.9070500000000000 0.0242700000000000
0.4864000000000001 0.3969500000000000 0.0444000000000000
0.4864000000000001 0.8969500000000000 0.0444000000000000
0.9864000000000001 0.3969500000000000 0.0444000000000000
0.9864000000000001 0.8969500000000000 0.0444000000000000
0.0000000000000000 0.3749500000000001 0.0000000000000000
0.0000000000000000 0.8749500000000001 0.0000000000000000
0.5000000000000000 0.3749500000000001 0.0000000000000000
0.5000000000000001 0.8749500000000001 0.0000000000000000
0.0000000000000000 0.3189500000000000 0.0000000000000000
0.0000000000000000 0.8189500000000002 0.0000000000000000
0.5000000000000000 0.3189500000000000 0.0000000000000000
0.5000000000000001 0.8189500000000002 0.0000000000000000
0.4998000000000001 0.2904500000000000 0.0269300000000000
0.4998000000000001 0.7904500000000000 0.0269300000000000
0.9998000000000001 0.2904500000000000 0.0269300000000000
0.9998000000000001 0.7904500000000000 0.0269300000000000
0.0010500000000000 0.3070000000000000 0.0459000000000000
0.0010500000000000 0.8069999999999999 0.0459000000000000
0.5010500000000000 0.3070000000000000 0.0459000000000000
0.5010500000000001 0.8069999999999999 0.0459000000000000
0.4979000000000000 0.2392500000000000 0.0266900000000000
0.4979000000000000 0.7392500000000001 0.0266900000000000
0.9979000000000001 0.2392500000000000 0.0266900000000000
0.9979000000000001 0.7392500000000001 0.0266900000000000
0.4950500000000000 0.2224000000000000 0.0455000000000000
0.4950500000000000 0.7223999999999999 0.0455000000000000
0.9950500000000001 0.2224000000000000 0.0455000000000000
0.9950500000000001 0.7223999999999999 0.0455000000000000
0.0000000000000000 0.2114000000000000 0.0000000000000000
0.0000000000000000 0.7114000000000000 0.0000000000000000
0.5000000000000000 0.2114000000000000 0.0000000000000000
0.5000000000000001 0.7114000000000000 0.0000000000000000
0.0000000000000000 0.1560500000000000 0.0000000000000000
0.0000000000000000 0.6560500000000001 0.0000000000000000
0.5000000000000000 0.1560500000000000 0.0000000000000000
0.5000000000000001 0.6560500000000001 0.0000000000000000
0.0004500000000000 0.1232000000000000 0.0247600000000000
0.0004500000000000 0.6232000000000000 0.0247600000000000
0.5004500000000000 0.1232000000000000 0.0247600000000000
0.5004500000000001 0.6232000000000000 0.0247600000000000
0.4999000000000001 0.1334000000000000 0.0453000000000000
0.4999000000000001 0.6334000000000001 0.0453000000000000
0.9999000000000001 0.1334000000000000 0.0453000000000000
0.9999000000000001 0.6334000000000001 0.0453000000000000
0.2969000000000000 0.4881000000000000 0.1378000000000000
0.2969000000000001 0.9881000000000000 0.1378000000000000
0.7969000000000001 0.4881000000000000 0.1378000000000000
0.7968999999999999 0.9881000000000000 0.1378000000000000
0.1993500000000000 0.4905000000000000 0.1374100000000000
0.1993500000000000 0.9905000000000000 0.1374100000000000
0.6993500000000001 0.4905000000000000 0.1374100000000000
0.6993500000000000 0.9905000000000000 0.1374100000000000
0.4978500000000000 0.3142500000000001 0.0544800000000000
0.4978500000000000 0.8142500000000001 0.0544800000000000
0.9978500000000000 0.3142500000000001 0.0544800000000000
0.9978500000000000 0.8142500000000001 0.0544800000000000
0.4982500000000000 0.2172500000000000 0.0546300000000000
0.4982500000000000 0.7172499999999999 0.0546300000000000
0.9982500000000001 0.2172500000000000 0.0546300000000000
0.9982500000000001 0.7172499999999999 0.0546300000000000
0.2015000000000000 0.0215000000000000 0.0278000000000000
0.2015000000000000 0.5215000000000000 0.0278000000000000
0.7015000000000001 0.0215000000000000 0.0278000000000000
0.7015000000000001 0.5215000000000000 0.0278000000000000
0.2984000000000000 0.0155000000000000 0.0280000000000000
0.2984000000000000 0.5155000000000000 0.0280000000000000
0.7984000000000001 0.0155000000000000 0.0280000000000000
0.7984000000000001 0.5155000000000000 0.0280000000000000
