%BLOCK LATTICE_CART
ang    # angstrom units
  13.289100000000    0.000000000000     0.000000000000   
  0.000000000000     13.289100000000    0.000000000000   
  0.000000000000     0.000000000000     43.226200000000  
%ENDBLOCK LATTICE_CART

%BLOCK POSITIONS_FRAC
Co     0.498930000000     0.014770000000     0.041970000000   
Co     0.499580000000     0.499580000000     0.125000000000   
N      0.060400000000     0.014950000000     0.068190000000   
N      0.059350000000     0.001800000000     0.098080000000   
N      0.438200000000     0.012400000000     0.068410000000   
N      0.438250000000     0.001050000000     0.099270000000   
N      0.497550000000     0.454200000000     0.015330000000   
N      0.001800000000     0.076050000000     0.016020000000   
C      0.107500000000     0.020550000000     0.059680000000   
H      0.117950000000     0.031200000000     0.040200000000   
C      0.139400000000     0.008250000000     0.083850000000   
C      0.107350000000     0.000050000000     0.107240000000   
H      0.117300000000     0.493900000000     0.127500000000   
C      0.195300000000     0.007950000000     0.083820000000   
C      0.223350000000     0.016950000000     0.057040000000   
H      0.206650000000     0.023500000000     0.038600000000   
C      0.275350000000     0.016300000000     0.057360000000   
H      0.292650000000     0.022000000000     0.039000000000   
C      0.302450000000     0.007600000000     0.083910000000   
C      0.274950000000     0.000500000000     0.110070000000   
H      0.291850000000     0.496700000000     0.128800000000   
C      0.222400000000     0.498650000000     0.110140000000   
H      0.205550000000     0.490950000000     0.128400000000   
C      0.390050000000     0.014950000000     0.059540000000   
H      0.379600000000     0.021100000000     0.039300000000   
C      0.358100000000     0.007400000000     0.083870000000   
C      0.390450000000     0.497250000000     0.108540000000   
H      0.380250000000     0.489000000000     0.128500000000   
C      0.493200000000     0.407050000000     0.024270000000   
H      0.486400000000     0.396950000000     0.044400000000   
C      0.000000000000     0.374950000000     0.000000000000   
C      0.000000000000     0.318950000000     0.000000000000   
C      0.499800000000     0.290450000000     0.026930000000   
H      0.001050000000     0.307000000000     0.045900000000   
C      0.497900000000     0.239250000000     0.026690000000   
H      0.495050000000     0.222400000000     0.045500000000   
C      0.000000000000     0.211400000000     0.000000000000   
C      0.000000000000     0.156050000000     0.000000000000   
C      0.000450000000     0.123200000000     0.024760000000   
H      0.499900000000     0.133400000000     0.045300000000   
F      0.296900000000     0.488100000000     0.137800000000   
F      0.199350000000     0.490500000000     0.137410000000   
F      0.497850000000     0.314250000000     0.054480000000   
F      0.498250000000     0.217250000000     0.054630000000   
F      0.201500000000     0.021500000000     0.027800000000   
F      0.298400000000     0.015500000000     0.028000000000   
Co     0.498930000000     0.514770000000     0.041970000000   
Co     0.499580000000     0.999580000000     0.125000000000   
N      0.060400000000     0.514950000000     0.068190000000   
N      0.059350000000     0.501800000000     0.098080000000   
N      0.438200000000     0.512400000000     0.068410000000   
N      0.438250000000     0.501050000000     0.099270000000   
N      0.497550000000     0.954200000000     0.015330000000   
N      0.001800000000     0.576050000000     0.016020000000   
C      0.107500000000     0.520550000000     0.059680000000   
H      0.117950000000     0.531200000000     0.040200000000   
C      0.139400000000     0.508250000000     0.083850000000   
C      0.107350000000     0.500050000000     0.107240000000   
H      0.117300000000     0.993900000000     0.127500000000   
C      0.195300000000     0.507950000000     0.083820000000   
C      0.223350000000     0.516950000000     0.057040000000   
H      0.206650000000     0.523500000000     0.038600000000   
C      0.275350000000     0.516300000000     0.057360000000   
H      0.292650000000     0.522000000000     0.039000000000   
C      0.302450000000     0.507600000000     0.083910000000   
C      0.274950000000     0.500500000000     0.110070000000   
H      0.291850000000     0.996700000000     0.128800000000   
C      0.222400000000     0.998650000000     0.110140000000   
H      0.205550000000     0.990950000000     0.128400000000   
C      0.390050000000     0.514950000000     0.059540000000   
H      0.379600000000     0.521100000000     0.039300000000   
C      0.358100000000     0.507400000000     0.083870000000   
C      0.390450000000     0.997250000000     0.108540000000   
H      0.380250000000     0.989000000000     0.128500000000   
C      0.493200000000     0.907050000000     0.024270000000   
H      0.486400000000     0.896950000000     0.044400000000   
C      0.000000000000     0.874950000000     0.000000000000   
C      0.000000000000     0.818950000000     0.000000000000   
C      0.499800000000     0.790450000000     0.026930000000   
H      0.001050000000     0.807000000000     0.045900000000   
C      0.497900000000     0.739250000000     0.026690000000   
H      0.495050000000     0.722400000000     0.045500000000   
C      0.000000000000     0.711400000000     0.000000000000   
C      0.000000000000     0.656050000000     0.000000000000   
C      0.000450000000     0.623200000000     0.024760000000   
H      0.499900000000     0.633400000000     0.045300000000   
F      0.296900000000     0.988100000000     0.137800000000   
F      0.199350000000     0.990500000000     0.137410000000   
F      0.497850000000     0.814250000000     0.054480000000   
F      0.498250000000     0.717250000000     0.054630000000   
F      0.201500000000     0.521500000000     0.027800000000   
F      0.298400000000     0.515500000000     0.028000000000   
Co     0.998930000000     0.014770000000     0.041970000000   
Co     0.999580000000     0.499580000000     0.125000000000   
N      0.560400000000     0.014950000000     0.068190000000   
N      0.559350000000     0.001800000000     0.098080000000   
N      0.938200000000     0.012400000000     0.068410000000   
N      0.938250000000     0.001050000000     0.099270000000   
N      0.997550000000     0.454200000000     0.015330000000   
N      0.501800000000     0.076050000000     0.016020000000   
C      0.607500000000     0.020550000000     0.059680000000   
H      0.617950000000     0.031200000000     0.040200000000   
C      0.639400000000     0.008250000000     0.083850000000   
C      0.607350000000     0.000050000000     0.107240000000   
H      0.617300000000     0.493900000000     0.127500000000   
C      0.695300000000     0.007950000000     0.083820000000   
C      0.723350000000     0.016950000000     0.057040000000   
H      0.706650000000     0.023500000000     0.038600000000   
C      0.775350000000     0.016300000000     0.057360000000   
H      0.792650000000     0.022000000000     0.039000000000   
C      0.802450000000     0.007600000000     0.083910000000   
C      0.774950000000     0.000500000000     0.110070000000   
H      0.791850000000     0.496700000000     0.128800000000   
C      0.722400000000     0.498650000000     0.110140000000   
H      0.705550000000     0.490950000000     0.128400000000   
C      0.890050000000     0.014950000000     0.059540000000   
H      0.879600000000     0.021100000000     0.039300000000   
C      0.858100000000     0.007400000000     0.083870000000   
C      0.890450000000     0.497250000000     0.108540000000   
H      0.880250000000     0.489000000000     0.128500000000   
C      0.993200000000     0.407050000000     0.024270000000   
H      0.986400000000     0.396950000000     0.044400000000   
C      0.500000000000     0.374950000000     0.000000000000   
C      0.500000000000     0.318950000000     0.000000000000   
C      0.999800000000     0.290450000000     0.026930000000   
H      0.501050000000     0.307000000000     0.045900000000   
C      0.997900000000     0.239250000000     0.026690000000   
H      0.995050000000     0.222400000000     0.045500000000   
C      0.500000000000     0.211400000000     0.000000000000   
C      0.500000000000     0.156050000000     0.000000000000   
C      0.500450000000     0.123200000000     0.024760000000   
H      0.999900000000     0.133400000000     0.045300000000   
F      0.796900000000     0.488100000000     0.137800000000   
F      0.699350000000     0.490500000000     0.137410000000   
F      0.997850000000     0.314250000000     0.054480000000   
F      0.998250000000     0.217250000000     0.054630000000   
F      0.701500000000     0.021500000000     0.027800000000   
F      0.798400000000     0.015500000000     0.028000000000   
Co     0.998930000000     0.514770000000     0.041970000000   
Co     0.999580000000     0.999580000000     0.125000000000   
N      0.560400000000     0.514950000000     0.068190000000   
N      0.559350000000     0.501800000000     0.098080000000   
N      0.938200000000     0.512400000000     0.068410000000   
N      0.938250000000     0.501050000000     0.099270000000   
N      0.997550000000     0.954200000000     0.015330000000   
N      0.501800000000     0.576050000000     0.016020000000   
C      0.607500000000     0.520550000000     0.059680000000   
H      0.617950000000     0.531200000000     0.040200000000   
C      0.639400000000     0.508250000000     0.083850000000   
C      0.607350000000     0.500050000000     0.107240000000   
H      0.617300000000     0.993900000000     0.127500000000   
C      0.695300000000     0.507950000000     0.083820000000   
C      0.723350000000     0.516950000000     0.057040000000   
H      0.706650000000     0.523500000000     0.038600000000   
C      0.775350000000     0.516300000000     0.057360000000   
H      0.792650000000     0.522000000000     0.039000000000   
C      0.802450000000     0.507600000000     0.083910000000   
C      0.774950000000     0.500500000000     0.110070000000   
H      0.791850000000     0.996700000000     0.128800000000   
C      0.722400000000     0.998650000000     0.110140000000   
H      0.705550000000     0.990950000000     0.128400000000   
C      0.890050000000     0.514950000000     0.059540000000   
H      0.879600000000     0.521100000000     0.039300000000   
C      0.858100000000     0.507400000000     0.083870000000   
C      0.890450000000     0.997250000000     0.108540000000   
H      0.880250000000     0.989000000000     0.128500000000   
C      0.993200000000     0.907050000000     0.024270000000   
H      0.986400000000     0.896950000000     0.044400000000   
C      0.500000000000     0.874950000000     0.000000000000   
C      0.500000000000     0.818950000000     0.000000000000   
C      0.999800000000     0.790450000000     0.026930000000   
H      0.501050000000     0.807000000000     0.045900000000   
C      0.997900000000     0.739250000000     0.026690000000   
H      0.995050000000     0.722400000000     0.045500000000   
C      0.500000000000     0.711400000000     0.000000000000   
C      0.500000000000     0.656050000000     0.000000000000   
C      0.500450000000     0.623200000000     0.024760000000   
H      0.999900000000     0.633400000000     0.045300000000   
F      0.796900000000     0.988100000000     0.137800000000   
F      0.699350000000     0.990500000000     0.137410000000   
F      0.997850000000     0.814250000000     0.054480000000   
F      0.998250000000     0.717250000000     0.054630000000   
F      0.701500000000     0.521500000000     0.027800000000   
F      0.798400000000     0.515500000000     0.028000000000   
%ENDBLOCK POSITIONS_FRAC
