# Co-MOF-9_1_a_sq_CCDC1
1.000000
 28.6182000000000016   0.0000000000000000         0.0000000000
  0.0000000000000018  29.0362000000000009         0.0000000000
 -8.9137593268221043   0.0000000000000027        33.9627393427
Co Co C C C H C C H C C H C C C H C H C H C H C H C H C H C C H C C H C C H C C H C C N N O O O O O O O O 
8 8 8 8 8 8 8 8 8 8 8 8 8 8 8 8 8 8 8 8 8 8 8 8 8 8 8 8 8 8 8 8 8 8 8 8 8 8 8 8 8 8 8 8 8 8 8 8 8 8 8 8 
Direct
0.4667100000000001 0.4555900000000001 0.2002900000000000
0.4667100000000001 0.4555900000000001 0.7002900000000001
0.4667100000000002 0.9555900000000002 0.2002900000000000
0.4667100000000002 0.9555900000000002 0.7002900000000001
0.9667100000000002 0.4555900000000001 0.2002900000000000
0.9667100000000003 0.4555900000000001 0.7002900000000001
0.9667100000000001 0.9555900000000002 0.2002900000000000
0.9667100000000002 0.9555900000000002 0.7002900000000001
0.1975400000000000 0.3153550000000001 0.1595050000000000
0.1975400000000000 0.3153550000000001 0.6595050000000001
0.1975400000000000 0.8153550000000003 0.1595050000000000
0.1975400000000000 0.8153550000000003 0.6595050000000001
0.6975400000000000 0.3153550000000001 0.1595050000000000
0.6975400000000002 0.3153550000000001 0.6595050000000001
0.6975400000000000 0.8153550000000003 0.1595050000000000
0.6975400000000002 0.8153550000000003 0.6595050000000001
0.4329500000000001 0.3765000000000001 0.1923500000000000
0.4329500000000001 0.3765000000000001 0.6923500000000001
0.4329500000000001 0.8765000000000003 0.1923500000000000
0.4329500000000001 0.8765000000000003 0.6923500000000001
0.9329500000000002 0.3765000000000001 0.1923500000000000
0.9329500000000002 0.3765000000000001 0.6923500000000001
0.9329500000000002 0.8765000000000003 0.1923500000000000
0.9329500000000002 0.8765000000000003 0.6923500000000001
0.4108500000000000 0.3298000000000000 0.1854000000000000
0.4108500000000000 0.3298000000000000 0.6854000000000000
0.4108500000000000 0.8298000000000001 0.1854000000000000
0.4108500000000000 0.8298000000000001 0.6854000000000000
0.9108500000000002 0.3298000000000000 0.1854000000000000
0.9108500000000002 0.3298000000000000 0.6854000000000000
0.9108500000000002 0.8298000000000001 0.1854000000000000
0.9108500000000002 0.8298000000000001 0.6854000000000000
0.4351000000000000 0.2945000000000000 0.1716500000000000
0.4351000000000000 0.2945000000000000 0.6716500000000001
0.4351000000000000 0.7945000000000001 0.1716500000000000
0.4351000000000000 0.7945000000000001 0.6716500000000001
0.9351000000000003 0.2945000000000000 0.1716500000000000
0.9351000000000003 0.2945000000000000 0.6716500000000001
0.9351000000000003 0.7945000000000001 0.1716500000000000
0.9351000000000003 0.7945000000000001 0.6716500000000001
0.4657500000000001 0.3001500000000000 0.1674500000000000
0.4657500000000001 0.3001500000000000 0.6674500000000001
0.4657500000000001 0.8001500000000000 0.1674500000000000
0.4657500000000002 0.8001500000000000 0.6674500000000001
0.9657500000000002 0.3001500000000000 0.1674500000000000
0.9657500000000001 0.3001500000000000 0.6674500000000001
0.9657500000000002 0.8001500000000000 0.1674500000000000
0.9657500000000001 0.8001500000000000 0.6674500000000001
0.4145000000000000 0.2506000000000000 0.1639500000000000
0.4145000000000000 0.2506000000000000 0.6639500000000000
0.4145000000000000 0.7506000000000002 0.1639500000000000
0.4145000000000000 0.7506000000000002 0.6639500000000000
0.9145000000000001 0.2506000000000000 0.1639500000000000
0.9145000000000002 0.2506000000000000 0.6639500000000000
0.9145000000000001 0.7506000000000002 0.1639500000000000
0.9145000000000002 0.7506000000000002 0.6639500000000000
0.3681500000000000 0.2438000000000000 0.1691000000000000
0.3681500000000000 0.2438000000000000 0.6691000000000000
0.3681500000000000 0.7438000000000001 0.1691000000000000
0.3681500000000000 0.7438000000000002 0.6691000000000000
0.8681500000000002 0.2438000000000000 0.1691000000000000
0.8681500000000002 0.2438000000000000 0.6691000000000000
0.8681500000000002 0.7438000000000001 0.1691000000000000
0.8681500000000002 0.7438000000000002 0.6691000000000000
0.3540000000000000 0.2144500000000000 0.1644000000000000
0.3540000000000000 0.2144500000000001 0.6644000000000000
0.3540000000000000 0.7144500000000001 0.1644000000000000
0.3540000000000000 0.7144500000000001 0.6644000000000000
0.8540000000000002 0.2144500000000000 0.1644000000000000
0.8540000000000001 0.2144500000000001 0.6644000000000000
0.8540000000000002 0.7144500000000001 0.1644000000000000
0.8540000000000001 0.7144500000000001 0.6644000000000000
0.3425500000000001 0.2791000000000001 0.1810000000000000
0.3425500000000000 0.2791000000000001 0.6810000000000000
0.3425500000000001 0.7791000000000001 0.1810000000000000
0.3425500000000000 0.7791000000000002 0.6810000000000000
0.8425500000000001 0.2791000000000001 0.1810000000000000
0.8425500000000002 0.2791000000000001 0.6810000000000000
0.8425500000000001 0.7791000000000001 0.1810000000000000
0.8425500000000002 0.7791000000000002 0.6810000000000000
0.3640000000000000 0.3222500000000000 0.1889000000000000
0.3640000000000000 0.3222500000000000 0.6889000000000002
0.3640000000000000 0.8222500000000001 0.1889000000000000
0.3640000000000000 0.8222500000000001 0.6889000000000002
0.8640000000000001 0.3222500000000000 0.1889000000000000
0.8640000000000002 0.3222500000000000 0.6889000000000002
0.8640000000000001 0.8222500000000001 0.1889000000000000
0.8640000000000002 0.8222500000000001 0.6889000000000002
0.3467500000000001 0.3465500000000001 0.1967000000000000
0.3467500000000000 0.3465500000000001 0.6967000000000000
0.3467500000000001 0.8465500000000001 0.1967000000000000
0.3467500000000000 0.8465500000000001 0.6967000000000000
0.8467500000000002 0.3465500000000001 0.1967000000000000
0.8467500000000001 0.3465500000000001 0.6967000000000000
0.8467500000000002 0.8465500000000001 0.1967000000000000
0.8467500000000001 0.8465500000000001 0.6967000000000000
0.2915500000000000 0.2718000000000000 0.1827500000000000
0.2915500000000000 0.2718000000000000 0.6827500000000001
0.2915500000000000 0.7718000000000003 0.1827500000000000
0.2915500000000000 0.7718000000000003 0.6827500000000001
0.7915500000000002 0.2718000000000000 0.1827500000000000
0.7915500000000001 0.2718000000000000 0.6827500000000001
0.7915500000000002 0.7718000000000003 0.1827500000000000
0.7915500000000001 0.7718000000000003 0.6827500000000001
0.4386000000000000 0.2135500000000000 0.1476500000000000
0.4386000000000001 0.2135500000000000 0.6476500000000001
0.4386000000000000 0.7135500000000001 0.1476500000000000
0.4386000000000001 0.7135500000000000 0.6476500000000001
0.9386000000000002 0.2135500000000000 0.1476500000000000
0.9386000000000001 0.2135500000000000 0.6476500000000001
0.9386000000000002 0.7135500000000001 0.1476500000000000
0.9386000000000001 0.7135500000000000 0.6476500000000001
0.4667500000000001 0.2219000000000000 0.1213000000000000
0.4667500000000000 0.2219000000000000 0.6213000000000000
0.4667500000000001 0.7219000000000001 0.1213000000000000
0.4667500000000000 0.7219000000000000 0.6213000000000000
0.9667500000000002 0.2219000000000000 0.1213000000000000
0.9667500000000001 0.2219000000000000 0.6213000000000000
0.9667500000000002 0.7219000000000001 0.1213000000000000
0.9667500000000001 0.7219000000000000 0.6213000000000000
0.4718000000000001 0.2523000000000001 0.1140000000000000
0.4718000000000001 0.2523000000000001 0.6140000000000000
0.4718000000000001 0.7523000000000001 0.1140000000000000
0.4718000000000000 0.7523000000000000 0.6140000000000000
0.9718000000000002 0.2523000000000001 0.1140000000000000
0.9718000000000002 0.2523000000000001 0.6140000000000000
0.9718000000000002 0.7523000000000001 0.1140000000000000
0.9718000000000002 0.7523000000000000 0.6140000000000000
0.4872500000000001 0.1857000000000000 0.1057500000000000
0.4872500000000001 0.1857000000000001 0.6057500000000000
0.4872500000000001 0.6857000000000001 0.1057500000000000
0.4872500000000001 0.6857000000000000 0.6057500000000000
0.9872500000000001 0.1857000000000000 0.1057500000000000
0.9872500000000002 0.1857000000000001 0.6057500000000000
0.9872500000000001 0.6857000000000001 0.1057500000000000
0.9872500000000002 0.6857000000000000 0.6057500000000000
0.0064500000000000 0.1911500000000000 0.0881000000000000
0.0064500000000000 0.1911500000000000 0.5881000000000000
0.0064500000000000 0.6911500000000000 0.0881000000000000
0.0064500000000000 0.6911500000000000 0.5881000000000000
0.5064500000000001 0.1911500000000000 0.0881000000000000
0.5064500000000001 0.1911500000000000 0.5881000000000000
0.5064500000000001 0.6911500000000000 0.0881000000000000
0.5064500000000001 0.6911500000000000 0.5881000000000000
0.4790500000000000 0.1415500000000000 0.1166000000000000
0.4790500000000001 0.1415500000000000 0.6166000000000001
0.4790500000000001 0.6415500000000002 0.1166000000000000
0.4790500000000001 0.6415500000000001 0.6166000000000001
0.9790500000000002 0.1415500000000000 0.1166000000000000
0.9790500000000002 0.1415500000000000 0.6166000000000001
0.9790500000000002 0.6415500000000002 0.1166000000000000
0.9790500000000002 0.6415500000000001 0.6166000000000001
0.4925500000000000 0.1170000000000000 0.1056000000000000
0.4925500000000000 0.1170000000000000 0.6056000000000000
0.4925500000000000 0.6170000000000001 0.1056000000000000
0.4925500000000000 0.6170000000000000 0.6056000000000000
0.9925500000000003 0.1170000000000000 0.1056000000000000
0.9925500000000003 0.1170000000000000 0.6056000000000000
0.9925500000000003 0.6170000000000001 0.1056000000000000
0.9925500000000003 0.6170000000000000 0.6056000000000000
0.4326000000000000 0.1671000000000000 0.1565500000000000
0.4326000000000000 0.1671000000000000 0.6565500000000000
0.4326000000000000 0.6671000000000001 0.1565500000000000
0.4326000000000001 0.6671000000000000 0.6565500000000000
0.9326000000000002 0.1671000000000000 0.1565500000000000
0.9326000000000001 0.1671000000000000 0.6565500000000000
0.9326000000000002 0.6671000000000001 0.1565500000000000
0.9326000000000001 0.6671000000000000 0.6565500000000000
0.4132500000000001 0.1602500000000000 0.1738000000000000
0.4132500000000001 0.1602500000000000 0.6738000000000001
0.4132500000000001 0.6602500000000002 0.1738000000000000
0.4132500000000001 0.6602500000000002 0.6738000000000001
0.9132500000000001 0.1602500000000000 0.1738000000000000
0.9132500000000001 0.1602500000000000 0.6738000000000001
0.9132500000000001 0.6602500000000002 0.1738000000000000
0.9132500000000001 0.6602500000000002 0.6738000000000001
0.0262000000000000 0.4765500000000001 0.2865500000000001
0.0262000000000000 0.4765500000000001 0.7865500000000001
0.0262000000000000 0.9765500000000003 0.2865500000000001
0.0262000000000000 0.9765500000000003 0.7865500000000001
0.5262000000000000 0.4765500000000001 0.2865500000000001
0.5262000000000000 0.4765500000000001 0.7865500000000001
0.5262000000000002 0.9765500000000003 0.2865500000000001
0.5262000000000000 0.9765500000000003 0.7865500000000001
0.0093000000000000 0.0046500000000000 0.2830500000000001
0.0093000000000000 0.0046500000000000 0.7830500000000001
0.0093000000000000 0.5046500000000002 0.2830500000000001
0.0093000000000000 0.5046500000000000 0.7830500000000001
0.5093000000000001 0.0046500000000000 0.2830500000000001
0.5093000000000001 0.0046500000000000 0.7830500000000001
0.5093000000000001 0.5046500000000002 0.2830500000000001
0.5093000000000001 0.5046500000000000 0.7830500000000001
0.0585500000000000 0.4689000000000000 0.3212500000000000
0.0585500000000000 0.4689000000000001 0.8212500000000001
0.0585500000000000 0.9689000000000002 0.3212500000000000
0.0585500000000000 0.9689000000000002 0.8212500000000001
0.5585500000000000 0.4689000000000000 0.3212500000000000
0.5585500000000001 0.4689000000000001 0.8212500000000001
0.5585500000000001 0.9689000000000002 0.3212500000000000
0.5585500000000001 0.9689000000000002 0.8212500000000001
0.0618500000000000 0.4901000000000001 0.3420000000000000
0.0618500000000000 0.4901000000000001 0.8420000000000001
0.0618500000000000 0.9901000000000002 0.3420000000000000
0.0618500000000000 0.9901000000000002 0.8420000000000001
0.5618500000000000 0.4901000000000001 0.3420000000000000
0.5618500000000000 0.4901000000000001 0.8420000000000001
0.5618500000000000 0.9901000000000002 0.3420000000000000
0.5618500000000000 0.9901000000000002 0.8420000000000001
0.0867000000000000 0.4300500000000000 0.3261500000000000
0.0867000000000000 0.4300500000000000 0.8261499999999999
0.0867000000000000 0.9300500000000002 0.3261500000000000
0.0867000000000000 0.9300500000000002 0.8261499999999999
0.5867000000000001 0.4300500000000000 0.3261500000000000
0.5867000000000002 0.4300500000000000 0.8261499999999999
0.5867000000000001 0.9300500000000002 0.3261500000000000
0.5867000000000001 0.9300500000000002 0.8261499999999999
0.1100500000000000 0.4251000000000000 0.3499500000000000
0.1100500000000000 0.4251000000000000 0.8499500000000000
0.1100500000000000 0.9251000000000003 0.3499500000000000
0.1100500000000000 0.9251000000000003 0.8499500000000000
0.6100500000000001 0.4251000000000000 0.3499500000000000
0.6100500000000000 0.4251000000000000 0.8499500000000000
0.6100500000000000 0.9251000000000003 0.3499500000000000
0.6100500000000000 0.9251000000000003 0.8499500000000000
0.0806500000000000 0.3982500000000000 0.2961000000000000
0.0806500000000000 0.3982500000000000 0.7961000000000000
0.0806500000000000 0.8982500000000002 0.2961000000000000
0.0806500000000000 0.8982500000000002 0.7961000000000000
0.5806500000000000 0.3982500000000000 0.2961000000000000
0.5806500000000001 0.3982500000000000 0.7961000000000000
0.5806500000000000 0.8982500000000002 0.2961000000000000
0.5806500000000000 0.8982500000000002 0.7961000000000000
0.0449000000000000 0.4078500000000000 0.2624500000000000
0.0449000000000000 0.4078500000000000 0.7624500000000002
0.0449000000000000 0.9078500000000002 0.2624500000000000
0.0449000000000000 0.9078500000000002 0.7624500000000002
0.5449000000000002 0.4078500000000000 0.2624500000000000
0.5449000000000002 0.4078500000000000 0.7624500000000002
0.5449000000000002 0.9078500000000002 0.2624500000000000
0.5449000000000002 0.9078500000000002 0.7624500000000002
0.0397000000000000 0.3860500000000001 0.2420500000000000
0.0397000000000000 0.3860500000000001 0.7420500000000000
0.0397000000000000 0.8860500000000001 0.2420500000000000
0.0397000000000000 0.8860500000000001 0.7420500000000000
0.5397000000000001 0.3860500000000001 0.2420500000000000
0.5397000000000001 0.3860500000000001 0.7420500000000000
0.5397000000000001 0.8860500000000001 0.2420500000000000
0.5397000000000001 0.8860500000000001 0.7420500000000000
0.1097000000000000 0.3563500000000001 0.2963000000000001
0.1097000000000000 0.3563500000000001 0.7963000000000001
0.1097000000000000 0.8563500000000001 0.2963000000000001
0.1097000000000000 0.8563500000000002 0.7963000000000001
0.6097000000000001 0.3563500000000001 0.2963000000000001
0.6097000000000001 0.3563500000000001 0.7963000000000001
0.6097000000000001 0.8563500000000001 0.2963000000000001
0.6097000000000000 0.8563500000000002 0.7963000000000001
0.1244500000000000 0.3291500000000001 0.3297500000000000
0.1244500000000000 0.3291500000000001 0.8297500000000000
0.1244500000000000 0.8291500000000002 0.3297500000000000
0.1244500000000000 0.8291500000000003 0.8297500000000000
0.6244500000000002 0.3291500000000001 0.3297500000000000
0.6244500000000001 0.3291500000000001 0.8297500000000000
0.6244500000000002 0.8291500000000002 0.3297500000000000
0.6244499999999999 0.8291500000000003 0.8297500000000000
0.1174000000000000 0.3382000000000001 0.3534000000000000
0.1173999999999999 0.3382000000000001 0.8533999999999999
0.1174000000000000 0.8382000000000003 0.3534000000000000
0.1174000000000000 0.8382000000000003 0.8533999999999999
0.6174000000000002 0.3382000000000001 0.3534000000000000
0.6174000000000002 0.3382000000000001 0.8533999999999999
0.6174000000000002 0.8382000000000003 0.3534000000000000
0.6174000000000001 0.8382000000000003 0.8533999999999999
0.1499500000000000 0.2880499999999999 0.3281500000000000
0.1499500000000001 0.2880500000000000 0.8281500000000001
0.1499500000000000 0.7880500000000000 0.3281500000000000
0.1499500000000000 0.7880500000000000 0.8281500000000001
0.6499500000000002 0.2880499999999999 0.3281500000000000
0.6499500000000002 0.2880500000000000 0.8281500000000001
0.6499500000000002 0.7880500000000000 0.3281500000000000
0.6499500000000001 0.7880500000000000 0.8281500000000001
0.1605500000000000 0.2753500000000001 0.2935000000000000
0.1605500000000000 0.2753500000000000 0.7935000000000001
0.1605500000000000 0.7753500000000001 0.2935000000000000
0.1605500000000000 0.7753500000000001 0.7935000000000001
0.6605500000000001 0.2753500000000001 0.2935000000000000
0.6605500000000001 0.2753500000000000 0.7935000000000001
0.6605500000000001 0.7753500000000001 0.2935000000000000
0.6605500000000001 0.7753500000000001 0.7935000000000001
0.1755500000000000 0.2469000000000000 0.2918000000000000
0.1755500000000000 0.2469000000000000 0.7918000000000001
0.1755500000000000 0.7469000000000001 0.2918000000000000
0.1755500000000000 0.7469000000000001 0.7918000000000001
0.6755500000000001 0.2469000000000000 0.2918000000000000
0.6755500000000001 0.2469000000000000 0.7918000000000001
0.6755500000000001 0.7469000000000001 0.2918000000000000
0.6755500000000001 0.7469000000000001 0.7918000000000001
0.1490000000000000 0.3048000000000001 0.2607500000000000
0.1490000000000000 0.3048000000000001 0.7607500000000001
0.1490000000000000 0.8048000000000001 0.2607500000000000
0.1490000000000000 0.8048000000000001 0.7607500000000001
0.6490000000000002 0.3048000000000001 0.2607500000000000
0.6490000000000002 0.3048000000000001 0.7607500000000001
0.6490000000000002 0.8048000000000001 0.2607500000000000
0.6490000000000001 0.8048000000000001 0.7607500000000001
0.1234500000000000 0.3445500000000001 0.2624000000000000
0.1234500000000000 0.3445500000000001 0.7624000000000000
0.1234500000000000 0.8445500000000001 0.2624000000000000
0.1234500000000000 0.8445500000000001 0.7624000000000000
0.6234500000000002 0.3445500000000001 0.2624000000000000
0.6234500000000001 0.3445500000000001 0.7624000000000000
0.6234500000000002 0.8445500000000001 0.2624000000000000
0.6234500000000001 0.8445500000000001 0.7624000000000000
0.1152000000000000 0.3639500000000001 0.2402500000000000
0.1152000000000000 0.3639500000000001 0.7402500000000000
0.1152000000000000 0.8639500000000001 0.2402500000000000
0.1152000000000000 0.8639500000000001 0.7402500000000000
0.6152000000000002 0.3639500000000001 0.2402500000000000
0.6152000000000001 0.3639500000000001 0.7402500000000000
0.6152000000000002 0.8639500000000001 0.2402500000000000
0.6152000000000000 0.8639500000000001 0.7402500000000000
0.1665500000000000 0.2601500000000000 0.3646500000000000
0.1665500000000000 0.2601500000000000 0.8646499999999999
0.1665500000000000 0.7601500000000001 0.3646500000000000
0.1665500000000000 0.7601500000000001 0.8646499999999999
0.6665500000000001 0.2601500000000000 0.3646500000000000
0.6665500000000001 0.2601500000000000 0.8646499999999999
0.6665500000000001 0.7601500000000001 0.3646500000000000
0.6665500000000000 0.7601500000000001 0.8646499999999999
0.1669000000000000 0.2943500000000001 0.2255000000000000
0.1669000000000000 0.2943500000000001 0.7255000000000001
0.1669000000000000 0.7943500000000001 0.2255000000000000
0.1669000000000000 0.7943500000000001 0.7255000000000001
0.6669000000000002 0.2943500000000001 0.2255000000000000
0.6669000000000003 0.2943500000000001 0.7255000000000001
0.6669000000000002 0.7943500000000001 0.2255000000000000
0.6669000000000002 0.7943500000000001 0.7255000000000001
0.4530000000000001 0.1319000000000000 0.1417500000000000
0.4530000000000001 0.1319000000000000 0.6417500000000000
0.4530000000000001 0.6319000000000001 0.1417500000000000
0.4530000000000001 0.6319000000000000 0.6417500000000000
0.9530000000000002 0.1319000000000000 0.1417500000000000
0.9530000000000001 0.1319000000000000 0.6417500000000000
0.9530000000000002 0.6319000000000001 0.1417500000000000
0.9530000000000001 0.6319000000000000 0.6417500000000000
0.0167000000000000 0.4458000000000001 0.2563500000000000
0.0167000000000000 0.4458000000000001 0.7563500000000001
0.0167000000000000 0.9458000000000001 0.2563500000000000
0.0167000000000000 0.9458000000000001 0.7563500000000001
0.5167000000000002 0.4458000000000001 0.2563500000000000
0.5167000000000002 0.4458000000000001 0.7563500000000001
0.5167000000000002 0.9458000000000001 0.2563500000000000
0.5167000000000002 0.9458000000000001 0.7563500000000001
0.4729500000000000 0.3850500000000001 0.1835500000000000
0.4729500000000001 0.3850500000000001 0.6835500000000000
0.4729500000000000 0.8850500000000001 0.1835500000000000
0.4729500000000001 0.8850500000000001 0.6835500000000000
0.9729500000000002 0.3850500000000001 0.1835500000000000
0.9729500000000002 0.3850500000000001 0.6835500000000000
0.9729500000000002 0.8850500000000001 0.1835500000000000
0.9729500000000002 0.8850500000000001 0.6835500000000000
0.4131500000000001 0.4074000000000000 0.2082500000000000
0.4131500000000001 0.4074000000000001 0.7082500000000000
0.4131500000000001 0.9074000000000001 0.2082500000000000
0.4131500000000001 0.9074000000000002 0.7082500000000000
0.9131500000000002 0.4074000000000000 0.2082500000000000
0.9131500000000001 0.4074000000000001 0.7082500000000000
0.9131500000000001 0.9074000000000001 0.2082500000000000
0.9131499999999999 0.9074000000000002 0.7082500000000000
0.2758500000000001 0.2319000000000000 0.1828000000000000
0.2758500000000000 0.2319000000000001 0.6828000000000000
0.2758500000000001 0.7319000000000001 0.1828000000000000
0.2758500000000000 0.7319000000000001 0.6828000000000000
0.7758500000000000 0.2319000000000000 0.1828000000000000
0.7758500000000000 0.2319000000000001 0.6828000000000000
0.7758500000000000 0.7319000000000001 0.1828000000000000
0.7758500000000000 0.7319000000000001 0.6828000000000000
0.2663500000000000 0.3078500000000001 0.1819500000000000
0.2663500000000000 0.3078500000000001 0.6819500000000001
0.2663500000000000 0.8078500000000001 0.1819500000000000
0.2663500000000000 0.8078500000000001 0.6819500000000001
0.7663500000000001 0.3078500000000001 0.1819500000000000
0.7663500000000001 0.3078500000000001 0.6819500000000001
0.7663500000000001 0.8078500000000001 0.1819500000000000
0.7663500000000001 0.8078500000000001 0.6819500000000001
0.1921000000000000 0.2590500000000001 0.2266500000000000
0.1921000000000000 0.2590500000000001 0.7266500000000000
0.1921000000000000 0.7590500000000001 0.2266500000000000
0.1921000000000000 0.7590500000000001 0.7266500000000000
0.6921000000000000 0.2590500000000001 0.2266500000000000
0.6921000000000002 0.2590500000000001 0.7266500000000000
0.6921000000000000 0.7590500000000001 0.2266500000000000
0.6921000000000000 0.7590500000000001 0.7266500000000000
0.1589500000000000 0.3234500000000001 0.1974500000000000
0.1589500000000000 0.3234500000000001 0.6974500000000000
0.1589500000000000 0.8234500000000002 0.1974500000000000
0.1589500000000000 0.8234500000000002 0.6974500000000000
0.6589500000000001 0.3234500000000001 0.1974500000000000
0.6589500000000001 0.3234500000000001 0.6974500000000000
0.6589500000000001 0.8234500000000002 0.1974500000000000
0.6589500000000001 0.8234500000000002 0.6974500000000000
0.1787500000000000 0.2182000000000000 0.3603500000000000
0.1787500000000000 0.2182000000000000 0.8603499999999999
0.1787500000000000 0.7182000000000001 0.3603500000000000
0.1787500000000000 0.7182000000000001 0.8603499999999999
0.6787500000000001 0.2182000000000000 0.3603500000000000
0.6787500000000000 0.2182000000000000 0.8603499999999999
0.6787500000000001 0.7182000000000001 0.3603500000000000
0.6787500000000000 0.7182000000000001 0.8603499999999999
0.1682500000000000 0.2776000000000001 0.3972000000000000
0.1682500000000000 0.2776000000000000 0.8972000000000001
0.1682500000000000 0.7776000000000002 0.3972000000000000
0.1682500000000000 0.7776000000000002 0.8972000000000001
0.6682500000000001 0.2776000000000001 0.3972000000000000
0.6682500000000002 0.2776000000000000 0.8972000000000001
0.6682500000000001 0.7776000000000002 0.3972000000000000
0.6682500000000001 0.7776000000000002 0.8972000000000001
