%BLOCK LATTICE_CART
ang    # angstrom units
  17.071000000000    0.000000000000     0.000000000000   
  0.000000000000     17.071000000000    0.000000000000   
  0.000000000000     0.000000000000     17.071000000000  
%ENDBLOCK LATTICE_CART

%BLOCK POSITIONS_FRAC
C      0.182350000000     0.005500000000     0.317650000000   
C      0.432350000000     0.255500000000     0.067650000000   
C      0.005500000000     0.317650000000     0.182350000000   
C      0.255500000000     0.067650000000     0.432350000000   
C      0.317650000000     0.182350000000     0.005500000000   
C      0.067650000000     0.432350000000     0.255500000000   
C      0.317650000000     0.494500000000     0.317650000000   
C      0.067650000000     0.244500000000     0.067650000000   
C      0.182350000000     0.182350000000     0.494500000000   
C      0.432350000000     0.432350000000     0.244500000000   
C      0.317650000000     0.005500000000     0.182350000000   
C      0.067650000000     0.255500000000     0.432350000000   
C      0.494500000000     0.182350000000     0.182350000000   
C      0.244500000000     0.432350000000     0.432350000000   
C      0.182350000000     0.317650000000     0.005500000000   
C      0.432350000000     0.067650000000     0.255500000000   
C      0.317650000000     0.317650000000     0.494500000000   
C      0.067650000000     0.067650000000     0.244500000000   
C      0.494500000000     0.317650000000     0.317650000000   
C      0.244500000000     0.067650000000     0.067650000000   
C      0.005500000000     0.182350000000     0.317650000000   
C      0.255500000000     0.432350000000     0.067650000000   
C      0.182350000000     0.494500000000     0.182350000000   
C      0.432350000000     0.244500000000     0.432350000000   
C      0.197200000000     0.445750000000     0.330350000000   
C      0.447200000000     0.195750000000     0.080350000000   
C      0.445750000000     0.330350000000     0.197200000000   
C      0.195750000000     0.080350000000     0.447200000000   
C      0.330350000000     0.197200000000     0.445750000000   
C      0.080350000000     0.447200000000     0.195750000000   
C      0.445750000000     0.302800000000     0.169650000000   
C      0.195750000000     0.052800000000     0.419650000000   
C      0.330350000000     0.054250000000     0.302800000000   
C      0.080350000000     0.304250000000     0.052800000000   
C      0.197200000000     0.169650000000     0.054250000000   
C      0.447200000000     0.419650000000     0.304250000000   
C      0.302800000000     0.054250000000     0.330350000000   
C      0.052800000000     0.304250000000     0.080350000000   
C      0.169650000000     0.197200000000     0.054250000000   
C      0.419650000000     0.447200000000     0.304250000000   
C      0.302800000000     0.445750000000     0.169650000000   
C      0.052800000000     0.195750000000     0.419650000000   
C      0.054250000000     0.169650000000     0.197200000000   
C      0.304250000000     0.419650000000     0.447200000000   
C      0.169650000000     0.302800000000     0.445750000000   
C      0.419650000000     0.052800000000     0.195750000000   
C      0.054250000000     0.197200000000     0.169650000000   
C      0.304250000000     0.447200000000     0.419650000000   
C      0.169650000000     0.445750000000     0.302800000000   
C      0.419650000000     0.195750000000     0.052800000000   
C      0.302800000000     0.330350000000     0.054250000000   
C      0.052800000000     0.080350000000     0.304250000000   
C      0.054250000000     0.330350000000     0.302800000000   
C      0.304250000000     0.080350000000     0.052800000000   
C      0.330350000000     0.445750000000     0.197200000000   
C      0.080350000000     0.195750000000     0.447200000000   
C      0.197200000000     0.330350000000     0.445750000000   
C      0.447200000000     0.080350000000     0.195750000000   
C      0.445750000000     0.197200000000     0.330350000000   
C      0.195750000000     0.447200000000     0.080350000000   
C      0.445750000000     0.169650000000     0.302800000000   
C      0.195750000000     0.419650000000     0.052800000000   
C      0.054250000000     0.302800000000     0.330350000000   
C      0.304250000000     0.052800000000     0.080350000000   
C      0.169650000000     0.054250000000     0.197200000000   
C      0.419650000000     0.304250000000     0.447200000000   
C      0.302800000000     0.169650000000     0.445750000000   
C      0.052800000000     0.419650000000     0.195750000000   
C      0.197200000000     0.054250000000     0.169650000000   
C      0.447200000000     0.304250000000     0.419650000000   
C      0.330350000000     0.302800000000     0.054250000000   
C      0.080350000000     0.052800000000     0.304250000000   
C      0.183300000000     0.049450000000     0.316700000000   
C      0.433300000000     0.299450000000     0.066700000000   
C      0.049450000000     0.316700000000     0.183300000000   
C      0.299450000000     0.066700000000     0.433300000000   
C      0.316700000000     0.450550000000     0.316700000000   
C      0.066700000000     0.200550000000     0.066700000000   
C      0.183300000000     0.183300000000     0.450550000000   
C      0.433300000000     0.433300000000     0.200550000000   
C      0.316700000000     0.049450000000     0.183300000000   
C      0.450550000000     0.183300000000     0.183300000000   
C      0.183300000000     0.316700000000     0.049450000000   
C      0.316700000000     0.316700000000     0.450550000000   
C      0.066700000000     0.066700000000     0.200550000000   
C      0.450550000000     0.316700000000     0.316700000000   
C      0.200550000000     0.066700000000     0.066700000000   
C      0.299450000000     0.433300000000     0.066700000000   
C      0.183300000000     0.450550000000     0.183300000000   
C      0.433300000000     0.200550000000     0.433300000000   
N      0.205450000000     0.484050000000     0.340800000000   
N      0.455450000000     0.234050000000     0.090800000000   
N      0.484050000000     0.340800000000     0.205450000000   
N      0.234050000000     0.090800000000     0.455450000000   
N      0.340800000000     0.205450000000     0.484050000000   
N      0.090800000000     0.455450000000     0.234050000000   
N      0.484050000000     0.294550000000     0.159200000000   
N      0.234050000000     0.044550000000     0.409200000000   
N      0.340800000000     0.015950000000     0.294550000000   
N      0.090800000000     0.265950000000     0.044550000000   
N      0.205450000000     0.159200000000     0.015950000000   
N      0.455450000000     0.409200000000     0.265950000000   
N      0.294550000000     0.015950000000     0.340800000000   
N      0.044550000000     0.265950000000     0.090800000000   
N      0.159200000000     0.205450000000     0.015950000000   
N      0.409200000000     0.455450000000     0.265950000000   
N      0.294550000000     0.484050000000     0.159200000000   
N      0.044550000000     0.234050000000     0.409200000000   
N      0.015950000000     0.159200000000     0.205450000000   
N      0.265950000000     0.409200000000     0.455450000000   
N      0.159200000000     0.294550000000     0.484050000000   
N      0.409200000000     0.044550000000     0.234050000000   
N      0.015950000000     0.205450000000     0.159200000000   
N      0.265950000000     0.455450000000     0.409200000000   
N      0.159200000000     0.484050000000     0.294550000000   
N      0.409200000000     0.234050000000     0.044550000000   
N      0.294550000000     0.340800000000     0.015950000000   
N      0.044550000000     0.090800000000     0.265950000000   
N      0.015950000000     0.340800000000     0.294550000000   
N      0.265950000000     0.090800000000     0.044550000000   
N      0.340800000000     0.484050000000     0.205450000000   
N      0.090800000000     0.234050000000     0.455450000000   
N      0.205450000000     0.340800000000     0.484050000000   
N      0.455450000000     0.090800000000     0.234050000000   
N      0.484050000000     0.205450000000     0.340800000000   
N      0.234050000000     0.455450000000     0.090800000000   
N      0.484050000000     0.159200000000     0.294550000000   
N      0.234050000000     0.409200000000     0.044550000000   
N      0.015950000000     0.294550000000     0.340800000000   
N      0.265950000000     0.044550000000     0.090800000000   
N      0.159200000000     0.015950000000     0.205450000000   
N      0.409200000000     0.265950000000     0.455450000000   
N      0.294550000000     0.159200000000     0.484050000000   
N      0.044550000000     0.409200000000     0.234050000000   
N      0.205450000000     0.015950000000     0.159200000000   
N      0.455450000000     0.265950000000     0.409200000000   
N      0.340800000000     0.294550000000     0.015950000000   
N      0.090800000000     0.044550000000     0.265950000000   
Zn     0.250000000000     0.000000000000     0.375000000000   
Zn     0.000000000000     0.250000000000     0.125000000000   
Zn     0.000000000000     0.375000000000     0.250000000000   
Zn     0.250000000000     0.125000000000     0.000000000000   
Zn     0.375000000000     0.250000000000     0.000000000000   
Zn     0.125000000000     0.000000000000     0.250000000000   
Zn     0.375000000000     0.000000000000     0.250000000000   
Zn     0.125000000000     0.250000000000     0.000000000000   
Zn     0.250000000000     0.000000000000     0.125000000000   
Zn     0.000000000000     0.250000000000     0.375000000000   
Zn     0.000000000000     0.125000000000     0.250000000000   
Zn     0.250000000000     0.375000000000     0.000000000000   
H      0.209050000000     0.423600000000     0.340850000000   
H      0.459050000000     0.173600000000     0.090850000000   
H      0.423600000000     0.340850000000     0.209050000000   
H      0.173600000000     0.090850000000     0.459050000000   
H      0.340850000000     0.209050000000     0.423600000000   
H      0.090850000000     0.459050000000     0.173600000000   
H      0.423600000000     0.290950000000     0.159150000000   
H      0.173600000000     0.040950000000     0.409150000000   
H      0.340850000000     0.076400000000     0.290950000000   
H      0.090850000000     0.326400000000     0.040950000000   
H      0.209050000000     0.159150000000     0.076400000000   
H      0.459050000000     0.409150000000     0.326400000000   
H      0.290950000000     0.076400000000     0.340850000000   
H      0.040950000000     0.326400000000     0.090850000000   
H      0.159150000000     0.209050000000     0.076400000000   
H      0.409150000000     0.459050000000     0.326400000000   
H      0.290950000000     0.423600000000     0.159150000000   
H      0.040950000000     0.173600000000     0.409150000000   
H      0.076400000000     0.159150000000     0.209050000000   
H      0.326400000000     0.409150000000     0.459050000000   
H      0.159150000000     0.290950000000     0.423600000000   
H      0.409150000000     0.040950000000     0.173600000000   
H      0.076400000000     0.209050000000     0.159150000000   
H      0.326400000000     0.459050000000     0.409150000000   
H      0.159150000000     0.423600000000     0.290950000000   
H      0.409150000000     0.173600000000     0.040950000000   
H      0.290950000000     0.340850000000     0.076400000000   
H      0.040950000000     0.090850000000     0.326400000000   
H      0.076400000000     0.340850000000     0.290950000000   
H      0.326400000000     0.090850000000     0.040950000000   
H      0.340850000000     0.423600000000     0.209050000000   
H      0.090850000000     0.173600000000     0.459050000000   
H      0.209050000000     0.340850000000     0.423600000000   
H      0.459050000000     0.090850000000     0.173600000000   
H      0.423600000000     0.209050000000     0.340850000000   
H      0.173600000000     0.459050000000     0.090850000000   
H      0.423600000000     0.159150000000     0.290950000000   
H      0.173600000000     0.409150000000     0.040950000000   
H      0.076400000000     0.290950000000     0.340850000000   
H      0.326400000000     0.040950000000     0.090850000000   
H      0.159150000000     0.076400000000     0.209050000000   
H      0.409150000000     0.326400000000     0.459050000000   
H      0.290950000000     0.159150000000     0.423600000000   
H      0.040950000000     0.409150000000     0.173600000000   
H      0.209050000000     0.076400000000     0.159150000000   
H      0.459050000000     0.326400000000     0.409150000000   
H      0.340850000000     0.290950000000     0.076400000000   
H      0.090850000000     0.040950000000     0.326400000000   
H      0.202150000000     0.058400000000     0.297850000000   
H      0.452150000000     0.308400000000     0.047850000000   
H      0.058400000000     0.297850000000     0.202150000000   
H      0.308400000000     0.047850000000     0.452150000000   
H      0.297850000000     0.441600000000     0.297850000000   
H      0.047850000000     0.191600000000     0.047850000000   
H      0.202150000000     0.202150000000     0.441600000000   
H      0.452150000000     0.452150000000     0.191600000000   
H      0.297850000000     0.058400000000     0.202150000000   
H      0.441600000000     0.202150000000     0.202150000000   
H      0.202150000000     0.297850000000     0.058400000000   
H      0.297850000000     0.297850000000     0.441600000000   
H      0.047850000000     0.047850000000     0.191600000000   
H      0.441600000000     0.297850000000     0.297850000000   
H      0.191600000000     0.047850000000     0.047850000000   
H      0.308400000000     0.452150000000     0.047850000000   
H      0.202150000000     0.441600000000     0.202150000000   
H      0.452150000000     0.191600000000     0.452150000000   
H      0.157900000000     0.059300000000     0.309800000000   
H      0.407900000000     0.309300000000     0.059800000000   
H      0.059300000000     0.309800000000     0.157900000000   
H      0.309300000000     0.059800000000     0.407900000000   
H      0.059300000000     0.342100000000     0.190200000000   
H      0.309300000000     0.092100000000     0.440200000000   
H      0.309800000000     0.440700000000     0.342100000000   
H      0.059800000000     0.190700000000     0.092100000000   
H      0.157900000000     0.190200000000     0.440700000000   
H      0.407900000000     0.440200000000     0.190700000000   
H      0.342100000000     0.440700000000     0.309800000000   
H      0.092100000000     0.190700000000     0.059800000000   
H      0.190200000000     0.157900000000     0.440700000000   
H      0.440200000000     0.407900000000     0.190700000000   
H      0.342100000000     0.059300000000     0.190200000000   
H      0.440700000000     0.190200000000     0.157900000000   
H      0.190200000000     0.342100000000     0.059300000000   
H      0.440700000000     0.157900000000     0.190200000000   
H      0.190200000000     0.059300000000     0.342100000000   
H      0.440200000000     0.309300000000     0.092100000000   
H      0.342100000000     0.309800000000     0.440700000000   
H      0.092100000000     0.059800000000     0.190700000000   
H      0.440700000000     0.309800000000     0.342100000000   
H      0.190700000000     0.059800000000     0.092100000000   
H      0.309800000000     0.059300000000     0.157900000000   
H      0.157900000000     0.309800000000     0.059300000000   
H      0.309300000000     0.407900000000     0.059800000000   
H      0.309300000000     0.440200000000     0.092100000000   
H      0.440700000000     0.342100000000     0.309800000000   
H      0.190700000000     0.092100000000     0.059800000000   
H      0.190200000000     0.440700000000     0.157900000000   
H      0.440200000000     0.190700000000     0.407900000000   
H      0.157900000000     0.440700000000     0.190200000000   
H      0.407900000000     0.190700000000     0.440200000000   
H      0.309800000000     0.342100000000     0.440700000000   
H      0.059800000000     0.092100000000     0.190700000000   
Cl     0.070057467256     0.428828945705     0.304910029021   
Cl     0.313837666153     0.185630821698     0.291106563353   
Cl     0.291119995257     0.181861181988     0.321819837243   
Cl     0.429942532744     0.071171054295     0.304910029021   
Cl     0.071171054295     0.304910029021     0.429942532744   
Cl     0.195089970979     0.429942532744     0.428828945705   
C      0.182350000000     0.005500000000     0.817650000000   
C      0.432350000000     0.255500000000     0.567650000000   
C      0.005500000000     0.317650000000     0.682350000000   
C      0.255500000000     0.067650000000     0.932350000000   
C      0.317650000000     0.182350000000     0.505500000000   
C      0.067650000000     0.432350000000     0.755500000000   
C      0.317650000000     0.494500000000     0.817650000000   
C      0.067650000000     0.244500000000     0.567650000000   
C      0.182350000000     0.182350000000     0.994500000000   
C      0.432350000000     0.432350000000     0.744500000000   
C      0.317650000000     0.005500000000     0.682350000000   
C      0.067650000000     0.255500000000     0.932350000000   
C      0.494500000000     0.182350000000     0.682350000000   
C      0.244500000000     0.432350000000     0.932350000000   
C      0.182350000000     0.317650000000     0.505500000000   
C      0.432350000000     0.067650000000     0.755500000000   
C      0.317650000000     0.317650000000     0.994500000000   
C      0.067650000000     0.067650000000     0.744500000000   
C      0.494500000000     0.317650000000     0.817650000000   
C      0.244500000000     0.067650000000     0.567650000000   
C      0.005500000000     0.182350000000     0.817650000000   
C      0.255500000000     0.432350000000     0.567650000000   
C      0.182350000000     0.494500000000     0.682350000000   
C      0.432350000000     0.244500000000     0.932350000000   
C      0.197200000000     0.445750000000     0.830350000000   
C      0.447200000000     0.195750000000     0.580350000000   
C      0.445750000000     0.330350000000     0.697200000000   
C      0.195750000000     0.080350000000     0.947200000000   
C      0.330350000000     0.197200000000     0.945750000000   
C      0.080350000000     0.447200000000     0.695750000000   
C      0.445750000000     0.302800000000     0.669650000000   
C      0.195750000000     0.052800000000     0.919650000000   
C      0.330350000000     0.054250000000     0.802800000000   
C      0.080350000000     0.304250000000     0.552800000000   
C      0.197200000000     0.169650000000     0.554250000000   
C      0.447200000000     0.419650000000     0.804250000000   
C      0.302800000000     0.054250000000     0.830350000000   
C      0.052800000000     0.304250000000     0.580350000000   
C      0.169650000000     0.197200000000     0.554250000000   
C      0.419650000000     0.447200000000     0.804250000000   
C      0.302800000000     0.445750000000     0.669650000000   
C      0.052800000000     0.195750000000     0.919650000000   
C      0.054250000000     0.169650000000     0.697200000000   
C      0.304250000000     0.419650000000     0.947200000000   
C      0.169650000000     0.302800000000     0.945750000000   
C      0.419650000000     0.052800000000     0.695750000000   
C      0.054250000000     0.197200000000     0.669650000000   
C      0.304250000000     0.447200000000     0.919650000000   
C      0.169650000000     0.445750000000     0.802800000000   
C      0.419650000000     0.195750000000     0.552800000000   
C      0.302800000000     0.330350000000     0.554250000000   
C      0.052800000000     0.080350000000     0.804250000000   
C      0.054250000000     0.330350000000     0.802800000000   
C      0.304250000000     0.080350000000     0.552800000000   
C      0.330350000000     0.445750000000     0.697200000000   
C      0.080350000000     0.195750000000     0.947200000000   
C      0.197200000000     0.330350000000     0.945750000000   
C      0.447200000000     0.080350000000     0.695750000000   
C      0.445750000000     0.197200000000     0.830350000000   
C      0.195750000000     0.447200000000     0.580350000000   
C      0.445750000000     0.169650000000     0.802800000000   
C      0.195750000000     0.419650000000     0.552800000000   
C      0.054250000000     0.302800000000     0.830350000000   
C      0.304250000000     0.052800000000     0.580350000000   
C      0.169650000000     0.054250000000     0.697200000000   
C      0.419650000000     0.304250000000     0.947200000000   
C      0.302800000000     0.169650000000     0.945750000000   
C      0.052800000000     0.419650000000     0.695750000000   
C      0.197200000000     0.054250000000     0.669650000000   
C      0.447200000000     0.304250000000     0.919650000000   
C      0.330350000000     0.302800000000     0.554250000000   
C      0.080350000000     0.052800000000     0.804250000000   
C      0.183300000000     0.049450000000     0.816700000000   
C      0.433300000000     0.299450000000     0.566700000000   
C      0.049450000000     0.316700000000     0.683300000000   
C      0.299450000000     0.066700000000     0.933300000000   
C      0.316700000000     0.450550000000     0.816700000000   
C      0.066700000000     0.200550000000     0.566700000000   
C      0.183300000000     0.183300000000     0.950550000000   
C      0.433300000000     0.433300000000     0.700550000000   
C      0.316700000000     0.049450000000     0.683300000000   
C      0.450550000000     0.183300000000     0.683300000000   
C      0.183300000000     0.316700000000     0.549450000000   
C      0.316700000000     0.316700000000     0.950550000000   
C      0.066700000000     0.066700000000     0.700550000000   
C      0.450550000000     0.316700000000     0.816700000000   
C      0.200550000000     0.066700000000     0.566700000000   
C      0.299450000000     0.433300000000     0.566700000000   
C      0.183300000000     0.450550000000     0.683300000000   
C      0.433300000000     0.200550000000     0.933300000000   
N      0.205450000000     0.484050000000     0.840800000000   
N      0.455450000000     0.234050000000     0.590800000000   
N      0.484050000000     0.340800000000     0.705450000000   
N      0.234050000000     0.090800000000     0.955450000000   
N      0.340800000000     0.205450000000     0.984050000000   
N      0.090800000000     0.455450000000     0.734050000000   
N      0.484050000000     0.294550000000     0.659200000000   
N      0.234050000000     0.044550000000     0.909200000000   
N      0.340800000000     0.015950000000     0.794550000000   
N      0.090800000000     0.265950000000     0.544550000000   
N      0.205450000000     0.159200000000     0.515950000000   
N      0.455450000000     0.409200000000     0.765950000000   
N      0.294550000000     0.015950000000     0.840800000000   
N      0.044550000000     0.265950000000     0.590800000000   
N      0.159200000000     0.205450000000     0.515950000000   
N      0.409200000000     0.455450000000     0.765950000000   
N      0.294550000000     0.484050000000     0.659200000000   
N      0.044550000000     0.234050000000     0.909200000000   
N      0.015950000000     0.159200000000     0.705450000000   
N      0.265950000000     0.409200000000     0.955450000000   
N      0.159200000000     0.294550000000     0.984050000000   
N      0.409200000000     0.044550000000     0.734050000000   
N      0.015950000000     0.205450000000     0.659200000000   
N      0.265950000000     0.455450000000     0.909200000000   
N      0.159200000000     0.484050000000     0.794550000000   
N      0.409200000000     0.234050000000     0.544550000000   
N      0.294550000000     0.340800000000     0.515950000000   
N      0.044550000000     0.090800000000     0.765950000000   
N      0.015950000000     0.340800000000     0.794550000000   
N      0.265950000000     0.090800000000     0.544550000000   
N      0.340800000000     0.484050000000     0.705450000000   
N      0.090800000000     0.234050000000     0.955450000000   
N      0.205450000000     0.340800000000     0.984050000000   
N      0.455450000000     0.090800000000     0.734050000000   
N      0.484050000000     0.205450000000     0.840800000000   
N      0.234050000000     0.455450000000     0.590800000000   
N      0.484050000000     0.159200000000     0.794550000000   
N      0.234050000000     0.409200000000     0.544550000000   
N      0.015950000000     0.294550000000     0.840800000000   
N      0.265950000000     0.044550000000     0.590800000000   
N      0.159200000000     0.015950000000     0.705450000000   
N      0.409200000000     0.265950000000     0.955450000000   
N      0.294550000000     0.159200000000     0.984050000000   
N      0.044550000000     0.409200000000     0.734050000000   
N      0.205450000000     0.015950000000     0.659200000000   
N      0.455450000000     0.265950000000     0.909200000000   
N      0.340800000000     0.294550000000     0.515950000000   
N      0.090800000000     0.044550000000     0.765950000000   
Zn     0.250000000000     0.000000000000     0.875000000000   
Zn     0.000000000000     0.250000000000     0.625000000000   
Zn     0.000000000000     0.375000000000     0.750000000000   
Zn     0.250000000000     0.125000000000     0.500000000000   
Zn     0.375000000000     0.250000000000     0.500000000000   
Zn     0.125000000000     0.000000000000     0.750000000000   
Zn     0.375000000000     0.000000000000     0.750000000000   
Zn     0.125000000000     0.250000000000     0.500000000000   
Zn     0.250000000000     0.000000000000     0.625000000000   
Zn     0.000000000000     0.250000000000     0.875000000000   
Zn     0.000000000000     0.125000000000     0.750000000000   
Zn     0.250000000000     0.375000000000     0.500000000000   
H      0.209050000000     0.423600000000     0.840850000000   
H      0.459050000000     0.173600000000     0.590850000000   
H      0.423600000000     0.340850000000     0.709050000000   
H      0.173600000000     0.090850000000     0.959050000000   
H      0.340850000000     0.209050000000     0.923600000000   
H      0.090850000000     0.459050000000     0.673600000000   
H      0.423600000000     0.290950000000     0.659150000000   
H      0.173600000000     0.040950000000     0.909150000000   
H      0.340850000000     0.076400000000     0.790950000000   
H      0.090850000000     0.326400000000     0.540950000000   
H      0.209050000000     0.159150000000     0.576400000000   
H      0.459050000000     0.409150000000     0.826400000000   
H      0.290950000000     0.076400000000     0.840850000000   
H      0.040950000000     0.326400000000     0.590850000000   
H      0.159150000000     0.209050000000     0.576400000000   
H      0.409150000000     0.459050000000     0.826400000000   
H      0.290950000000     0.423600000000     0.659150000000   
H      0.040950000000     0.173600000000     0.909150000000   
H      0.076400000000     0.159150000000     0.709050000000   
H      0.326400000000     0.409150000000     0.959050000000   
H      0.159150000000     0.290950000000     0.923600000000   
H      0.409150000000     0.040950000000     0.673600000000   
H      0.076400000000     0.209050000000     0.659150000000   
H      0.326400000000     0.459050000000     0.909150000000   
H      0.159150000000     0.423600000000     0.790950000000   
H      0.409150000000     0.173600000000     0.540950000000   
H      0.290950000000     0.340850000000     0.576400000000   
H      0.040950000000     0.090850000000     0.826400000000   
H      0.076400000000     0.340850000000     0.790950000000   
H      0.326400000000     0.090850000000     0.540950000000   
H      0.340850000000     0.423600000000     0.709050000000   
H      0.090850000000     0.173600000000     0.959050000000   
H      0.209050000000     0.340850000000     0.923600000000   
H      0.459050000000     0.090850000000     0.673600000000   
H      0.423600000000     0.209050000000     0.840850000000   
H      0.173600000000     0.459050000000     0.590850000000   
H      0.423600000000     0.159150000000     0.790950000000   
H      0.173600000000     0.409150000000     0.540950000000   
H      0.076400000000     0.290950000000     0.840850000000   
H      0.326400000000     0.040950000000     0.590850000000   
H      0.159150000000     0.076400000000     0.709050000000   
H      0.409150000000     0.326400000000     0.959050000000   
H      0.290950000000     0.159150000000     0.923600000000   
H      0.040950000000     0.409150000000     0.673600000000   
H      0.209050000000     0.076400000000     0.659150000000   
H      0.459050000000     0.326400000000     0.909150000000   
H      0.340850000000     0.290950000000     0.576400000000   
H      0.090850000000     0.040950000000     0.826400000000   
H      0.202150000000     0.058400000000     0.797850000000   
H      0.452150000000     0.308400000000     0.547850000000   
H      0.058400000000     0.297850000000     0.702150000000   
H      0.308400000000     0.047850000000     0.952150000000   
H      0.297850000000     0.441600000000     0.797850000000   
H      0.047850000000     0.191600000000     0.547850000000   
H      0.202150000000     0.202150000000     0.941600000000   
H      0.452150000000     0.452150000000     0.691600000000   
H      0.297850000000     0.058400000000     0.702150000000   
H      0.441600000000     0.202150000000     0.702150000000   
H      0.202150000000     0.297850000000     0.558400000000   
H      0.297850000000     0.297850000000     0.941600000000   
H      0.047850000000     0.047850000000     0.691600000000   
H      0.441600000000     0.297850000000     0.797850000000   
H      0.191600000000     0.047850000000     0.547850000000   
H      0.308400000000     0.452150000000     0.547850000000   
H      0.202150000000     0.441600000000     0.702150000000   
H      0.452150000000     0.191600000000     0.952150000000   
H      0.157900000000     0.059300000000     0.809800000000   
H      0.407900000000     0.309300000000     0.559800000000   
H      0.059300000000     0.309800000000     0.657900000000   
H      0.309300000000     0.059800000000     0.907900000000   
H      0.059300000000     0.342100000000     0.690200000000   
H      0.309300000000     0.092100000000     0.940200000000   
H      0.309800000000     0.440700000000     0.842100000000   
H      0.059800000000     0.190700000000     0.592100000000   
H      0.157900000000     0.190200000000     0.940700000000   
H      0.407900000000     0.440200000000     0.690700000000   
H      0.342100000000     0.440700000000     0.809800000000   
H      0.092100000000     0.190700000000     0.559800000000   
H      0.190200000000     0.157900000000     0.940700000000   
H      0.440200000000     0.407900000000     0.690700000000   
H      0.342100000000     0.059300000000     0.690200000000   
H      0.440700000000     0.190200000000     0.657900000000   
H      0.190200000000     0.342100000000     0.559300000000   
H      0.440700000000     0.157900000000     0.690200000000   
H      0.190200000000     0.059300000000     0.842100000000   
H      0.440200000000     0.309300000000     0.592100000000   
H      0.342100000000     0.309800000000     0.940700000000   
H      0.092100000000     0.059800000000     0.690700000000   
H      0.440700000000     0.309800000000     0.842100000000   
H      0.190700000000     0.059800000000     0.592100000000   
H      0.309800000000     0.059300000000     0.657900000000   
H      0.157900000000     0.309800000000     0.559300000000   
H      0.309300000000     0.407900000000     0.559800000000   
H      0.309300000000     0.440200000000     0.592100000000   
H      0.440700000000     0.342100000000     0.809800000000   
H      0.190700000000     0.092100000000     0.559800000000   
H      0.190200000000     0.440700000000     0.657900000000   
H      0.440200000000     0.190700000000     0.907900000000   
H      0.157900000000     0.440700000000     0.690200000000   
H      0.407900000000     0.190700000000     0.940200000000   
H      0.309800000000     0.342100000000     0.940700000000   
H      0.059800000000     0.092100000000     0.690700000000   
Cl     0.070057467256     0.428828945705     0.804910029021   
Cl     0.313837666153     0.185630821698     0.791106563353   
Cl     0.291119995257     0.181861181988     0.821819837243   
Cl     0.429942532744     0.071171054295     0.804910029021   
Cl     0.071171054295     0.304910029021     0.929942532744   
Cl     0.195089970979     0.429942532744     0.928828945705   
C      0.182350000000     0.505500000000     0.317650000000   
C      0.432350000000     0.755500000000     0.067650000000   
C      0.005500000000     0.817650000000     0.182350000000   
C      0.255500000000     0.567650000000     0.432350000000   
C      0.317650000000     0.682350000000     0.005500000000   
C      0.067650000000     0.932350000000     0.255500000000   
C      0.317650000000     0.994500000000     0.317650000000   
C      0.067650000000     0.744500000000     0.067650000000   
C      0.182350000000     0.682350000000     0.494500000000   
C      0.432350000000     0.932350000000     0.244500000000   
C      0.317650000000     0.505500000000     0.182350000000   
C      0.067650000000     0.755500000000     0.432350000000   
C      0.494500000000     0.682350000000     0.182350000000   
C      0.244500000000     0.932350000000     0.432350000000   
C      0.182350000000     0.817650000000     0.005500000000   
C      0.432350000000     0.567650000000     0.255500000000   
C      0.317650000000     0.817650000000     0.494500000000   
C      0.067650000000     0.567650000000     0.244500000000   
C      0.494500000000     0.817650000000     0.317650000000   
C      0.244500000000     0.567650000000     0.067650000000   
C      0.005500000000     0.682350000000     0.317650000000   
C      0.255500000000     0.932350000000     0.067650000000   
C      0.182350000000     0.994500000000     0.182350000000   
C      0.432350000000     0.744500000000     0.432350000000   
C      0.197200000000     0.945750000000     0.330350000000   
C      0.447200000000     0.695750000000     0.080350000000   
C      0.445750000000     0.830350000000     0.197200000000   
C      0.195750000000     0.580350000000     0.447200000000   
C      0.330350000000     0.697200000000     0.445750000000   
C      0.080350000000     0.947200000000     0.195750000000   
C      0.445750000000     0.802800000000     0.169650000000   
C      0.195750000000     0.552800000000     0.419650000000   
C      0.330350000000     0.554250000000     0.302800000000   
C      0.080350000000     0.804250000000     0.052800000000   
C      0.197200000000     0.669650000000     0.054250000000   
C      0.447200000000     0.919650000000     0.304250000000   
C      0.302800000000     0.554250000000     0.330350000000   
C      0.052800000000     0.804250000000     0.080350000000   
C      0.169650000000     0.697200000000     0.054250000000   
C      0.419650000000     0.947200000000     0.304250000000   
C      0.302800000000     0.945750000000     0.169650000000   
C      0.052800000000     0.695750000000     0.419650000000   
C      0.054250000000     0.669650000000     0.197200000000   
C      0.304250000000     0.919650000000     0.447200000000   
C      0.169650000000     0.802800000000     0.445750000000   
C      0.419650000000     0.552800000000     0.195750000000   
C      0.054250000000     0.697200000000     0.169650000000   
C      0.304250000000     0.947200000000     0.419650000000   
C      0.169650000000     0.945750000000     0.302800000000   
C      0.419650000000     0.695750000000     0.052800000000   
C      0.302800000000     0.830350000000     0.054250000000   
C      0.052800000000     0.580350000000     0.304250000000   
C      0.054250000000     0.830350000000     0.302800000000   
C      0.304250000000     0.580350000000     0.052800000000   
C      0.330350000000     0.945750000000     0.197200000000   
C      0.080350000000     0.695750000000     0.447200000000   
C      0.197200000000     0.830350000000     0.445750000000   
C      0.447200000000     0.580350000000     0.195750000000   
C      0.445750000000     0.697200000000     0.330350000000   
C      0.195750000000     0.947200000000     0.080350000000   
C      0.445750000000     0.669650000000     0.302800000000   
C      0.195750000000     0.919650000000     0.052800000000   
C      0.054250000000     0.802800000000     0.330350000000   
C      0.304250000000     0.552800000000     0.080350000000   
C      0.169650000000     0.554250000000     0.197200000000   
C      0.419650000000     0.804250000000     0.447200000000   
C      0.302800000000     0.669650000000     0.445750000000   
C      0.052800000000     0.919650000000     0.195750000000   
C      0.197200000000     0.554250000000     0.169650000000   
C      0.447200000000     0.804250000000     0.419650000000   
C      0.330350000000     0.802800000000     0.054250000000   
C      0.080350000000     0.552800000000     0.304250000000   
C      0.183300000000     0.549450000000     0.316700000000   
C      0.433300000000     0.799450000000     0.066700000000   
C      0.049450000000     0.816700000000     0.183300000000   
C      0.299450000000     0.566700000000     0.433300000000   
C      0.316700000000     0.950550000000     0.316700000000   
C      0.066700000000     0.700550000000     0.066700000000   
C      0.183300000000     0.683300000000     0.450550000000   
C      0.433300000000     0.933300000000     0.200550000000   
C      0.316700000000     0.549450000000     0.183300000000   
C      0.450550000000     0.683300000000     0.183300000000   
C      0.183300000000     0.816700000000     0.049450000000   
C      0.316700000000     0.816700000000     0.450550000000   
C      0.066700000000     0.566700000000     0.200550000000   
C      0.450550000000     0.816700000000     0.316700000000   
C      0.200550000000     0.566700000000     0.066700000000   
C      0.299450000000     0.933300000000     0.066700000000   
C      0.183300000000     0.950550000000     0.183300000000   
C      0.433300000000     0.700550000000     0.433300000000   
N      0.205450000000     0.984050000000     0.340800000000   
N      0.455450000000     0.734050000000     0.090800000000   
N      0.484050000000     0.840800000000     0.205450000000   
N      0.234050000000     0.590800000000     0.455450000000   
N      0.340800000000     0.705450000000     0.484050000000   
N      0.090800000000     0.955450000000     0.234050000000   
N      0.484050000000     0.794550000000     0.159200000000   
N      0.234050000000     0.544550000000     0.409200000000   
N      0.340800000000     0.515950000000     0.294550000000   
N      0.090800000000     0.765950000000     0.044550000000   
N      0.205450000000     0.659200000000     0.015950000000   
N      0.455450000000     0.909200000000     0.265950000000   
N      0.294550000000     0.515950000000     0.340800000000   
N      0.044550000000     0.765950000000     0.090800000000   
N      0.159200000000     0.705450000000     0.015950000000   
N      0.409200000000     0.955450000000     0.265950000000   
N      0.294550000000     0.984050000000     0.159200000000   
N      0.044550000000     0.734050000000     0.409200000000   
N      0.015950000000     0.659200000000     0.205450000000   
N      0.265950000000     0.909200000000     0.455450000000   
N      0.159200000000     0.794550000000     0.484050000000   
N      0.409200000000     0.544550000000     0.234050000000   
N      0.015950000000     0.705450000000     0.159200000000   
N      0.265950000000     0.955450000000     0.409200000000   
N      0.159200000000     0.984050000000     0.294550000000   
N      0.409200000000     0.734050000000     0.044550000000   
N      0.294550000000     0.840800000000     0.015950000000   
N      0.044550000000     0.590800000000     0.265950000000   
N      0.015950000000     0.840800000000     0.294550000000   
N      0.265950000000     0.590800000000     0.044550000000   
N      0.340800000000     0.984050000000     0.205450000000   
N      0.090800000000     0.734050000000     0.455450000000   
N      0.205450000000     0.840800000000     0.484050000000   
N      0.455450000000     0.590800000000     0.234050000000   
N      0.484050000000     0.705450000000     0.340800000000   
N      0.234050000000     0.955450000000     0.090800000000   
N      0.484050000000     0.659200000000     0.294550000000   
N      0.234050000000     0.909200000000     0.044550000000   
N      0.015950000000     0.794550000000     0.340800000000   
N      0.265950000000     0.544550000000     0.090800000000   
N      0.159200000000     0.515950000000     0.205450000000   
N      0.409200000000     0.765950000000     0.455450000000   
N      0.294550000000     0.659200000000     0.484050000000   
N      0.044550000000     0.909200000000     0.234050000000   
N      0.205450000000     0.515950000000     0.159200000000   
N      0.455450000000     0.765950000000     0.409200000000   
N      0.340800000000     0.794550000000     0.015950000000   
N      0.090800000000     0.544550000000     0.265950000000   
Zn     0.250000000000     0.500000000000     0.375000000000   
Zn     0.000000000000     0.750000000000     0.125000000000   
Zn     0.000000000000     0.875000000000     0.250000000000   
Zn     0.250000000000     0.625000000000     0.000000000000   
Zn     0.375000000000     0.750000000000     0.000000000000   
Zn     0.125000000000     0.500000000000     0.250000000000   
Zn     0.375000000000     0.500000000000     0.250000000000   
Zn     0.125000000000     0.750000000000     0.000000000000   
Zn     0.250000000000     0.500000000000     0.125000000000   
Zn     0.000000000000     0.750000000000     0.375000000000   
Zn     0.000000000000     0.625000000000     0.250000000000   
Zn     0.250000000000     0.875000000000     0.000000000000   
H      0.209050000000     0.923600000000     0.340850000000   
H      0.459050000000     0.673600000000     0.090850000000   
H      0.423600000000     0.840850000000     0.209050000000   
H      0.173600000000     0.590850000000     0.459050000000   
H      0.340850000000     0.709050000000     0.423600000000   
H      0.090850000000     0.959050000000     0.173600000000   
H      0.423600000000     0.790950000000     0.159150000000   
H      0.173600000000     0.540950000000     0.409150000000   
H      0.340850000000     0.576400000000     0.290950000000   
H      0.090850000000     0.826400000000     0.040950000000   
H      0.209050000000     0.659150000000     0.076400000000   
H      0.459050000000     0.909150000000     0.326400000000   
H      0.290950000000     0.576400000000     0.340850000000   
H      0.040950000000     0.826400000000     0.090850000000   
H      0.159150000000     0.709050000000     0.076400000000   
H      0.409150000000     0.959050000000     0.326400000000   
H      0.290950000000     0.923600000000     0.159150000000   
H      0.040950000000     0.673600000000     0.409150000000   
H      0.076400000000     0.659150000000     0.209050000000   
H      0.326400000000     0.909150000000     0.459050000000   
H      0.159150000000     0.790950000000     0.423600000000   
H      0.409150000000     0.540950000000     0.173600000000   
H      0.076400000000     0.709050000000     0.159150000000   
H      0.326400000000     0.959050000000     0.409150000000   
H      0.159150000000     0.923600000000     0.290950000000   
H      0.409150000000     0.673600000000     0.040950000000   
H      0.290950000000     0.840850000000     0.076400000000   
H      0.040950000000     0.590850000000     0.326400000000   
H      0.076400000000     0.840850000000     0.290950000000   
H      0.326400000000     0.590850000000     0.040950000000   
H      0.340850000000     0.923600000000     0.209050000000   
H      0.090850000000     0.673600000000     0.459050000000   
H      0.209050000000     0.840850000000     0.423600000000   
H      0.459050000000     0.590850000000     0.173600000000   
H      0.423600000000     0.709050000000     0.340850000000   
H      0.173600000000     0.959050000000     0.090850000000   
H      0.423600000000     0.659150000000     0.290950000000   
H      0.173600000000     0.909150000000     0.040950000000   
H      0.076400000000     0.790950000000     0.340850000000   
H      0.326400000000     0.540950000000     0.090850000000   
H      0.159150000000     0.576400000000     0.209050000000   
H      0.409150000000     0.826400000000     0.459050000000   
H      0.290950000000     0.659150000000     0.423600000000   
H      0.040950000000     0.909150000000     0.173600000000   
H      0.209050000000     0.576400000000     0.159150000000   
H      0.459050000000     0.826400000000     0.409150000000   
H      0.340850000000     0.790950000000     0.076400000000   
H      0.090850000000     0.540950000000     0.326400000000   
H      0.202150000000     0.558400000000     0.297850000000   
H      0.452150000000     0.808400000000     0.047850000000   
H      0.058400000000     0.797850000000     0.202150000000   
H      0.308400000000     0.547850000000     0.452150000000   
H      0.297850000000     0.941600000000     0.297850000000   
H      0.047850000000     0.691600000000     0.047850000000   
H      0.202150000000     0.702150000000     0.441600000000   
H      0.452150000000     0.952150000000     0.191600000000   
H      0.297850000000     0.558400000000     0.202150000000   
H      0.441600000000     0.702150000000     0.202150000000   
H      0.202150000000     0.797850000000     0.058400000000   
H      0.297850000000     0.797850000000     0.441600000000   
H      0.047850000000     0.547850000000     0.191600000000   
H      0.441600000000     0.797850000000     0.297850000000   
H      0.191600000000     0.547850000000     0.047850000000   
H      0.308400000000     0.952150000000     0.047850000000   
H      0.202150000000     0.941600000000     0.202150000000   
H      0.452150000000     0.691600000000     0.452150000000   
H      0.157900000000     0.559300000000     0.309800000000   
H      0.407900000000     0.809300000000     0.059800000000   
H      0.059300000000     0.809800000000     0.157900000000   
H      0.309300000000     0.559800000000     0.407900000000   
H      0.059300000000     0.842100000000     0.190200000000   
H      0.309300000000     0.592100000000     0.440200000000   
H      0.309800000000     0.940700000000     0.342100000000   
H      0.059800000000     0.690700000000     0.092100000000   
H      0.157900000000     0.690200000000     0.440700000000   
H      0.407900000000     0.940200000000     0.190700000000   
H      0.342100000000     0.940700000000     0.309800000000   
H      0.092100000000     0.690700000000     0.059800000000   
H      0.190200000000     0.657900000000     0.440700000000   
H      0.440200000000     0.907900000000     0.190700000000   
H      0.342100000000     0.559300000000     0.190200000000   
H      0.440700000000     0.690200000000     0.157900000000   
H      0.190200000000     0.842100000000     0.059300000000   
H      0.440700000000     0.657900000000     0.190200000000   
H      0.190200000000     0.559300000000     0.342100000000   
H      0.440200000000     0.809300000000     0.092100000000   
H      0.342100000000     0.809800000000     0.440700000000   
H      0.092100000000     0.559800000000     0.190700000000   
H      0.440700000000     0.809800000000     0.342100000000   
H      0.190700000000     0.559800000000     0.092100000000   
H      0.309800000000     0.559300000000     0.157900000000   
H      0.157900000000     0.809800000000     0.059300000000   
H      0.309300000000     0.907900000000     0.059800000000   
H      0.309300000000     0.940200000000     0.092100000000   
H      0.440700000000     0.842100000000     0.309800000000   
H      0.190700000000     0.592100000000     0.059800000000   
H      0.190200000000     0.940700000000     0.157900000000   
H      0.440200000000     0.690700000000     0.407900000000   
H      0.157900000000     0.940700000000     0.190200000000   
H      0.407900000000     0.690700000000     0.440200000000   
H      0.309800000000     0.842100000000     0.440700000000   
H      0.059800000000     0.592100000000     0.190700000000   
Cl     0.070057467256     0.928828945705     0.304910029021   
Cl     0.313837666153     0.685630821698     0.291106563353   
Cl     0.291119995257     0.681861181988     0.321819837243   
Cl     0.429942532744     0.571171054295     0.304910029021   
Cl     0.071171054295     0.804910029021     0.429942532744   
Cl     0.195089970979     0.929942532744     0.428828945705   
C      0.182350000000     0.505500000000     0.817650000000   
C      0.432350000000     0.755500000000     0.567650000000   
C      0.005500000000     0.817650000000     0.682350000000   
C      0.255500000000     0.567650000000     0.932350000000   
C      0.317650000000     0.682350000000     0.505500000000   
C      0.067650000000     0.932350000000     0.755500000000   
C      0.317650000000     0.994500000000     0.817650000000   
C      0.067650000000     0.744500000000     0.567650000000   
C      0.182350000000     0.682350000000     0.994500000000   
C      0.432350000000     0.932350000000     0.744500000000   
C      0.317650000000     0.505500000000     0.682350000000   
C      0.067650000000     0.755500000000     0.932350000000   
C      0.494500000000     0.682350000000     0.682350000000   
C      0.244500000000     0.932350000000     0.932350000000   
C      0.182350000000     0.817650000000     0.505500000000   
C      0.432350000000     0.567650000000     0.755500000000   
C      0.317650000000     0.817650000000     0.994500000000   
C      0.067650000000     0.567650000000     0.744500000000   
C      0.494500000000     0.817650000000     0.817650000000   
C      0.244500000000     0.567650000000     0.567650000000   
C      0.005500000000     0.682350000000     0.817650000000   
C      0.255500000000     0.932350000000     0.567650000000   
C      0.182350000000     0.994500000000     0.682350000000   
C      0.432350000000     0.744500000000     0.932350000000   
C      0.197200000000     0.945750000000     0.830350000000   
C      0.447200000000     0.695750000000     0.580350000000   
C      0.445750000000     0.830350000000     0.697200000000   
C      0.195750000000     0.580350000000     0.947200000000   
C      0.330350000000     0.697200000000     0.945750000000   
C      0.080350000000     0.947200000000     0.695750000000   
C      0.445750000000     0.802800000000     0.669650000000   
C      0.195750000000     0.552800000000     0.919650000000   
C      0.330350000000     0.554250000000     0.802800000000   
C      0.080350000000     0.804250000000     0.552800000000   
C      0.197200000000     0.669650000000     0.554250000000   
C      0.447200000000     0.919650000000     0.804250000000   
C      0.302800000000     0.554250000000     0.830350000000   
C      0.052800000000     0.804250000000     0.580350000000   
C      0.169650000000     0.697200000000     0.554250000000   
C      0.419650000000     0.947200000000     0.804250000000   
C      0.302800000000     0.945750000000     0.669650000000   
C      0.052800000000     0.695750000000     0.919650000000   
C      0.054250000000     0.669650000000     0.697200000000   
C      0.304250000000     0.919650000000     0.947200000000   
C      0.169650000000     0.802800000000     0.945750000000   
C      0.419650000000     0.552800000000     0.695750000000   
C      0.054250000000     0.697200000000     0.669650000000   
C      0.304250000000     0.947200000000     0.919650000000   
C      0.169650000000     0.945750000000     0.802800000000   
C      0.419650000000     0.695750000000     0.552800000000   
C      0.302800000000     0.830350000000     0.554250000000   
C      0.052800000000     0.580350000000     0.804250000000   
C      0.054250000000     0.830350000000     0.802800000000   
C      0.304250000000     0.580350000000     0.552800000000   
C      0.330350000000     0.945750000000     0.697200000000   
C      0.080350000000     0.695750000000     0.947200000000   
C      0.197200000000     0.830350000000     0.945750000000   
C      0.447200000000     0.580350000000     0.695750000000   
C      0.445750000000     0.697200000000     0.830350000000   
C      0.195750000000     0.947200000000     0.580350000000   
C      0.445750000000     0.669650000000     0.802800000000   
C      0.195750000000     0.919650000000     0.552800000000   
C      0.054250000000     0.802800000000     0.830350000000   
C      0.304250000000     0.552800000000     0.580350000000   
C      0.169650000000     0.554250000000     0.697200000000   
C      0.419650000000     0.804250000000     0.947200000000   
C      0.302800000000     0.669650000000     0.945750000000   
C      0.052800000000     0.919650000000     0.695750000000   
C      0.197200000000     0.554250000000     0.669650000000   
C      0.447200000000     0.804250000000     0.919650000000   
C      0.330350000000     0.802800000000     0.554250000000   
C      0.080350000000     0.552800000000     0.804250000000   
C      0.183300000000     0.549450000000     0.816700000000   
C      0.433300000000     0.799450000000     0.566700000000   
C      0.049450000000     0.816700000000     0.683300000000   
C      0.299450000000     0.566700000000     0.933300000000   
C      0.316700000000     0.950550000000     0.816700000000   
C      0.066700000000     0.700550000000     0.566700000000   
C      0.183300000000     0.683300000000     0.950550000000   
C      0.433300000000     0.933300000000     0.700550000000   
C      0.316700000000     0.549450000000     0.683300000000   
C      0.450550000000     0.683300000000     0.683300000000   
C      0.183300000000     0.816700000000     0.549450000000   
C      0.316700000000     0.816700000000     0.950550000000   
C      0.066700000000     0.566700000000     0.700550000000   
C      0.450550000000     0.816700000000     0.816700000000   
C      0.200550000000     0.566700000000     0.566700000000   
C      0.299450000000     0.933300000000     0.566700000000   
C      0.183300000000     0.950550000000     0.683300000000   
C      0.433300000000     0.700550000000     0.933300000000   
N      0.205450000000     0.984050000000     0.840800000000   
N      0.455450000000     0.734050000000     0.590800000000   
N      0.484050000000     0.840800000000     0.705450000000   
N      0.234050000000     0.590800000000     0.955450000000   
N      0.340800000000     0.705450000000     0.984050000000   
N      0.090800000000     0.955450000000     0.734050000000   
N      0.484050000000     0.794550000000     0.659200000000   
N      0.234050000000     0.544550000000     0.909200000000   
N      0.340800000000     0.515950000000     0.794550000000   
N      0.090800000000     0.765950000000     0.544550000000   
N      0.205450000000     0.659200000000     0.515950000000   
N      0.455450000000     0.909200000000     0.765950000000   
N      0.294550000000     0.515950000000     0.840800000000   
N      0.044550000000     0.765950000000     0.590800000000   
N      0.159200000000     0.705450000000     0.515950000000   
N      0.409200000000     0.955450000000     0.765950000000   
N      0.294550000000     0.984050000000     0.659200000000   
N      0.044550000000     0.734050000000     0.909200000000   
N      0.015950000000     0.659200000000     0.705450000000   
N      0.265950000000     0.909200000000     0.955450000000   
N      0.159200000000     0.794550000000     0.984050000000   
N      0.409200000000     0.544550000000     0.734050000000   
N      0.015950000000     0.705450000000     0.659200000000   
N      0.265950000000     0.955450000000     0.909200000000   
N      0.159200000000     0.984050000000     0.794550000000   
N      0.409200000000     0.734050000000     0.544550000000   
N      0.294550000000     0.840800000000     0.515950000000   
N      0.044550000000     0.590800000000     0.765950000000   
N      0.015950000000     0.840800000000     0.794550000000   
N      0.265950000000     0.590800000000     0.544550000000   
N      0.340800000000     0.984050000000     0.705450000000   
N      0.090800000000     0.734050000000     0.955450000000   
N      0.205450000000     0.840800000000     0.984050000000   
N      0.455450000000     0.590800000000     0.734050000000   
N      0.484050000000     0.705450000000     0.840800000000   
N      0.234050000000     0.955450000000     0.590800000000   
N      0.484050000000     0.659200000000     0.794550000000   
N      0.234050000000     0.909200000000     0.544550000000   
N      0.015950000000     0.794550000000     0.840800000000   
N      0.265950000000     0.544550000000     0.590800000000   
N      0.159200000000     0.515950000000     0.705450000000   
N      0.409200000000     0.765950000000     0.955450000000   
N      0.294550000000     0.659200000000     0.984050000000   
N      0.044550000000     0.909200000000     0.734050000000   
N      0.205450000000     0.515950000000     0.659200000000   
N      0.455450000000     0.765950000000     0.909200000000   
N      0.340800000000     0.794550000000     0.515950000000   
N      0.090800000000     0.544550000000     0.765950000000   
Zn     0.250000000000     0.500000000000     0.875000000000   
Zn     0.000000000000     0.750000000000     0.625000000000   
Zn     0.000000000000     0.875000000000     0.750000000000   
Zn     0.250000000000     0.625000000000     0.500000000000   
Zn     0.375000000000     0.750000000000     0.500000000000   
Zn     0.125000000000     0.500000000000     0.750000000000   
Zn     0.375000000000     0.500000000000     0.750000000000   
Zn     0.125000000000     0.750000000000     0.500000000000   
Zn     0.250000000000     0.500000000000     0.625000000000   
Zn     0.000000000000     0.750000000000     0.875000000000   
Zn     0.000000000000     0.625000000000     0.750000000000   
Zn     0.250000000000     0.875000000000     0.500000000000   
H      0.209050000000     0.923600000000     0.840850000000   
H      0.459050000000     0.673600000000     0.590850000000   
H      0.423600000000     0.840850000000     0.709050000000   
H      0.173600000000     0.590850000000     0.959050000000   
H      0.340850000000     0.709050000000     0.923600000000   
H      0.090850000000     0.959050000000     0.673600000000   
H      0.423600000000     0.790950000000     0.659150000000   
H      0.173600000000     0.540950000000     0.909150000000   
H      0.340850000000     0.576400000000     0.790950000000   
H      0.090850000000     0.826400000000     0.540950000000   
H      0.209050000000     0.659150000000     0.576400000000   
H      0.459050000000     0.909150000000     0.826400000000   
H      0.290950000000     0.576400000000     0.840850000000   
H      0.040950000000     0.826400000000     0.590850000000   
H      0.159150000000     0.709050000000     0.576400000000   
H      0.409150000000     0.959050000000     0.826400000000   
H      0.290950000000     0.923600000000     0.659150000000   
H      0.040950000000     0.673600000000     0.909150000000   
H      0.076400000000     0.659150000000     0.709050000000   
H      0.326400000000     0.909150000000     0.959050000000   
H      0.159150000000     0.790950000000     0.923600000000   
H      0.409150000000     0.540950000000     0.673600000000   
H      0.076400000000     0.709050000000     0.659150000000   
H      0.326400000000     0.959050000000     0.909150000000   
H      0.159150000000     0.923600000000     0.790950000000   
H      0.409150000000     0.673600000000     0.540950000000   
H      0.290950000000     0.840850000000     0.576400000000   
H      0.040950000000     0.590850000000     0.826400000000   
H      0.076400000000     0.840850000000     0.790950000000   
H      0.326400000000     0.590850000000     0.540950000000   
H      0.340850000000     0.923600000000     0.709050000000   
H      0.090850000000     0.673600000000     0.959050000000   
H      0.209050000000     0.840850000000     0.923600000000   
H      0.459050000000     0.590850000000     0.673600000000   
H      0.423600000000     0.709050000000     0.840850000000   
H      0.173600000000     0.959050000000     0.590850000000   
H      0.423600000000     0.659150000000     0.790950000000   
H      0.173600000000     0.909150000000     0.540950000000   
H      0.076400000000     0.790950000000     0.840850000000   
H      0.326400000000     0.540950000000     0.590850000000   
H      0.159150000000     0.576400000000     0.709050000000   
H      0.409150000000     0.826400000000     0.959050000000   
H      0.290950000000     0.659150000000     0.923600000000   
H      0.040950000000     0.909150000000     0.673600000000   
H      0.209050000000     0.576400000000     0.659150000000   
H      0.459050000000     0.826400000000     0.909150000000   
H      0.340850000000     0.790950000000     0.576400000000   
H      0.090850000000     0.540950000000     0.826400000000   
H      0.202150000000     0.558400000000     0.797850000000   
H      0.452150000000     0.808400000000     0.547850000000   
H      0.058400000000     0.797850000000     0.702150000000   
H      0.308400000000     0.547850000000     0.952150000000   
H      0.297850000000     0.941600000000     0.797850000000   
H      0.047850000000     0.691600000000     0.547850000000   
H      0.202150000000     0.702150000000     0.941600000000   
H      0.452150000000     0.952150000000     0.691600000000   
H      0.297850000000     0.558400000000     0.702150000000   
H      0.441600000000     0.702150000000     0.702150000000   
H      0.202150000000     0.797850000000     0.558400000000   
H      0.297850000000     0.797850000000     0.941600000000   
H      0.047850000000     0.547850000000     0.691600000000   
H      0.441600000000     0.797850000000     0.797850000000   
H      0.191600000000     0.547850000000     0.547850000000   
H      0.308400000000     0.952150000000     0.547850000000   
H      0.202150000000     0.941600000000     0.702150000000   
H      0.452150000000     0.691600000000     0.952150000000   
H      0.157900000000     0.559300000000     0.809800000000   
H      0.407900000000     0.809300000000     0.559800000000   
H      0.059300000000     0.809800000000     0.657900000000   
H      0.309300000000     0.559800000000     0.907900000000   
H      0.059300000000     0.842100000000     0.690200000000   
H      0.309300000000     0.592100000000     0.940200000000   
H      0.309800000000     0.940700000000     0.842100000000   
H      0.059800000000     0.690700000000     0.592100000000   
H      0.157900000000     0.690200000000     0.940700000000   
H      0.407900000000     0.940200000000     0.690700000000   
H      0.342100000000     0.940700000000     0.809800000000   
H      0.092100000000     0.690700000000     0.559800000000   
H      0.190200000000     0.657900000000     0.940700000000   
H      0.440200000000     0.907900000000     0.690700000000   
H      0.342100000000     0.559300000000     0.690200000000   
H      0.440700000000     0.690200000000     0.657900000000   
H      0.190200000000     0.842100000000     0.559300000000   
H      0.440700000000     0.657900000000     0.690200000000   
H      0.190200000000     0.559300000000     0.842100000000   
H      0.440200000000     0.809300000000     0.592100000000   
H      0.342100000000     0.809800000000     0.940700000000   
H      0.092100000000     0.559800000000     0.690700000000   
H      0.440700000000     0.809800000000     0.842100000000   
H      0.190700000000     0.559800000000     0.592100000000   
H      0.309800000000     0.559300000000     0.657900000000   
H      0.157900000000     0.809800000000     0.559300000000   
H      0.309300000000     0.907900000000     0.559800000000   
H      0.309300000000     0.940200000000     0.592100000000   
H      0.440700000000     0.842100000000     0.809800000000   
H      0.190700000000     0.592100000000     0.559800000000   
H      0.190200000000     0.940700000000     0.657900000000   
H      0.440200000000     0.690700000000     0.907900000000   
H      0.157900000000     0.940700000000     0.690200000000   
H      0.407900000000     0.690700000000     0.940200000000   
H      0.309800000000     0.842100000000     0.940700000000   
H      0.059800000000     0.592100000000     0.690700000000   
Cl     0.070057467256     0.928828945705     0.804910029021   
Cl     0.313837666153     0.685630821698     0.791106563353   
Cl     0.291119995257     0.681861181988     0.821819837243   
Cl     0.429942532744     0.571171054295     0.804910029021   
Cl     0.071171054295     0.804910029021     0.929942532744   
Cl     0.195089970979     0.929942532744     0.928828945705   
C      0.682350000000     0.005500000000     0.317650000000   
C      0.932350000000     0.255500000000     0.067650000000   
C      0.505500000000     0.317650000000     0.182350000000   
C      0.755500000000     0.067650000000     0.432350000000   
C      0.817650000000     0.182350000000     0.005500000000   
C      0.567650000000     0.432350000000     0.255500000000   
C      0.817650000000     0.494500000000     0.317650000000   
C      0.567650000000     0.244500000000     0.067650000000   
C      0.682350000000     0.182350000000     0.494500000000   
C      0.932350000000     0.432350000000     0.244500000000   
C      0.817650000000     0.005500000000     0.182350000000   
C      0.567650000000     0.255500000000     0.432350000000   
C      0.994500000000     0.182350000000     0.182350000000   
C      0.744500000000     0.432350000000     0.432350000000   
C      0.682350000000     0.317650000000     0.005500000000   
C      0.932350000000     0.067650000000     0.255500000000   
C      0.817650000000     0.317650000000     0.494500000000   
C      0.567650000000     0.067650000000     0.244500000000   
C      0.994500000000     0.317650000000     0.317650000000   
C      0.744500000000     0.067650000000     0.067650000000   
C      0.505500000000     0.182350000000     0.317650000000   
C      0.755500000000     0.432350000000     0.067650000000   
C      0.682350000000     0.494500000000     0.182350000000   
C      0.932350000000     0.244500000000     0.432350000000   
C      0.697200000000     0.445750000000     0.330350000000   
C      0.947200000000     0.195750000000     0.080350000000   
C      0.945750000000     0.330350000000     0.197200000000   
C      0.695750000000     0.080350000000     0.447200000000   
C      0.830350000000     0.197200000000     0.445750000000   
C      0.580350000000     0.447200000000     0.195750000000   
C      0.945750000000     0.302800000000     0.169650000000   
C      0.695750000000     0.052800000000     0.419650000000   
C      0.830350000000     0.054250000000     0.302800000000   
C      0.580350000000     0.304250000000     0.052800000000   
C      0.697200000000     0.169650000000     0.054250000000   
C      0.947200000000     0.419650000000     0.304250000000   
C      0.802800000000     0.054250000000     0.330350000000   
C      0.552800000000     0.304250000000     0.080350000000   
C      0.669650000000     0.197200000000     0.054250000000   
C      0.919650000000     0.447200000000     0.304250000000   
C      0.802800000000     0.445750000000     0.169650000000   
C      0.552800000000     0.195750000000     0.419650000000   
C      0.554250000000     0.169650000000     0.197200000000   
C      0.804250000000     0.419650000000     0.447200000000   
C      0.669650000000     0.302800000000     0.445750000000   
C      0.919650000000     0.052800000000     0.195750000000   
C      0.554250000000     0.197200000000     0.169650000000   
C      0.804250000000     0.447200000000     0.419650000000   
C      0.669650000000     0.445750000000     0.302800000000   
C      0.919650000000     0.195750000000     0.052800000000   
C      0.802800000000     0.330350000000     0.054250000000   
C      0.552800000000     0.080350000000     0.304250000000   
C      0.554250000000     0.330350000000     0.302800000000   
C      0.804250000000     0.080350000000     0.052800000000   
C      0.830350000000     0.445750000000     0.197200000000   
C      0.580350000000     0.195750000000     0.447200000000   
C      0.697200000000     0.330350000000     0.445750000000   
C      0.947200000000     0.080350000000     0.195750000000   
C      0.945750000000     0.197200000000     0.330350000000   
C      0.695750000000     0.447200000000     0.080350000000   
C      0.945750000000     0.169650000000     0.302800000000   
C      0.695750000000     0.419650000000     0.052800000000   
C      0.554250000000     0.302800000000     0.330350000000   
C      0.804250000000     0.052800000000     0.080350000000   
C      0.669650000000     0.054250000000     0.197200000000   
C      0.919650000000     0.304250000000     0.447200000000   
C      0.802800000000     0.169650000000     0.445750000000   
C      0.552800000000     0.419650000000     0.195750000000   
C      0.697200000000     0.054250000000     0.169650000000   
C      0.947200000000     0.304250000000     0.419650000000   
C      0.830350000000     0.302800000000     0.054250000000   
C      0.580350000000     0.052800000000     0.304250000000   
C      0.683300000000     0.049450000000     0.316700000000   
C      0.933300000000     0.299450000000     0.066700000000   
C      0.549450000000     0.316700000000     0.183300000000   
C      0.799450000000     0.066700000000     0.433300000000   
C      0.816700000000     0.450550000000     0.316700000000   
C      0.566700000000     0.200550000000     0.066700000000   
C      0.683300000000     0.183300000000     0.450550000000   
C      0.933300000000     0.433300000000     0.200550000000   
C      0.816700000000     0.049450000000     0.183300000000   
C      0.950550000000     0.183300000000     0.183300000000   
C      0.683300000000     0.316700000000     0.049450000000   
C      0.816700000000     0.316700000000     0.450550000000   
C      0.566700000000     0.066700000000     0.200550000000   
C      0.950550000000     0.316700000000     0.316700000000   
C      0.700550000000     0.066700000000     0.066700000000   
C      0.799450000000     0.433300000000     0.066700000000   
C      0.683300000000     0.450550000000     0.183300000000   
C      0.933300000000     0.200550000000     0.433300000000   
N      0.705450000000     0.484050000000     0.340800000000   
N      0.955450000000     0.234050000000     0.090800000000   
N      0.984050000000     0.340800000000     0.205450000000   
N      0.734050000000     0.090800000000     0.455450000000   
N      0.840800000000     0.205450000000     0.484050000000   
N      0.590800000000     0.455450000000     0.234050000000   
N      0.984050000000     0.294550000000     0.159200000000   
N      0.734050000000     0.044550000000     0.409200000000   
N      0.840800000000     0.015950000000     0.294550000000   
N      0.590800000000     0.265950000000     0.044550000000   
N      0.705450000000     0.159200000000     0.015950000000   
N      0.955450000000     0.409200000000     0.265950000000   
N      0.794550000000     0.015950000000     0.340800000000   
N      0.544550000000     0.265950000000     0.090800000000   
N      0.659200000000     0.205450000000     0.015950000000   
N      0.909200000000     0.455450000000     0.265950000000   
N      0.794550000000     0.484050000000     0.159200000000   
N      0.544550000000     0.234050000000     0.409200000000   
N      0.515950000000     0.159200000000     0.205450000000   
N      0.765950000000     0.409200000000     0.455450000000   
N      0.659200000000     0.294550000000     0.484050000000   
N      0.909200000000     0.044550000000     0.234050000000   
N      0.515950000000     0.205450000000     0.159200000000   
N      0.765950000000     0.455450000000     0.409200000000   
N      0.659200000000     0.484050000000     0.294550000000   
N      0.909200000000     0.234050000000     0.044550000000   
N      0.794550000000     0.340800000000     0.015950000000   
N      0.544550000000     0.090800000000     0.265950000000   
N      0.515950000000     0.340800000000     0.294550000000   
N      0.765950000000     0.090800000000     0.044550000000   
N      0.840800000000     0.484050000000     0.205450000000   
N      0.590800000000     0.234050000000     0.455450000000   
N      0.705450000000     0.340800000000     0.484050000000   
N      0.955450000000     0.090800000000     0.234050000000   
N      0.984050000000     0.205450000000     0.340800000000   
N      0.734050000000     0.455450000000     0.090800000000   
N      0.984050000000     0.159200000000     0.294550000000   
N      0.734050000000     0.409200000000     0.044550000000   
N      0.515950000000     0.294550000000     0.340800000000   
N      0.765950000000     0.044550000000     0.090800000000   
N      0.659200000000     0.015950000000     0.205450000000   
N      0.909200000000     0.265950000000     0.455450000000   
N      0.794550000000     0.159200000000     0.484050000000   
N      0.544550000000     0.409200000000     0.234050000000   
N      0.705450000000     0.015950000000     0.159200000000   
N      0.955450000000     0.265950000000     0.409200000000   
N      0.840800000000     0.294550000000     0.015950000000   
N      0.590800000000     0.044550000000     0.265950000000   
Zn     0.750000000000     0.000000000000     0.375000000000   
Zn     0.500000000000     0.250000000000     0.125000000000   
Zn     0.500000000000     0.375000000000     0.250000000000   
Zn     0.750000000000     0.125000000000     0.000000000000   
Zn     0.875000000000     0.250000000000     0.000000000000   
Zn     0.625000000000     0.000000000000     0.250000000000   
Zn     0.875000000000     0.000000000000     0.250000000000   
Zn     0.625000000000     0.250000000000     0.000000000000   
Zn     0.750000000000     0.000000000000     0.125000000000   
Zn     0.500000000000     0.250000000000     0.375000000000   
Zn     0.500000000000     0.125000000000     0.250000000000   
Zn     0.750000000000     0.375000000000     0.000000000000   
H      0.709050000000     0.423600000000     0.340850000000   
H      0.959050000000     0.173600000000     0.090850000000   
H      0.923600000000     0.340850000000     0.209050000000   
H      0.673600000000     0.090850000000     0.459050000000   
H      0.840850000000     0.209050000000     0.423600000000   
H      0.590850000000     0.459050000000     0.173600000000   
H      0.923600000000     0.290950000000     0.159150000000   
H      0.673600000000     0.040950000000     0.409150000000   
H      0.840850000000     0.076400000000     0.290950000000   
H      0.590850000000     0.326400000000     0.040950000000   
H      0.709050000000     0.159150000000     0.076400000000   
H      0.959050000000     0.409150000000     0.326400000000   
H      0.790950000000     0.076400000000     0.340850000000   
H      0.540950000000     0.326400000000     0.090850000000   
H      0.659150000000     0.209050000000     0.076400000000   
H      0.909150000000     0.459050000000     0.326400000000   
H      0.790950000000     0.423600000000     0.159150000000   
H      0.540950000000     0.173600000000     0.409150000000   
H      0.576400000000     0.159150000000     0.209050000000   
H      0.826400000000     0.409150000000     0.459050000000   
H      0.659150000000     0.290950000000     0.423600000000   
H      0.909150000000     0.040950000000     0.173600000000   
H      0.576400000000     0.209050000000     0.159150000000   
H      0.826400000000     0.459050000000     0.409150000000   
H      0.659150000000     0.423600000000     0.290950000000   
H      0.909150000000     0.173600000000     0.040950000000   
H      0.790950000000     0.340850000000     0.076400000000   
H      0.540950000000     0.090850000000     0.326400000000   
H      0.576400000000     0.340850000000     0.290950000000   
H      0.826400000000     0.090850000000     0.040950000000   
H      0.840850000000     0.423600000000     0.209050000000   
H      0.590850000000     0.173600000000     0.459050000000   
H      0.709050000000     0.340850000000     0.423600000000   
H      0.959050000000     0.090850000000     0.173600000000   
H      0.923600000000     0.209050000000     0.340850000000   
H      0.673600000000     0.459050000000     0.090850000000   
H      0.923600000000     0.159150000000     0.290950000000   
H      0.673600000000     0.409150000000     0.040950000000   
H      0.576400000000     0.290950000000     0.340850000000   
H      0.826400000000     0.040950000000     0.090850000000   
H      0.659150000000     0.076400000000     0.209050000000   
H      0.909150000000     0.326400000000     0.459050000000   
H      0.790950000000     0.159150000000     0.423600000000   
H      0.540950000000     0.409150000000     0.173600000000   
H      0.709050000000     0.076400000000     0.159150000000   
H      0.959050000000     0.326400000000     0.409150000000   
H      0.840850000000     0.290950000000     0.076400000000   
H      0.590850000000     0.040950000000     0.326400000000   
H      0.702150000000     0.058400000000     0.297850000000   
H      0.952150000000     0.308400000000     0.047850000000   
H      0.558400000000     0.297850000000     0.202150000000   
H      0.808400000000     0.047850000000     0.452150000000   
H      0.797850000000     0.441600000000     0.297850000000   
H      0.547850000000     0.191600000000     0.047850000000   
H      0.702150000000     0.202150000000     0.441600000000   
H      0.952150000000     0.452150000000     0.191600000000   
H      0.797850000000     0.058400000000     0.202150000000   
H      0.941600000000     0.202150000000     0.202150000000   
H      0.702150000000     0.297850000000     0.058400000000   
H      0.797850000000     0.297850000000     0.441600000000   
H      0.547850000000     0.047850000000     0.191600000000   
H      0.941600000000     0.297850000000     0.297850000000   
H      0.691600000000     0.047850000000     0.047850000000   
H      0.808400000000     0.452150000000     0.047850000000   
H      0.702150000000     0.441600000000     0.202150000000   
H      0.952150000000     0.191600000000     0.452150000000   
H      0.657900000000     0.059300000000     0.309800000000   
H      0.907900000000     0.309300000000     0.059800000000   
H      0.559300000000     0.309800000000     0.157900000000   
H      0.809300000000     0.059800000000     0.407900000000   
H      0.559300000000     0.342100000000     0.190200000000   
H      0.809300000000     0.092100000000     0.440200000000   
H      0.809800000000     0.440700000000     0.342100000000   
H      0.559800000000     0.190700000000     0.092100000000   
H      0.657900000000     0.190200000000     0.440700000000   
H      0.907900000000     0.440200000000     0.190700000000   
H      0.842100000000     0.440700000000     0.309800000000   
H      0.592100000000     0.190700000000     0.059800000000   
H      0.690200000000     0.157900000000     0.440700000000   
H      0.940200000000     0.407900000000     0.190700000000   
H      0.842100000000     0.059300000000     0.190200000000   
H      0.940700000000     0.190200000000     0.157900000000   
H      0.690200000000     0.342100000000     0.059300000000   
H      0.940700000000     0.157900000000     0.190200000000   
H      0.690200000000     0.059300000000     0.342100000000   
H      0.940200000000     0.309300000000     0.092100000000   
H      0.842100000000     0.309800000000     0.440700000000   
H      0.592100000000     0.059800000000     0.190700000000   
H      0.940700000000     0.309800000000     0.342100000000   
H      0.690700000000     0.059800000000     0.092100000000   
H      0.809800000000     0.059300000000     0.157900000000   
H      0.657900000000     0.309800000000     0.059300000000   
H      0.809300000000     0.407900000000     0.059800000000   
H      0.809300000000     0.440200000000     0.092100000000   
H      0.940700000000     0.342100000000     0.309800000000   
H      0.690700000000     0.092100000000     0.059800000000   
H      0.690200000000     0.440700000000     0.157900000000   
H      0.940200000000     0.190700000000     0.407900000000   
H      0.657900000000     0.440700000000     0.190200000000   
H      0.907900000000     0.190700000000     0.440200000000   
H      0.809800000000     0.342100000000     0.440700000000   
H      0.559800000000     0.092100000000     0.190700000000   
Cl     0.570057467256     0.428828945705     0.304910029021   
Cl     0.813837666153     0.185630821698     0.291106563353   
Cl     0.791119995257     0.181861181988     0.321819837243   
Cl     0.929942532744     0.071171054295     0.304910029021   
Cl     0.571171054295     0.304910029021     0.429942532744   
Cl     0.695089970979     0.429942532744     0.428828945705   
C      0.682350000000     0.005500000000     0.817650000000   
C      0.932350000000     0.255500000000     0.567650000000   
C      0.505500000000     0.317650000000     0.682350000000   
C      0.755500000000     0.067650000000     0.932350000000   
C      0.817650000000     0.182350000000     0.505500000000   
C      0.567650000000     0.432350000000     0.755500000000   
C      0.817650000000     0.494500000000     0.817650000000   
C      0.567650000000     0.244500000000     0.567650000000   
C      0.682350000000     0.182350000000     0.994500000000   
C      0.932350000000     0.432350000000     0.744500000000   
C      0.817650000000     0.005500000000     0.682350000000   
C      0.567650000000     0.255500000000     0.932350000000   
C      0.994500000000     0.182350000000     0.682350000000   
C      0.744500000000     0.432350000000     0.932350000000   
C      0.682350000000     0.317650000000     0.505500000000   
C      0.932350000000     0.067650000000     0.755500000000   
C      0.817650000000     0.317650000000     0.994500000000   
C      0.567650000000     0.067650000000     0.744500000000   
C      0.994500000000     0.317650000000     0.817650000000   
C      0.744500000000     0.067650000000     0.567650000000   
C      0.505500000000     0.182350000000     0.817650000000   
C      0.755500000000     0.432350000000     0.567650000000   
C      0.682350000000     0.494500000000     0.682350000000   
C      0.932350000000     0.244500000000     0.932350000000   
C      0.697200000000     0.445750000000     0.830350000000   
C      0.947200000000     0.195750000000     0.580350000000   
C      0.945750000000     0.330350000000     0.697200000000   
C      0.695750000000     0.080350000000     0.947200000000   
C      0.830350000000     0.197200000000     0.945750000000   
C      0.580350000000     0.447200000000     0.695750000000   
C      0.945750000000     0.302800000000     0.669650000000   
C      0.695750000000     0.052800000000     0.919650000000   
C      0.830350000000     0.054250000000     0.802800000000   
C      0.580350000000     0.304250000000     0.552800000000   
C      0.697200000000     0.169650000000     0.554250000000   
C      0.947200000000     0.419650000000     0.804250000000   
C      0.802800000000     0.054250000000     0.830350000000   
C      0.552800000000     0.304250000000     0.580350000000   
C      0.669650000000     0.197200000000     0.554250000000   
C      0.919650000000     0.447200000000     0.804250000000   
C      0.802800000000     0.445750000000     0.669650000000   
C      0.552800000000     0.195750000000     0.919650000000   
C      0.554250000000     0.169650000000     0.697200000000   
C      0.804250000000     0.419650000000     0.947200000000   
C      0.669650000000     0.302800000000     0.945750000000   
C      0.919650000000     0.052800000000     0.695750000000   
C      0.554250000000     0.197200000000     0.669650000000   
C      0.804250000000     0.447200000000     0.919650000000   
C      0.669650000000     0.445750000000     0.802800000000   
C      0.919650000000     0.195750000000     0.552800000000   
C      0.802800000000     0.330350000000     0.554250000000   
C      0.552800000000     0.080350000000     0.804250000000   
C      0.554250000000     0.330350000000     0.802800000000   
C      0.804250000000     0.080350000000     0.552800000000   
C      0.830350000000     0.445750000000     0.697200000000   
C      0.580350000000     0.195750000000     0.947200000000   
C      0.697200000000     0.330350000000     0.945750000000   
C      0.947200000000     0.080350000000     0.695750000000   
C      0.945750000000     0.197200000000     0.830350000000   
C      0.695750000000     0.447200000000     0.580350000000   
C      0.945750000000     0.169650000000     0.802800000000   
C      0.695750000000     0.419650000000     0.552800000000   
C      0.554250000000     0.302800000000     0.830350000000   
C      0.804250000000     0.052800000000     0.580350000000   
C      0.669650000000     0.054250000000     0.697200000000   
C      0.919650000000     0.304250000000     0.947200000000   
C      0.802800000000     0.169650000000     0.945750000000   
C      0.552800000000     0.419650000000     0.695750000000   
C      0.697200000000     0.054250000000     0.669650000000   
C      0.947200000000     0.304250000000     0.919650000000   
C      0.830350000000     0.302800000000     0.554250000000   
C      0.580350000000     0.052800000000     0.804250000000   
C      0.683300000000     0.049450000000     0.816700000000   
C      0.933300000000     0.299450000000     0.566700000000   
C      0.549450000000     0.316700000000     0.683300000000   
C      0.799450000000     0.066700000000     0.933300000000   
C      0.816700000000     0.450550000000     0.816700000000   
C      0.566700000000     0.200550000000     0.566700000000   
C      0.683300000000     0.183300000000     0.950550000000   
C      0.933300000000     0.433300000000     0.700550000000   
C      0.816700000000     0.049450000000     0.683300000000   
C      0.950550000000     0.183300000000     0.683300000000   
C      0.683300000000     0.316700000000     0.549450000000   
C      0.816700000000     0.316700000000     0.950550000000   
C      0.566700000000     0.066700000000     0.700550000000   
C      0.950550000000     0.316700000000     0.816700000000   
C      0.700550000000     0.066700000000     0.566700000000   
C      0.799450000000     0.433300000000     0.566700000000   
C      0.683300000000     0.450550000000     0.683300000000   
C      0.933300000000     0.200550000000     0.933300000000   
N      0.705450000000     0.484050000000     0.840800000000   
N      0.955450000000     0.234050000000     0.590800000000   
N      0.984050000000     0.340800000000     0.705450000000   
N      0.734050000000     0.090800000000     0.955450000000   
N      0.840800000000     0.205450000000     0.984050000000   
N      0.590800000000     0.455450000000     0.734050000000   
N      0.984050000000     0.294550000000     0.659200000000   
N      0.734050000000     0.044550000000     0.909200000000   
N      0.840800000000     0.015950000000     0.794550000000   
N      0.590800000000     0.265950000000     0.544550000000   
N      0.705450000000     0.159200000000     0.515950000000   
N      0.955450000000     0.409200000000     0.765950000000   
N      0.794550000000     0.015950000000     0.840800000000   
N      0.544550000000     0.265950000000     0.590800000000   
N      0.659200000000     0.205450000000     0.515950000000   
N      0.909200000000     0.455450000000     0.765950000000   
N      0.794550000000     0.484050000000     0.659200000000   
N      0.544550000000     0.234050000000     0.909200000000   
N      0.515950000000     0.159200000000     0.705450000000   
N      0.765950000000     0.409200000000     0.955450000000   
N      0.659200000000     0.294550000000     0.984050000000   
N      0.909200000000     0.044550000000     0.734050000000   
N      0.515950000000     0.205450000000     0.659200000000   
N      0.765950000000     0.455450000000     0.909200000000   
N      0.659200000000     0.484050000000     0.794550000000   
N      0.909200000000     0.234050000000     0.544550000000   
N      0.794550000000     0.340800000000     0.515950000000   
N      0.544550000000     0.090800000000     0.765950000000   
N      0.515950000000     0.340800000000     0.794550000000   
N      0.765950000000     0.090800000000     0.544550000000   
N      0.840800000000     0.484050000000     0.705450000000   
N      0.590800000000     0.234050000000     0.955450000000   
N      0.705450000000     0.340800000000     0.984050000000   
N      0.955450000000     0.090800000000     0.734050000000   
N      0.984050000000     0.205450000000     0.840800000000   
N      0.734050000000     0.455450000000     0.590800000000   
N      0.984050000000     0.159200000000     0.794550000000   
N      0.734050000000     0.409200000000     0.544550000000   
N      0.515950000000     0.294550000000     0.840800000000   
N      0.765950000000     0.044550000000     0.590800000000   
N      0.659200000000     0.015950000000     0.705450000000   
N      0.909200000000     0.265950000000     0.955450000000   
N      0.794550000000     0.159200000000     0.984050000000   
N      0.544550000000     0.409200000000     0.734050000000   
N      0.705450000000     0.015950000000     0.659200000000   
N      0.955450000000     0.265950000000     0.909200000000   
N      0.840800000000     0.294550000000     0.515950000000   
N      0.590800000000     0.044550000000     0.765950000000   
Zn     0.750000000000     0.000000000000     0.875000000000   
Zn     0.500000000000     0.250000000000     0.625000000000   
Zn     0.500000000000     0.375000000000     0.750000000000   
Zn     0.750000000000     0.125000000000     0.500000000000   
Zn     0.875000000000     0.250000000000     0.500000000000   
Zn     0.625000000000     0.000000000000     0.750000000000   
Zn     0.875000000000     0.000000000000     0.750000000000   
Zn     0.625000000000     0.250000000000     0.500000000000   
Zn     0.750000000000     0.000000000000     0.625000000000   
Zn     0.500000000000     0.250000000000     0.875000000000   
Zn     0.500000000000     0.125000000000     0.750000000000   
Zn     0.750000000000     0.375000000000     0.500000000000   
H      0.709050000000     0.423600000000     0.840850000000   
H      0.959050000000     0.173600000000     0.590850000000   
H      0.923600000000     0.340850000000     0.709050000000   
H      0.673600000000     0.090850000000     0.959050000000   
H      0.840850000000     0.209050000000     0.923600000000   
H      0.590850000000     0.459050000000     0.673600000000   
H      0.923600000000     0.290950000000     0.659150000000   
H      0.673600000000     0.040950000000     0.909150000000   
H      0.840850000000     0.076400000000     0.790950000000   
H      0.590850000000     0.326400000000     0.540950000000   
H      0.709050000000     0.159150000000     0.576400000000   
H      0.959050000000     0.409150000000     0.826400000000   
H      0.790950000000     0.076400000000     0.840850000000   
H      0.540950000000     0.326400000000     0.590850000000   
H      0.659150000000     0.209050000000     0.576400000000   
H      0.909150000000     0.459050000000     0.826400000000   
H      0.790950000000     0.423600000000     0.659150000000   
H      0.540950000000     0.173600000000     0.909150000000   
H      0.576400000000     0.159150000000     0.709050000000   
H      0.826400000000     0.409150000000     0.959050000000   
H      0.659150000000     0.290950000000     0.923600000000   
H      0.909150000000     0.040950000000     0.673600000000   
H      0.576400000000     0.209050000000     0.659150000000   
H      0.826400000000     0.459050000000     0.909150000000   
H      0.659150000000     0.423600000000     0.790950000000   
H      0.909150000000     0.173600000000     0.540950000000   
H      0.790950000000     0.340850000000     0.576400000000   
H      0.540950000000     0.090850000000     0.826400000000   
H      0.576400000000     0.340850000000     0.790950000000   
H      0.826400000000     0.090850000000     0.540950000000   
H      0.840850000000     0.423600000000     0.709050000000   
H      0.590850000000     0.173600000000     0.959050000000   
H      0.709050000000     0.340850000000     0.923600000000   
H      0.959050000000     0.090850000000     0.673600000000   
H      0.923600000000     0.209050000000     0.840850000000   
H      0.673600000000     0.459050000000     0.590850000000   
H      0.923600000000     0.159150000000     0.790950000000   
H      0.673600000000     0.409150000000     0.540950000000   
H      0.576400000000     0.290950000000     0.840850000000   
H      0.826400000000     0.040950000000     0.590850000000   
H      0.659150000000     0.076400000000     0.709050000000   
H      0.909150000000     0.326400000000     0.959050000000   
H      0.790950000000     0.159150000000     0.923600000000   
H      0.540950000000     0.409150000000     0.673600000000   
H      0.709050000000     0.076400000000     0.659150000000   
H      0.959050000000     0.326400000000     0.909150000000   
H      0.840850000000     0.290950000000     0.576400000000   
H      0.590850000000     0.040950000000     0.826400000000   
H      0.702150000000     0.058400000000     0.797850000000   
H      0.952150000000     0.308400000000     0.547850000000   
H      0.558400000000     0.297850000000     0.702150000000   
H      0.808400000000     0.047850000000     0.952150000000   
H      0.797850000000     0.441600000000     0.797850000000   
H      0.547850000000     0.191600000000     0.547850000000   
H      0.702150000000     0.202150000000     0.941600000000   
H      0.952150000000     0.452150000000     0.691600000000   
H      0.797850000000     0.058400000000     0.702150000000   
H      0.941600000000     0.202150000000     0.702150000000   
H      0.702150000000     0.297850000000     0.558400000000   
H      0.797850000000     0.297850000000     0.941600000000   
H      0.547850000000     0.047850000000     0.691600000000   
H      0.941600000000     0.297850000000     0.797850000000   
H      0.691600000000     0.047850000000     0.547850000000   
H      0.808400000000     0.452150000000     0.547850000000   
H      0.702150000000     0.441600000000     0.702150000000   
H      0.952150000000     0.191600000000     0.952150000000   
H      0.657900000000     0.059300000000     0.809800000000   
H      0.907900000000     0.309300000000     0.559800000000   
H      0.559300000000     0.309800000000     0.657900000000   
H      0.809300000000     0.059800000000     0.907900000000   
H      0.559300000000     0.342100000000     0.690200000000   
H      0.809300000000     0.092100000000     0.940200000000   
H      0.809800000000     0.440700000000     0.842100000000   
H      0.559800000000     0.190700000000     0.592100000000   
H      0.657900000000     0.190200000000     0.940700000000   
H      0.907900000000     0.440200000000     0.690700000000   
H      0.842100000000     0.440700000000     0.809800000000   
H      0.592100000000     0.190700000000     0.559800000000   
H      0.690200000000     0.157900000000     0.940700000000   
H      0.940200000000     0.407900000000     0.690700000000   
H      0.842100000000     0.059300000000     0.690200000000   
H      0.940700000000     0.190200000000     0.657900000000   
H      0.690200000000     0.342100000000     0.559300000000   
H      0.940700000000     0.157900000000     0.690200000000   
H      0.690200000000     0.059300000000     0.842100000000   
H      0.940200000000     0.309300000000     0.592100000000   
H      0.842100000000     0.309800000000     0.940700000000   
H      0.592100000000     0.059800000000     0.690700000000   
H      0.940700000000     0.309800000000     0.842100000000   
H      0.690700000000     0.059800000000     0.592100000000   
H      0.809800000000     0.059300000000     0.657900000000   
H      0.657900000000     0.309800000000     0.559300000000   
H      0.809300000000     0.407900000000     0.559800000000   
H      0.809300000000     0.440200000000     0.592100000000   
H      0.940700000000     0.342100000000     0.809800000000   
H      0.690700000000     0.092100000000     0.559800000000   
H      0.690200000000     0.440700000000     0.657900000000   
H      0.940200000000     0.190700000000     0.907900000000   
H      0.657900000000     0.440700000000     0.690200000000   
H      0.907900000000     0.190700000000     0.940200000000   
H      0.809800000000     0.342100000000     0.940700000000   
H      0.559800000000     0.092100000000     0.690700000000   
Cl     0.570057467256     0.428828945705     0.804910029021   
Cl     0.813837666153     0.185630821698     0.791106563353   
Cl     0.791119995257     0.181861181988     0.821819837243   
Cl     0.929942532744     0.071171054295     0.804910029021   
Cl     0.571171054295     0.304910029021     0.929942532744   
Cl     0.695089970979     0.429942532744     0.928828945705   
C      0.682350000000     0.505500000000     0.317650000000   
C      0.932350000000     0.755500000000     0.067650000000   
C      0.505500000000     0.817650000000     0.182350000000   
C      0.755500000000     0.567650000000     0.432350000000   
C      0.817650000000     0.682350000000     0.005500000000   
C      0.567650000000     0.932350000000     0.255500000000   
C      0.817650000000     0.994500000000     0.317650000000   
C      0.567650000000     0.744500000000     0.067650000000   
C      0.682350000000     0.682350000000     0.494500000000   
C      0.932350000000     0.932350000000     0.244500000000   
C      0.817650000000     0.505500000000     0.182350000000   
C      0.567650000000     0.755500000000     0.432350000000   
C      0.994500000000     0.682350000000     0.182350000000   
C      0.744500000000     0.932350000000     0.432350000000   
C      0.682350000000     0.817650000000     0.005500000000   
C      0.932350000000     0.567650000000     0.255500000000   
C      0.817650000000     0.817650000000     0.494500000000   
C      0.567650000000     0.567650000000     0.244500000000   
C      0.994500000000     0.817650000000     0.317650000000   
C      0.744500000000     0.567650000000     0.067650000000   
C      0.505500000000     0.682350000000     0.317650000000   
C      0.755500000000     0.932350000000     0.067650000000   
C      0.682350000000     0.994500000000     0.182350000000   
C      0.932350000000     0.744500000000     0.432350000000   
C      0.697200000000     0.945750000000     0.330350000000   
C      0.947200000000     0.695750000000     0.080350000000   
C      0.945750000000     0.830350000000     0.197200000000   
C      0.695750000000     0.580350000000     0.447200000000   
C      0.830350000000     0.697200000000     0.445750000000   
C      0.580350000000     0.947200000000     0.195750000000   
C      0.945750000000     0.802800000000     0.169650000000   
C      0.695750000000     0.552800000000     0.419650000000   
C      0.830350000000     0.554250000000     0.302800000000   
C      0.580350000000     0.804250000000     0.052800000000   
C      0.697200000000     0.669650000000     0.054250000000   
C      0.947200000000     0.919650000000     0.304250000000   
C      0.802800000000     0.554250000000     0.330350000000   
C      0.552800000000     0.804250000000     0.080350000000   
C      0.669650000000     0.697200000000     0.054250000000   
C      0.919650000000     0.947200000000     0.304250000000   
C      0.802800000000     0.945750000000     0.169650000000   
C      0.552800000000     0.695750000000     0.419650000000   
C      0.554250000000     0.669650000000     0.197200000000   
C      0.804250000000     0.919650000000     0.447200000000   
C      0.669650000000     0.802800000000     0.445750000000   
C      0.919650000000     0.552800000000     0.195750000000   
C      0.554250000000     0.697200000000     0.169650000000   
C      0.804250000000     0.947200000000     0.419650000000   
C      0.669650000000     0.945750000000     0.302800000000   
C      0.919650000000     0.695750000000     0.052800000000   
C      0.802800000000     0.830350000000     0.054250000000   
C      0.552800000000     0.580350000000     0.304250000000   
C      0.554250000000     0.830350000000     0.302800000000   
C      0.804250000000     0.580350000000     0.052800000000   
C      0.830350000000     0.945750000000     0.197200000000   
C      0.580350000000     0.695750000000     0.447200000000   
C      0.697200000000     0.830350000000     0.445750000000   
C      0.947200000000     0.580350000000     0.195750000000   
C      0.945750000000     0.697200000000     0.330350000000   
C      0.695750000000     0.947200000000     0.080350000000   
C      0.945750000000     0.669650000000     0.302800000000   
C      0.695750000000     0.919650000000     0.052800000000   
C      0.554250000000     0.802800000000     0.330350000000   
C      0.804250000000     0.552800000000     0.080350000000   
C      0.669650000000     0.554250000000     0.197200000000   
C      0.919650000000     0.804250000000     0.447200000000   
C      0.802800000000     0.669650000000     0.445750000000   
C      0.552800000000     0.919650000000     0.195750000000   
C      0.697200000000     0.554250000000     0.169650000000   
C      0.947200000000     0.804250000000     0.419650000000   
C      0.830350000000     0.802800000000     0.054250000000   
C      0.580350000000     0.552800000000     0.304250000000   
C      0.683300000000     0.549450000000     0.316700000000   
C      0.933300000000     0.799450000000     0.066700000000   
C      0.549450000000     0.816700000000     0.183300000000   
C      0.799450000000     0.566700000000     0.433300000000   
C      0.816700000000     0.950550000000     0.316700000000   
C      0.566700000000     0.700550000000     0.066700000000   
C      0.683300000000     0.683300000000     0.450550000000   
C      0.933300000000     0.933300000000     0.200550000000   
C      0.816700000000     0.549450000000     0.183300000000   
C      0.950550000000     0.683300000000     0.183300000000   
C      0.683300000000     0.816700000000     0.049450000000   
C      0.816700000000     0.816700000000     0.450550000000   
C      0.566700000000     0.566700000000     0.200550000000   
C      0.950550000000     0.816700000000     0.316700000000   
C      0.700550000000     0.566700000000     0.066700000000   
C      0.799450000000     0.933300000000     0.066700000000   
C      0.683300000000     0.950550000000     0.183300000000   
C      0.933300000000     0.700550000000     0.433300000000   
N      0.705450000000     0.984050000000     0.340800000000   
N      0.955450000000     0.734050000000     0.090800000000   
N      0.984050000000     0.840800000000     0.205450000000   
N      0.734050000000     0.590800000000     0.455450000000   
N      0.840800000000     0.705450000000     0.484050000000   
N      0.590800000000     0.955450000000     0.234050000000   
N      0.984050000000     0.794550000000     0.159200000000   
N      0.734050000000     0.544550000000     0.409200000000   
N      0.840800000000     0.515950000000     0.294550000000   
N      0.590800000000     0.765950000000     0.044550000000   
N      0.705450000000     0.659200000000     0.015950000000   
N      0.955450000000     0.909200000000     0.265950000000   
N      0.794550000000     0.515950000000     0.340800000000   
N      0.544550000000     0.765950000000     0.090800000000   
N      0.659200000000     0.705450000000     0.015950000000   
N      0.909200000000     0.955450000000     0.265950000000   
N      0.794550000000     0.984050000000     0.159200000000   
N      0.544550000000     0.734050000000     0.409200000000   
N      0.515950000000     0.659200000000     0.205450000000   
N      0.765950000000     0.909200000000     0.455450000000   
N      0.659200000000     0.794550000000     0.484050000000   
N      0.909200000000     0.544550000000     0.234050000000   
N      0.515950000000     0.705450000000     0.159200000000   
N      0.765950000000     0.955450000000     0.409200000000   
N      0.659200000000     0.984050000000     0.294550000000   
N      0.909200000000     0.734050000000     0.044550000000   
N      0.794550000000     0.840800000000     0.015950000000   
N      0.544550000000     0.590800000000     0.265950000000   
N      0.515950000000     0.840800000000     0.294550000000   
N      0.765950000000     0.590800000000     0.044550000000   
N      0.840800000000     0.984050000000     0.205450000000   
N      0.590800000000     0.734050000000     0.455450000000   
N      0.705450000000     0.840800000000     0.484050000000   
N      0.955450000000     0.590800000000     0.234050000000   
N      0.984050000000     0.705450000000     0.340800000000   
N      0.734050000000     0.955450000000     0.090800000000   
N      0.984050000000     0.659200000000     0.294550000000   
N      0.734050000000     0.909200000000     0.044550000000   
N      0.515950000000     0.794550000000     0.340800000000   
N      0.765950000000     0.544550000000     0.090800000000   
N      0.659200000000     0.515950000000     0.205450000000   
N      0.909200000000     0.765950000000     0.455450000000   
N      0.794550000000     0.659200000000     0.484050000000   
N      0.544550000000     0.909200000000     0.234050000000   
N      0.705450000000     0.515950000000     0.159200000000   
N      0.955450000000     0.765950000000     0.409200000000   
N      0.840800000000     0.794550000000     0.015950000000   
N      0.590800000000     0.544550000000     0.265950000000   
Zn     0.750000000000     0.500000000000     0.375000000000   
Zn     0.500000000000     0.750000000000     0.125000000000   
Zn     0.500000000000     0.875000000000     0.250000000000   
Zn     0.750000000000     0.625000000000     0.000000000000   
Zn     0.875000000000     0.750000000000     0.000000000000   
Zn     0.625000000000     0.500000000000     0.250000000000   
Zn     0.875000000000     0.500000000000     0.250000000000   
Zn     0.625000000000     0.750000000000     0.000000000000   
Zn     0.750000000000     0.500000000000     0.125000000000   
Zn     0.500000000000     0.750000000000     0.375000000000   
Zn     0.500000000000     0.625000000000     0.250000000000   
Zn     0.750000000000     0.875000000000     0.000000000000   
H      0.709050000000     0.923600000000     0.340850000000   
H      0.959050000000     0.673600000000     0.090850000000   
H      0.923600000000     0.840850000000     0.209050000000   
H      0.673600000000     0.590850000000     0.459050000000   
H      0.840850000000     0.709050000000     0.423600000000   
H      0.590850000000     0.959050000000     0.173600000000   
H      0.923600000000     0.790950000000     0.159150000000   
H      0.673600000000     0.540950000000     0.409150000000   
H      0.840850000000     0.576400000000     0.290950000000   
H      0.590850000000     0.826400000000     0.040950000000   
H      0.709050000000     0.659150000000     0.076400000000   
H      0.959050000000     0.909150000000     0.326400000000   
H      0.790950000000     0.576400000000     0.340850000000   
H      0.540950000000     0.826400000000     0.090850000000   
H      0.659150000000     0.709050000000     0.076400000000   
H      0.909150000000     0.959050000000     0.326400000000   
H      0.790950000000     0.923600000000     0.159150000000   
H      0.540950000000     0.673600000000     0.409150000000   
H      0.576400000000     0.659150000000     0.209050000000   
H      0.826400000000     0.909150000000     0.459050000000   
H      0.659150000000     0.790950000000     0.423600000000   
H      0.909150000000     0.540950000000     0.173600000000   
H      0.576400000000     0.709050000000     0.159150000000   
H      0.826400000000     0.959050000000     0.409150000000   
H      0.659150000000     0.923600000000     0.290950000000   
H      0.909150000000     0.673600000000     0.040950000000   
H      0.790950000000     0.840850000000     0.076400000000   
H      0.540950000000     0.590850000000     0.326400000000   
H      0.576400000000     0.840850000000     0.290950000000   
H      0.826400000000     0.590850000000     0.040950000000   
H      0.840850000000     0.923600000000     0.209050000000   
H      0.590850000000     0.673600000000     0.459050000000   
H      0.709050000000     0.840850000000     0.423600000000   
H      0.959050000000     0.590850000000     0.173600000000   
H      0.923600000000     0.709050000000     0.340850000000   
H      0.673600000000     0.959050000000     0.090850000000   
H      0.923600000000     0.659150000000     0.290950000000   
H      0.673600000000     0.909150000000     0.040950000000   
H      0.576400000000     0.790950000000     0.340850000000   
H      0.826400000000     0.540950000000     0.090850000000   
H      0.659150000000     0.576400000000     0.209050000000   
H      0.909150000000     0.826400000000     0.459050000000   
H      0.790950000000     0.659150000000     0.423600000000   
H      0.540950000000     0.909150000000     0.173600000000   
H      0.709050000000     0.576400000000     0.159150000000   
H      0.959050000000     0.826400000000     0.409150000000   
H      0.840850000000     0.790950000000     0.076400000000   
H      0.590850000000     0.540950000000     0.326400000000   
H      0.702150000000     0.558400000000     0.297850000000   
H      0.952150000000     0.808400000000     0.047850000000   
H      0.558400000000     0.797850000000     0.202150000000   
H      0.808400000000     0.547850000000     0.452150000000   
H      0.797850000000     0.941600000000     0.297850000000   
H      0.547850000000     0.691600000000     0.047850000000   
H      0.702150000000     0.702150000000     0.441600000000   
H      0.952150000000     0.952150000000     0.191600000000   
H      0.797850000000     0.558400000000     0.202150000000   
H      0.941600000000     0.702150000000     0.202150000000   
H      0.702150000000     0.797850000000     0.058400000000   
H      0.797850000000     0.797850000000     0.441600000000   
H      0.547850000000     0.547850000000     0.191600000000   
H      0.941600000000     0.797850000000     0.297850000000   
H      0.691600000000     0.547850000000     0.047850000000   
H      0.808400000000     0.952150000000     0.047850000000   
H      0.702150000000     0.941600000000     0.202150000000   
H      0.952150000000     0.691600000000     0.452150000000   
H      0.657900000000     0.559300000000     0.309800000000   
H      0.907900000000     0.809300000000     0.059800000000   
H      0.559300000000     0.809800000000     0.157900000000   
H      0.809300000000     0.559800000000     0.407900000000   
H      0.559300000000     0.842100000000     0.190200000000   
H      0.809300000000     0.592100000000     0.440200000000   
H      0.809800000000     0.940700000000     0.342100000000   
H      0.559800000000     0.690700000000     0.092100000000   
H      0.657900000000     0.690200000000     0.440700000000   
H      0.907900000000     0.940200000000     0.190700000000   
H      0.842100000000     0.940700000000     0.309800000000   
H      0.592100000000     0.690700000000     0.059800000000   
H      0.690200000000     0.657900000000     0.440700000000   
H      0.940200000000     0.907900000000     0.190700000000   
H      0.842100000000     0.559300000000     0.190200000000   
H      0.940700000000     0.690200000000     0.157900000000   
H      0.690200000000     0.842100000000     0.059300000000   
H      0.940700000000     0.657900000000     0.190200000000   
H      0.690200000000     0.559300000000     0.342100000000   
H      0.940200000000     0.809300000000     0.092100000000   
H      0.842100000000     0.809800000000     0.440700000000   
H      0.592100000000     0.559800000000     0.190700000000   
H      0.940700000000     0.809800000000     0.342100000000   
H      0.690700000000     0.559800000000     0.092100000000   
H      0.809800000000     0.559300000000     0.157900000000   
H      0.657900000000     0.809800000000     0.059300000000   
H      0.809300000000     0.907900000000     0.059800000000   
H      0.809300000000     0.940200000000     0.092100000000   
H      0.940700000000     0.842100000000     0.309800000000   
H      0.690700000000     0.592100000000     0.059800000000   
H      0.690200000000     0.940700000000     0.157900000000   
H      0.940200000000     0.690700000000     0.407900000000   
H      0.657900000000     0.940700000000     0.190200000000   
H      0.907900000000     0.690700000000     0.440200000000   
H      0.809800000000     0.842100000000     0.440700000000   
H      0.559800000000     0.592100000000     0.190700000000   
Cl     0.570057467256     0.928828945705     0.304910029021   
Cl     0.813837666153     0.685630821698     0.291106563353   
Cl     0.791119995257     0.681861181988     0.321819837243   
Cl     0.929942532744     0.571171054295     0.304910029021   
Cl     0.571171054295     0.804910029021     0.429942532744   
Cl     0.695089970979     0.929942532744     0.428828945705   
C      0.682350000000     0.505500000000     0.817650000000   
C      0.932350000000     0.755500000000     0.567650000000   
C      0.505500000000     0.817650000000     0.682350000000   
C      0.755500000000     0.567650000000     0.932350000000   
C      0.817650000000     0.682350000000     0.505500000000   
C      0.567650000000     0.932350000000     0.755500000000   
C      0.817650000000     0.994500000000     0.817650000000   
C      0.567650000000     0.744500000000     0.567650000000   
C      0.682350000000     0.682350000000     0.994500000000   
C      0.932350000000     0.932350000000     0.744500000000   
C      0.817650000000     0.505500000000     0.682350000000   
C      0.567650000000     0.755500000000     0.932350000000   
C      0.994500000000     0.682350000000     0.682350000000   
C      0.744500000000     0.932350000000     0.932350000000   
C      0.682350000000     0.817650000000     0.505500000000   
C      0.932350000000     0.567650000000     0.755500000000   
C      0.817650000000     0.817650000000     0.994500000000   
C      0.567650000000     0.567650000000     0.744500000000   
C      0.994500000000     0.817650000000     0.817650000000   
C      0.744500000000     0.567650000000     0.567650000000   
C      0.505500000000     0.682350000000     0.817650000000   
C      0.755500000000     0.932350000000     0.567650000000   
C      0.682350000000     0.994500000000     0.682350000000   
C      0.932350000000     0.744500000000     0.932350000000   
C      0.697200000000     0.945750000000     0.830350000000   
C      0.947200000000     0.695750000000     0.580350000000   
C      0.945750000000     0.830350000000     0.697200000000   
C      0.695750000000     0.580350000000     0.947200000000   
C      0.830350000000     0.697200000000     0.945750000000   
C      0.580350000000     0.947200000000     0.695750000000   
C      0.945750000000     0.802800000000     0.669650000000   
C      0.695750000000     0.552800000000     0.919650000000   
C      0.830350000000     0.554250000000     0.802800000000   
C      0.580350000000     0.804250000000     0.552800000000   
C      0.697200000000     0.669650000000     0.554250000000   
C      0.947200000000     0.919650000000     0.804250000000   
C      0.802800000000     0.554250000000     0.830350000000   
C      0.552800000000     0.804250000000     0.580350000000   
C      0.669650000000     0.697200000000     0.554250000000   
C      0.919650000000     0.947200000000     0.804250000000   
C      0.802800000000     0.945750000000     0.669650000000   
C      0.552800000000     0.695750000000     0.919650000000   
C      0.554250000000     0.669650000000     0.697200000000   
C      0.804250000000     0.919650000000     0.947200000000   
C      0.669650000000     0.802800000000     0.945750000000   
C      0.919650000000     0.552800000000     0.695750000000   
C      0.554250000000     0.697200000000     0.669650000000   
C      0.804250000000     0.947200000000     0.919650000000   
C      0.669650000000     0.945750000000     0.802800000000   
C      0.919650000000     0.695750000000     0.552800000000   
C      0.802800000000     0.830350000000     0.554250000000   
C      0.552800000000     0.580350000000     0.804250000000   
C      0.554250000000     0.830350000000     0.802800000000   
C      0.804250000000     0.580350000000     0.552800000000   
C      0.830350000000     0.945750000000     0.697200000000   
C      0.580350000000     0.695750000000     0.947200000000   
C      0.697200000000     0.830350000000     0.945750000000   
C      0.947200000000     0.580350000000     0.695750000000   
C      0.945750000000     0.697200000000     0.830350000000   
C      0.695750000000     0.947200000000     0.580350000000   
C      0.945750000000     0.669650000000     0.802800000000   
C      0.695750000000     0.919650000000     0.552800000000   
C      0.554250000000     0.802800000000     0.830350000000   
C      0.804250000000     0.552800000000     0.580350000000   
C      0.669650000000     0.554250000000     0.697200000000   
C      0.919650000000     0.804250000000     0.947200000000   
C      0.802800000000     0.669650000000     0.945750000000   
C      0.552800000000     0.919650000000     0.695750000000   
C      0.697200000000     0.554250000000     0.669650000000   
C      0.947200000000     0.804250000000     0.919650000000   
C      0.830350000000     0.802800000000     0.554250000000   
C      0.580350000000     0.552800000000     0.804250000000   
C      0.683300000000     0.549450000000     0.816700000000   
C      0.933300000000     0.799450000000     0.566700000000   
C      0.549450000000     0.816700000000     0.683300000000   
C      0.799450000000     0.566700000000     0.933300000000   
C      0.816700000000     0.950550000000     0.816700000000   
C      0.566700000000     0.700550000000     0.566700000000   
C      0.683300000000     0.683300000000     0.950550000000   
C      0.933300000000     0.933300000000     0.700550000000   
C      0.816700000000     0.549450000000     0.683300000000   
C      0.950550000000     0.683300000000     0.683300000000   
C      0.683300000000     0.816700000000     0.549450000000   
C      0.816700000000     0.816700000000     0.950550000000   
C      0.566700000000     0.566700000000     0.700550000000   
C      0.950550000000     0.816700000000     0.816700000000   
C      0.700550000000     0.566700000000     0.566700000000   
C      0.799450000000     0.933300000000     0.566700000000   
C      0.683300000000     0.950550000000     0.683300000000   
C      0.933300000000     0.700550000000     0.933300000000   
N      0.705450000000     0.984050000000     0.840800000000   
N      0.955450000000     0.734050000000     0.590800000000   
N      0.984050000000     0.840800000000     0.705450000000   
N      0.734050000000     0.590800000000     0.955450000000   
N      0.840800000000     0.705450000000     0.984050000000   
N      0.590800000000     0.955450000000     0.734050000000   
N      0.984050000000     0.794550000000     0.659200000000   
N      0.734050000000     0.544550000000     0.909200000000   
N      0.840800000000     0.515950000000     0.794550000000   
N      0.590800000000     0.765950000000     0.544550000000   
N      0.705450000000     0.659200000000     0.515950000000   
N      0.955450000000     0.909200000000     0.765950000000   
N      0.794550000000     0.515950000000     0.840800000000   
N      0.544550000000     0.765950000000     0.590800000000   
N      0.659200000000     0.705450000000     0.515950000000   
N      0.909200000000     0.955450000000     0.765950000000   
N      0.794550000000     0.984050000000     0.659200000000   
N      0.544550000000     0.734050000000     0.909200000000   
N      0.515950000000     0.659200000000     0.705450000000   
N      0.765950000000     0.909200000000     0.955450000000   
N      0.659200000000     0.794550000000     0.984050000000   
N      0.909200000000     0.544550000000     0.734050000000   
N      0.515950000000     0.705450000000     0.659200000000   
N      0.765950000000     0.955450000000     0.909200000000   
N      0.659200000000     0.984050000000     0.794550000000   
N      0.909200000000     0.734050000000     0.544550000000   
N      0.794550000000     0.840800000000     0.515950000000   
N      0.544550000000     0.590800000000     0.765950000000   
N      0.515950000000     0.840800000000     0.794550000000   
N      0.765950000000     0.590800000000     0.544550000000   
N      0.840800000000     0.984050000000     0.705450000000   
N      0.590800000000     0.734050000000     0.955450000000   
N      0.705450000000     0.840800000000     0.984050000000   
N      0.955450000000     0.590800000000     0.734050000000   
N      0.984050000000     0.705450000000     0.840800000000   
N      0.734050000000     0.955450000000     0.590800000000   
N      0.984050000000     0.659200000000     0.794550000000   
N      0.734050000000     0.909200000000     0.544550000000   
N      0.515950000000     0.794550000000     0.840800000000   
N      0.765950000000     0.544550000000     0.590800000000   
N      0.659200000000     0.515950000000     0.705450000000   
N      0.909200000000     0.765950000000     0.955450000000   
N      0.794550000000     0.659200000000     0.984050000000   
N      0.544550000000     0.909200000000     0.734050000000   
N      0.705450000000     0.515950000000     0.659200000000   
N      0.955450000000     0.765950000000     0.909200000000   
N      0.840800000000     0.794550000000     0.515950000000   
N      0.590800000000     0.544550000000     0.765950000000   
Zn     0.750000000000     0.500000000000     0.875000000000   
Zn     0.500000000000     0.750000000000     0.625000000000   
Zn     0.500000000000     0.875000000000     0.750000000000   
Zn     0.750000000000     0.625000000000     0.500000000000   
Zn     0.875000000000     0.750000000000     0.500000000000   
Zn     0.625000000000     0.500000000000     0.750000000000   
Zn     0.875000000000     0.500000000000     0.750000000000   
Zn     0.625000000000     0.750000000000     0.500000000000   
Zn     0.750000000000     0.500000000000     0.625000000000   
Zn     0.500000000000     0.750000000000     0.875000000000   
Zn     0.500000000000     0.625000000000     0.750000000000   
Zn     0.750000000000     0.875000000000     0.500000000000   
H      0.709050000000     0.923600000000     0.840850000000   
H      0.959050000000     0.673600000000     0.590850000000   
H      0.923600000000     0.840850000000     0.709050000000   
H      0.673600000000     0.590850000000     0.959050000000   
H      0.840850000000     0.709050000000     0.923600000000   
H      0.590850000000     0.959050000000     0.673600000000   
H      0.923600000000     0.790950000000     0.659150000000   
H      0.673600000000     0.540950000000     0.909150000000   
H      0.840850000000     0.576400000000     0.790950000000   
H      0.590850000000     0.826400000000     0.540950000000   
H      0.709050000000     0.659150000000     0.576400000000   
H      0.959050000000     0.909150000000     0.826400000000   
H      0.790950000000     0.576400000000     0.840850000000   
H      0.540950000000     0.826400000000     0.590850000000   
H      0.659150000000     0.709050000000     0.576400000000   
H      0.909150000000     0.959050000000     0.826400000000   
H      0.790950000000     0.923600000000     0.659150000000   
H      0.540950000000     0.673600000000     0.909150000000   
H      0.576400000000     0.659150000000     0.709050000000   
H      0.826400000000     0.909150000000     0.959050000000   
H      0.659150000000     0.790950000000     0.923600000000   
H      0.909150000000     0.540950000000     0.673600000000   
H      0.576400000000     0.709050000000     0.659150000000   
H      0.826400000000     0.959050000000     0.909150000000   
H      0.659150000000     0.923600000000     0.790950000000   
H      0.909150000000     0.673600000000     0.540950000000   
H      0.790950000000     0.840850000000     0.576400000000   
H      0.540950000000     0.590850000000     0.826400000000   
H      0.576400000000     0.840850000000     0.790950000000   
H      0.826400000000     0.590850000000     0.540950000000   
H      0.840850000000     0.923600000000     0.709050000000   
H      0.590850000000     0.673600000000     0.959050000000   
H      0.709050000000     0.840850000000     0.923600000000   
H      0.959050000000     0.590850000000     0.673600000000   
H      0.923600000000     0.709050000000     0.840850000000   
H      0.673600000000     0.959050000000     0.590850000000   
H      0.923600000000     0.659150000000     0.790950000000   
H      0.673600000000     0.909150000000     0.540950000000   
H      0.576400000000     0.790950000000     0.840850000000   
H      0.826400000000     0.540950000000     0.590850000000   
H      0.659150000000     0.576400000000     0.709050000000   
H      0.909150000000     0.826400000000     0.959050000000   
H      0.790950000000     0.659150000000     0.923600000000   
H      0.540950000000     0.909150000000     0.673600000000   
H      0.709050000000     0.576400000000     0.659150000000   
H      0.959050000000     0.826400000000     0.909150000000   
H      0.840850000000     0.790950000000     0.576400000000   
H      0.590850000000     0.540950000000     0.826400000000   
H      0.702150000000     0.558400000000     0.797850000000   
H      0.952150000000     0.808400000000     0.547850000000   
H      0.558400000000     0.797850000000     0.702150000000   
H      0.808400000000     0.547850000000     0.952150000000   
H      0.797850000000     0.941600000000     0.797850000000   
H      0.547850000000     0.691600000000     0.547850000000   
H      0.702150000000     0.702150000000     0.941600000000   
H      0.952150000000     0.952150000000     0.691600000000   
H      0.797850000000     0.558400000000     0.702150000000   
H      0.941600000000     0.702150000000     0.702150000000   
H      0.702150000000     0.797850000000     0.558400000000   
H      0.797850000000     0.797850000000     0.941600000000   
H      0.547850000000     0.547850000000     0.691600000000   
H      0.941600000000     0.797850000000     0.797850000000   
H      0.691600000000     0.547850000000     0.547850000000   
H      0.808400000000     0.952150000000     0.547850000000   
H      0.702150000000     0.941600000000     0.702150000000   
H      0.952150000000     0.691600000000     0.952150000000   
H      0.657900000000     0.559300000000     0.809800000000   
H      0.907900000000     0.809300000000     0.559800000000   
H      0.559300000000     0.809800000000     0.657900000000   
H      0.809300000000     0.559800000000     0.907900000000   
H      0.559300000000     0.842100000000     0.690200000000   
H      0.809300000000     0.592100000000     0.940200000000   
H      0.809800000000     0.940700000000     0.842100000000   
H      0.559800000000     0.690700000000     0.592100000000   
H      0.657900000000     0.690200000000     0.940700000000   
H      0.907900000000     0.940200000000     0.690700000000   
H      0.842100000000     0.940700000000     0.809800000000   
H      0.592100000000     0.690700000000     0.559800000000   
H      0.690200000000     0.657900000000     0.940700000000   
H      0.940200000000     0.907900000000     0.690700000000   
H      0.842100000000     0.559300000000     0.690200000000   
H      0.940700000000     0.690200000000     0.657900000000   
H      0.690200000000     0.842100000000     0.559300000000   
H      0.940700000000     0.657900000000     0.690200000000   
H      0.690200000000     0.559300000000     0.842100000000   
H      0.940200000000     0.809300000000     0.592100000000   
H      0.842100000000     0.809800000000     0.940700000000   
H      0.592100000000     0.559800000000     0.690700000000   
H      0.940700000000     0.809800000000     0.842100000000   
H      0.690700000000     0.559800000000     0.592100000000   
H      0.809800000000     0.559300000000     0.657900000000   
H      0.657900000000     0.809800000000     0.559300000000   
H      0.809300000000     0.907900000000     0.559800000000   
H      0.809300000000     0.940200000000     0.592100000000   
H      0.940700000000     0.842100000000     0.809800000000   
H      0.690700000000     0.592100000000     0.559800000000   
H      0.690200000000     0.940700000000     0.657900000000   
H      0.940200000000     0.690700000000     0.907900000000   
H      0.657900000000     0.940700000000     0.690200000000   
H      0.907900000000     0.690700000000     0.940200000000   
H      0.809800000000     0.842100000000     0.940700000000   
H      0.559800000000     0.592100000000     0.690700000000   
Cl     0.570057467256     0.928828945705     0.804910029021   
Cl     0.813837666153     0.685630821698     0.791106563353   
Cl     0.791119995257     0.681861181988     0.821819837243   
Cl     0.929942532744     0.571171054295     0.804910029021   
Cl     0.571171054295     0.804910029021     0.929942532744   
Cl     0.695089970979     0.929942532744     0.928828945705   
%ENDBLOCK POSITIONS_FRAC
