# clIm025_mIm075__open
1.000000
 34.1420000000000030   0.0000000000000000         0.0000000000
  0.0000000000000021  34.1420000000000030         0.0000000000
  0.0000000000000021   0.0000000000000021        34.1420000000
C C C C C C C C C C C C C C C C C C C C C C C C C C C C C C C C C C C C C C C C C C C C C C C C C C C C C C C C C C C C C C C C C C C C C C C C C C C C C C C C C C C C C C C C C C N N N N N N N N N N N N N N N N N N N N N N N N N N N N N N N N N N N N N N N N N N N N N N N N Zn Zn Zn Zn Zn Zn Zn Zn Zn Zn Zn Zn H H H H H H H H H H H H H H H H H H H H H H H H H H H H H H H H H H H H H H H H H H H H H H H H H H H H H H H H H H H H H H H H H H H H H H H H H H H H H H H H H H H H H H H H H H H H H H H H H H H H H H Cl Cl Cl Cl Cl Cl 
8 8 8 8 8 8 8 8 8 8 8 8 8 8 8 8 8 8 8 8 8 8 8 8 8 8 8 8 8 8 8 8 8 8 8 8 8 8 8 8 8 8 8 8 8 8 8 8 8 8 8 8 8 8 8 8 8 8 8 8 8 8 8 8 8 8 8 8 8 8 8 8 8 8 8 8 8 8 8 8 8 8 8 8 8 8 8 8 8 8 8 8 8 8 8 8 8 8 8 8 8 8 8 8 8 8 8 8 8 8 8 8 8 8 8 8 8 8 8 8 8 8 8 8 8 8 8 8 8 8 8 8 8 8 8 8 8 8 8 8 8 8 8 8 8 8 8 8 8 8 8 8 8 8 8 8 8 8 8 8 8 8 8 8 8 8 8 8 8 8 8 8 8 8 8 8 8 8 8 8 8 8 8 8 8 8 8 8 8 8 8 8 8 8 8 8 8 8 8 8 8 8 8 8 8 8 8 8 8 8 8 8 8 8 8 8 8 8 8 8 8 8 8 8 8 8 8 8 8 8 8 8 8 8 8 8 8 8 8 8 8 8 8 8 8 8 8 8 8 8 8 8 8 8 8 8 8 8 
Direct
0.1823500000000000 0.0055000000000000 0.3176500000000000
0.1823500000000000 0.0055000000000000 0.8176500000000000
0.1823500000000000 0.5054999999999999 0.3176500000000000
0.1823500000000000 0.5054999999999999 0.8176500000000000
0.6823500000000000 0.0055000000000000 0.3176500000000000
0.6823500000000000 0.0055000000000000 0.8176500000000000
0.6823500000000000 0.5054999999999999 0.3176500000000000
0.6823500000000000 0.5054999999999999 0.8176500000000000
0.4323500000000000 0.2555000000000000 0.0676500000000000
0.4323500000000000 0.2555000000000000 0.5676500000000000
0.4323500000000000 0.7555000000000002 0.0676500000000000
0.4323500000000000 0.7555000000000002 0.5676500000000000
0.9323500000000001 0.2555000000000000 0.0676500000000000
0.9323500000000001 0.2555000000000000 0.5676500000000000
0.9323500000000001 0.7555000000000002 0.0676500000000000
0.9323500000000001 0.7555000000000002 0.5676500000000000
0.0055000000000000 0.3176500000000000 0.1823500000000000
0.0055000000000000 0.3176500000000000 0.6823500000000000
0.0055000000000000 0.8176500000000000 0.1823500000000000
0.0055000000000000 0.8176500000000000 0.6823500000000000
0.5054999999999999 0.3176500000000000 0.1823500000000000
0.5054999999999999 0.3176500000000000 0.6823500000000000
0.5054999999999999 0.8176500000000000 0.1823500000000000
0.5054999999999999 0.8176500000000000 0.6823500000000000
0.2555000000000001 0.0676500000000000 0.4323500000000000
0.2555000000000000 0.0676500000000000 0.9323500000000001
0.2555000000000001 0.5676500000000000 0.4323500000000000
0.2555000000000000 0.5676500000000000 0.9323500000000001
0.7555000000000002 0.0676500000000000 0.4323500000000000
0.7555000000000001 0.0676500000000000 0.9323500000000001
0.7555000000000002 0.5676500000000000 0.4323500000000000
0.7555000000000001 0.5676500000000000 0.9323500000000001
0.3176500000000000 0.1823500000000000 0.0055000000000000
0.3176500000000000 0.1823500000000000 0.5054999999999999
0.3176500000000000 0.6823500000000000 0.0055000000000000
0.3176500000000000 0.6823500000000000 0.5054999999999999
0.8176500000000000 0.1823500000000000 0.0055000000000000
0.8176500000000000 0.1823500000000000 0.5054999999999999
0.8176500000000000 0.6823500000000000 0.0055000000000000
0.8176500000000000 0.6823500000000000 0.5054999999999999
0.0676500000000000 0.4323500000000000 0.2555000000000000
0.0676500000000000 0.4323500000000000 0.7555000000000002
0.0676500000000000 0.9323500000000001 0.2555000000000000
0.0676500000000000 0.9323500000000001 0.7555000000000002
0.5676500000000000 0.4323500000000000 0.2555000000000000
0.5676500000000000 0.4323500000000000 0.7555000000000002
0.5676500000000000 0.9323500000000001 0.2555000000000000
0.5676500000000000 0.9323500000000001 0.7555000000000002
0.3176500000000000 0.4945000000000000 0.3176500000000000
0.3176500000000000 0.4944999999999999 0.8176500000000000
0.3176500000000000 0.9945000000000001 0.3176500000000000
0.3176500000000000 0.9945000000000001 0.8176500000000000
0.8176500000000000 0.4945000000000000 0.3176500000000000
0.8176500000000000 0.4944999999999999 0.8176500000000000
0.8176500000000000 0.9945000000000001 0.3176500000000000
0.8176500000000000 0.9945000000000001 0.8176500000000000
0.0676500000000000 0.2445000000000000 0.0676500000000000
0.0676500000000000 0.2445000000000001 0.5676500000000000
0.0676500000000000 0.7445000000000001 0.0676500000000000
0.0676500000000000 0.7445000000000001 0.5676500000000000
0.5676500000000000 0.2445000000000000 0.0676500000000000
0.5676500000000000 0.2445000000000001 0.5676500000000000
0.5676500000000000 0.7445000000000001 0.0676500000000000
0.5676500000000000 0.7445000000000001 0.5676500000000000
0.1823500000000000 0.1823500000000000 0.4945000000000000
0.1823500000000000 0.1823500000000000 0.9945000000000001
0.1823500000000000 0.6823500000000000 0.4945000000000000
0.1823500000000000 0.6823500000000000 0.9945000000000001
0.6823500000000000 0.1823500000000000 0.4945000000000000
0.6823500000000000 0.1823500000000000 0.9945000000000001
0.6823500000000000 0.6823500000000000 0.4945000000000000
0.6823500000000000 0.6823500000000000 0.9945000000000001
0.4323500000000001 0.4323500000000000 0.2445000000000000
0.4323500000000001 0.4323500000000000 0.7445000000000001
0.4323500000000000 0.9323500000000001 0.2445000000000000
0.4323500000000000 0.9323500000000001 0.7445000000000001
0.9323500000000001 0.4323500000000000 0.2445000000000000
0.9323500000000001 0.4323500000000000 0.7445000000000001
0.9323500000000001 0.9323500000000001 0.2445000000000000
0.9323500000000001 0.9323500000000001 0.7445000000000001
0.3176500000000000 0.0055000000000000 0.1823500000000000
0.3176500000000000 0.0055000000000000 0.6823500000000000
0.3176500000000000 0.5054999999999999 0.1823500000000000
0.3176500000000000 0.5054999999999999 0.6823500000000000
0.8176500000000000 0.0055000000000000 0.1823500000000000
0.8176500000000000 0.0055000000000000 0.6823500000000000
0.8176500000000000 0.5054999999999999 0.1823500000000000
0.8176500000000000 0.5054999999999999 0.6823500000000000
0.0676500000000000 0.2555000000000001 0.4323500000000000
0.0676500000000000 0.2555000000000000 0.9323500000000001
0.0676500000000000 0.7555000000000002 0.4323500000000000
0.0676500000000000 0.7555000000000001 0.9323500000000001
0.5676500000000000 0.2555000000000001 0.4323500000000000
0.5676500000000000 0.2555000000000000 0.9323500000000001
0.5676500000000000 0.7555000000000002 0.4323500000000000
0.5676500000000000 0.7555000000000001 0.9323500000000001
0.4945000000000000 0.1823500000000000 0.1823500000000000
0.4944999999999999 0.1823500000000000 0.6823500000000000
0.4944999999999999 0.6823500000000000 0.1823500000000000
0.4944999999999999 0.6823500000000000 0.6823500000000000
0.9945000000000001 0.1823500000000000 0.1823500000000000
0.9945000000000001 0.1823500000000000 0.6823500000000000
0.9945000000000001 0.6823500000000000 0.1823500000000000
0.9945000000000001 0.6823500000000000 0.6823500000000000
0.2445000000000001 0.4323500000000001 0.4323500000000000
0.2445000000000001 0.4323500000000000 0.9323500000000001
0.2445000000000001 0.9323500000000001 0.4323500000000000
0.2445000000000000 0.9323500000000001 0.9323500000000001
0.7445000000000001 0.4323500000000001 0.4323500000000000
0.7445000000000001 0.4323500000000000 0.9323500000000001
0.7445000000000001 0.9323500000000001 0.4323500000000000
0.7445000000000001 0.9323500000000001 0.9323500000000001
0.1823500000000000 0.3176500000000000 0.0055000000000000
0.1823500000000000 0.3176500000000000 0.5054999999999999
0.1823500000000000 0.8176500000000000 0.0055000000000000
0.1823500000000000 0.8176500000000000 0.5054999999999999
0.6823500000000000 0.3176500000000000 0.0055000000000000
0.6823500000000000 0.3176500000000000 0.5054999999999999
0.6823500000000000 0.8176500000000000 0.0055000000000000
0.6823500000000000 0.8176500000000000 0.5054999999999999
0.4323500000000000 0.0676500000000000 0.2555000000000000
0.4323500000000000 0.0676500000000000 0.7555000000000002
0.4323500000000000 0.5676500000000000 0.2555000000000000
0.4323500000000000 0.5676500000000000 0.7555000000000002
0.9323500000000001 0.0676500000000000 0.2555000000000000
0.9323500000000001 0.0676500000000000 0.7555000000000002
0.9323500000000001 0.5676500000000000 0.2555000000000000
0.9323500000000001 0.5676500000000000 0.7555000000000002
0.3176500000000000 0.3176500000000000 0.4945000000000000
0.3176500000000000 0.3176500000000000 0.9945000000000001
0.3176500000000000 0.8176500000000000 0.4945000000000000
0.3176500000000000 0.8176500000000000 0.9945000000000001
0.8176500000000000 0.3176500000000000 0.4945000000000000
0.8176500000000000 0.3176500000000000 0.9945000000000001
0.8176500000000000 0.8176500000000000 0.4945000000000000
0.8176500000000000 0.8176500000000000 0.9945000000000001
0.0676500000000000 0.0676500000000000 0.2445000000000000
0.0676500000000000 0.0676500000000000 0.7445000000000001
0.0676500000000000 0.5676500000000000 0.2445000000000000
0.0676500000000000 0.5676500000000000 0.7445000000000001
0.5676500000000000 0.0676500000000000 0.2445000000000000
0.5676500000000000 0.0676500000000000 0.7445000000000001
0.5676500000000000 0.5676500000000000 0.2445000000000000
0.5676500000000000 0.5676500000000000 0.7445000000000001
0.4945000000000000 0.3176500000000000 0.3176500000000000
0.4944999999999999 0.3176500000000000 0.8176500000000000
0.4944999999999999 0.8176500000000000 0.3176500000000000
0.4944999999999999 0.8176500000000000 0.8176500000000000
0.9945000000000001 0.3176500000000000 0.3176500000000000
0.9945000000000001 0.3176500000000000 0.8176500000000000
0.9945000000000001 0.8176500000000000 0.3176500000000000
0.9945000000000001 0.8176500000000000 0.8176500000000000
0.2445000000000000 0.0676500000000000 0.0676500000000000
0.2445000000000001 0.0676500000000000 0.5676500000000000
0.2445000000000001 0.5676500000000000 0.0676500000000000
0.2445000000000001 0.5676500000000000 0.5676500000000000
0.7445000000000001 0.0676500000000000 0.0676500000000000
0.7445000000000001 0.0676500000000000 0.5676500000000000
0.7445000000000001 0.5676500000000000 0.0676500000000000
0.7445000000000001 0.5676500000000000 0.5676500000000000
0.0055000000000000 0.1823500000000000 0.3176500000000000
0.0055000000000000 0.1823500000000000 0.8176500000000000
0.0055000000000000 0.6823500000000000 0.3176500000000000
0.0055000000000000 0.6823500000000000 0.8176500000000000
0.5054999999999999 0.1823500000000000 0.3176500000000000
0.5054999999999999 0.1823500000000000 0.8176500000000000
0.5054999999999999 0.6823500000000000 0.3176500000000000
0.5054999999999999 0.6823500000000000 0.8176500000000000
0.2555000000000001 0.4323500000000000 0.0676500000000000
0.2555000000000001 0.4323500000000000 0.5676500000000000
0.2555000000000000 0.9323500000000001 0.0676500000000000
0.2555000000000000 0.9323500000000001 0.5676500000000000
0.7555000000000002 0.4323500000000000 0.0676500000000000
0.7555000000000002 0.4323500000000000 0.5676500000000000
0.7555000000000001 0.9323500000000001 0.0676500000000000
0.7555000000000001 0.9323500000000001 0.5676500000000000
0.1823500000000000 0.4945000000000000 0.1823500000000000
0.1823500000000000 0.4944999999999999 0.6823500000000000
0.1823500000000000 0.9945000000000001 0.1823500000000000
0.1823500000000000 0.9945000000000001 0.6823500000000000
0.6823500000000000 0.4945000000000000 0.1823500000000000
0.6823500000000000 0.4944999999999999 0.6823500000000000
0.6823500000000000 0.9945000000000001 0.1823500000000000
0.6823500000000000 0.9945000000000001 0.6823500000000000
0.4323500000000001 0.2445000000000001 0.4323500000000000
0.4323500000000000 0.2445000000000000 0.9323500000000001
0.4323500000000001 0.7445000000000001 0.4323500000000000
0.4323500000000000 0.7445000000000001 0.9323500000000001
0.9323500000000001 0.2445000000000001 0.4323500000000000
0.9323500000000001 0.2445000000000000 0.9323500000000001
0.9323500000000001 0.7445000000000001 0.4323500000000000
0.9323500000000001 0.7445000000000001 0.9323500000000001
0.1972000000000000 0.4457500000000000 0.3303500000000000
0.1972000000000000 0.4457500000000000 0.8303500000000000
0.1972000000000000 0.9457500000000000 0.3303500000000000
0.1972000000000000 0.9457500000000000 0.8303500000000000
0.6972000000000000 0.4457500000000000 0.3303500000000000
0.6972000000000000 0.4457500000000000 0.8303500000000000
0.6972000000000000 0.9457500000000000 0.3303500000000000
0.6972000000000000 0.9457500000000000 0.8303500000000000
0.4472000000000001 0.1957500000000000 0.0803499999999999
0.4472000000000001 0.1957500000000000 0.5803499999999999
0.4472000000000001 0.6957500000000001 0.0803499999999999
0.4472000000000001 0.6957500000000001 0.5803499999999999
0.9472000000000000 0.1957500000000000 0.0803499999999999
0.9472000000000000 0.1957500000000000 0.5803499999999999
0.9472000000000000 0.6957500000000001 0.0803499999999999
0.9472000000000000 0.6957500000000001 0.5803499999999999
0.4457500000000000 0.3303500000000000 0.1972000000000000
0.4457500000000000 0.3303500000000000 0.6972000000000000
0.4457500000000000 0.8303500000000000 0.1972000000000000
0.4457500000000000 0.8303500000000000 0.6972000000000000
0.9457500000000000 0.3303500000000000 0.1972000000000000
0.9457500000000000 0.3303500000000000 0.6972000000000000
0.9457500000000000 0.8303500000000000 0.1972000000000000
0.9457500000000000 0.8303500000000000 0.6972000000000000
0.1957500000000000 0.0803499999999999 0.4472000000000001
0.1957500000000000 0.0803499999999999 0.9472000000000000
0.1957500000000000 0.5803499999999999 0.4472000000000001
0.1957500000000000 0.5803499999999999 0.9472000000000000
0.6957500000000001 0.0803499999999999 0.4472000000000001
0.6957500000000000 0.0803499999999999 0.9472000000000000
0.6957500000000001 0.5803499999999999 0.4472000000000001
0.6957500000000000 0.5803499999999999 0.9472000000000000
0.3303500000000000 0.1972000000000000 0.4457500000000000
0.3303500000000000 0.1972000000000000 0.9457500000000000
0.3303500000000000 0.6972000000000000 0.4457500000000000
0.3303500000000000 0.6972000000000000 0.9457500000000000
0.8303500000000000 0.1972000000000000 0.4457500000000000
0.8303500000000000 0.1972000000000000 0.9457500000000000
0.8303500000000000 0.6972000000000000 0.4457500000000000
0.8303500000000000 0.6972000000000000 0.9457500000000000
0.0803499999999999 0.4472000000000001 0.1957500000000000
0.0803499999999999 0.4472000000000001 0.6957500000000001
0.0803499999999999 0.9472000000000000 0.1957500000000000
0.0803499999999999 0.9472000000000000 0.6957500000000001
0.5803499999999999 0.4472000000000001 0.1957500000000000
0.5803499999999999 0.4472000000000001 0.6957500000000001
0.5803499999999999 0.9472000000000000 0.1957500000000000
0.5803499999999999 0.9472000000000000 0.6957500000000001
0.4457500000000000 0.3028000000000000 0.1696500000000000
0.4457500000000000 0.3028000000000000 0.6696500000000001
0.4457500000000000 0.8028000000000001 0.1696500000000000
0.4457500000000000 0.8028000000000001 0.6696500000000001
0.9457500000000000 0.3028000000000000 0.1696500000000000
0.9457500000000000 0.3028000000000000 0.6696500000000001
0.9457500000000000 0.8028000000000001 0.1696500000000000
0.9457500000000000 0.8028000000000001 0.6696500000000001
0.1957500000000000 0.0528000000000000 0.4196500000000000
0.1957500000000000 0.0528000000000000 0.9196500000000001
0.1957500000000000 0.5528000000000000 0.4196500000000000
0.1957500000000000 0.5528000000000000 0.9196500000000001
0.6957500000000001 0.0528000000000000 0.4196500000000000
0.6957500000000000 0.0528000000000000 0.9196500000000001
0.6957500000000001 0.5528000000000000 0.4196500000000000
0.6957500000000000 0.5528000000000000 0.9196500000000001
0.3303500000000000 0.0542500000000000 0.3028000000000000
0.3303500000000000 0.0542500000000000 0.8028000000000001
0.3303500000000000 0.5542500000000000 0.3028000000000000
0.3303500000000000 0.5542500000000000 0.8028000000000001
0.8303500000000000 0.0542500000000000 0.3028000000000000
0.8303500000000000 0.0542500000000000 0.8028000000000001
0.8303500000000000 0.5542500000000000 0.3028000000000000
0.8303500000000000 0.5542500000000000 0.8028000000000001
0.0803499999999999 0.3042500000000002 0.0528000000000000
0.0803499999999999 0.3042500000000002 0.5528000000000000
0.0803499999999999 0.8042500000000001 0.0528000000000000
0.0803499999999999 0.8042500000000001 0.5528000000000000
0.5803499999999999 0.3042500000000002 0.0528000000000000
0.5803499999999999 0.3042500000000002 0.5528000000000000
0.5803499999999999 0.8042500000000001 0.0528000000000000
0.5803499999999999 0.8042500000000001 0.5528000000000000
0.1972000000000000 0.1696500000000000 0.0542500000000000
0.1972000000000000 0.1696500000000000 0.5542500000000000
0.1972000000000000 0.6696500000000001 0.0542500000000000
0.1972000000000000 0.6696500000000001 0.5542500000000000
0.6972000000000000 0.1696500000000000 0.0542500000000000
0.6972000000000000 0.1696500000000000 0.5542500000000000
0.6972000000000000 0.6696500000000001 0.0542500000000000
0.6972000000000000 0.6696500000000001 0.5542500000000000
0.4472000000000001 0.4196500000000000 0.3042500000000002
0.4472000000000001 0.4196500000000000 0.8042500000000001
0.4472000000000001 0.9196500000000001 0.3042500000000002
0.4472000000000001 0.9196500000000001 0.8042500000000001
0.9472000000000000 0.4196500000000000 0.3042500000000002
0.9472000000000000 0.4196500000000000 0.8042500000000001
0.9471999999999999 0.9196500000000001 0.3042500000000002
0.9471999999999999 0.9196500000000001 0.8042500000000001
0.3028000000000000 0.0542500000000000 0.3303500000000000
0.3028000000000000 0.0542500000000000 0.8303500000000000
0.3028000000000000 0.5542500000000000 0.3303500000000000
0.3028000000000000 0.5542500000000000 0.8303500000000000
0.8028000000000001 0.0542500000000000 0.3303500000000000
0.8028000000000001 0.0542500000000000 0.8303500000000000
0.8028000000000001 0.5542500000000000 0.3303500000000000
0.8028000000000001 0.5542500000000000 0.8303500000000000
0.0528000000000000 0.3042500000000002 0.0803499999999999
0.0528000000000000 0.3042500000000002 0.5803499999999999
0.0528000000000000 0.8042500000000001 0.0803499999999999
0.0528000000000000 0.8042500000000001 0.5803499999999999
0.5528000000000000 0.3042500000000002 0.0803499999999999
0.5528000000000000 0.3042500000000002 0.5803499999999999
0.5528000000000000 0.8042500000000001 0.0803499999999999
0.5528000000000000 0.8042500000000001 0.5803499999999999
0.1696500000000000 0.1972000000000000 0.0542500000000000
0.1696500000000000 0.1972000000000000 0.5542500000000000
0.1696500000000000 0.6972000000000000 0.0542500000000000
0.1696500000000000 0.6972000000000000 0.5542500000000000
0.6696500000000001 0.1972000000000000 0.0542500000000000
0.6696500000000001 0.1972000000000000 0.5542500000000000
0.6696500000000001 0.6972000000000000 0.0542500000000000
0.6696500000000001 0.6972000000000000 0.5542500000000000
0.4196500000000001 0.4472000000000001 0.3042500000000002
0.4196500000000001 0.4472000000000001 0.8042500000000001
0.4196500000000000 0.9472000000000000 0.3042500000000002
0.4196500000000000 0.9472000000000000 0.8042500000000001
0.9196500000000001 0.4472000000000001 0.3042500000000002
0.9196500000000001 0.4472000000000001 0.8042500000000001
0.9196500000000001 0.9472000000000000 0.3042500000000002
0.9196500000000001 0.9472000000000000 0.8042500000000001
0.3028000000000001 0.4457500000000000 0.1696500000000000
0.3028000000000001 0.4457500000000000 0.6696500000000001
0.3028000000000000 0.9457500000000000 0.1696500000000000
0.3028000000000000 0.9457500000000000 0.6696500000000001
0.8028000000000001 0.4457500000000000 0.1696500000000000
0.8028000000000001 0.4457500000000000 0.6696500000000001
0.8028000000000001 0.9457500000000000 0.1696500000000000
0.8028000000000001 0.9457500000000000 0.6696500000000001
0.0528000000000000 0.1957500000000000 0.4196500000000000
0.0528000000000000 0.1957500000000000 0.9196500000000001
0.0528000000000000 0.6957500000000001 0.4196500000000000
0.0528000000000000 0.6957500000000000 0.9196500000000001
0.5528000000000000 0.1957500000000000 0.4196500000000000
0.5528000000000000 0.1957500000000000 0.9196500000000001
0.5528000000000000 0.6957500000000001 0.4196500000000000
0.5528000000000000 0.6957500000000000 0.9196500000000001
0.0542500000000000 0.1696500000000000 0.1972000000000000
0.0542500000000000 0.1696500000000000 0.6972000000000000
0.0542500000000000 0.6696500000000001 0.1972000000000000
0.0542500000000000 0.6696500000000001 0.6972000000000000
0.5542500000000000 0.1696500000000000 0.1972000000000000
0.5542500000000000 0.1696500000000000 0.6972000000000000
0.5542500000000000 0.6696500000000001 0.1972000000000000
0.5542500000000000 0.6696500000000001 0.6972000000000000
0.3042500000000002 0.4196500000000001 0.4472000000000001
0.3042500000000002 0.4196500000000000 0.9472000000000000
0.3042500000000002 0.9196500000000001 0.4472000000000001
0.3042500000000002 0.9196500000000001 0.9472000000000000
0.8042500000000001 0.4196500000000001 0.4472000000000001
0.8042500000000001 0.4196500000000000 0.9472000000000000
0.8042500000000001 0.9196500000000001 0.4472000000000001
0.8042500000000001 0.9196500000000001 0.9472000000000000
0.1696500000000000 0.3028000000000001 0.4457500000000000
0.1696500000000000 0.3028000000000000 0.9457500000000000
0.1696500000000000 0.8028000000000001 0.4457500000000000
0.1696500000000000 0.8028000000000001 0.9457500000000000
0.6696500000000001 0.3028000000000001 0.4457500000000000
0.6696500000000001 0.3028000000000000 0.9457500000000000
0.6696500000000001 0.8028000000000001 0.4457500000000000
0.6696500000000001 0.8028000000000001 0.9457500000000000
0.4196500000000000 0.0528000000000000 0.1957500000000000
0.4196500000000000 0.0528000000000000 0.6957500000000001
0.4196500000000000 0.5528000000000000 0.1957500000000000
0.4196500000000000 0.5528000000000000 0.6957500000000001
0.9196500000000001 0.0528000000000000 0.1957500000000000
0.9196500000000001 0.0528000000000000 0.6957500000000001
0.9196500000000001 0.5528000000000000 0.1957500000000000
0.9196500000000001 0.5528000000000000 0.6957500000000001
0.0542500000000000 0.1972000000000000 0.1696500000000000
0.0542500000000000 0.1972000000000000 0.6696500000000001
0.0542500000000000 0.6972000000000000 0.1696500000000000
0.0542500000000000 0.6972000000000000 0.6696500000000001
0.5542500000000000 0.1972000000000000 0.1696500000000000
0.5542500000000000 0.1972000000000000 0.6696500000000001
0.5542500000000000 0.6972000000000000 0.1696500000000000
0.5542500000000000 0.6972000000000000 0.6696500000000001
0.3042500000000002 0.4472000000000001 0.4196500000000000
0.3042500000000002 0.4472000000000001 0.9196500000000001
0.3042500000000002 0.9472000000000000 0.4196500000000000
0.3042500000000002 0.9471999999999999 0.9196500000000001
0.8042500000000001 0.4472000000000001 0.4196500000000000
0.8042500000000001 0.4472000000000001 0.9196500000000001
0.8042500000000001 0.9472000000000000 0.4196500000000000
0.8042500000000001 0.9471999999999999 0.9196500000000001
0.1696500000000000 0.4457500000000000 0.3028000000000000
0.1696500000000000 0.4457500000000000 0.8028000000000001
0.1696500000000000 0.9457500000000000 0.3028000000000000
0.1696500000000000 0.9457500000000000 0.8028000000000001
0.6696500000000001 0.4457500000000000 0.3028000000000000
0.6696500000000001 0.4457500000000000 0.8028000000000001
0.6696500000000001 0.9457500000000000 0.3028000000000000
0.6696500000000001 0.9457500000000000 0.8028000000000001
0.4196500000000000 0.1957500000000000 0.0528000000000000
0.4196500000000000 0.1957500000000000 0.5528000000000000
0.4196500000000000 0.6957500000000001 0.0528000000000000
0.4196500000000000 0.6957500000000001 0.5528000000000000
0.9196500000000001 0.1957500000000000 0.0528000000000000
0.9196500000000001 0.1957500000000000 0.5528000000000000
0.9196500000000001 0.6957500000000001 0.0528000000000000
0.9196500000000001 0.6957500000000001 0.5528000000000000
0.3028000000000000 0.3303500000000000 0.0542500000000000
0.3028000000000000 0.3303500000000000 0.5542500000000000
0.3028000000000000 0.8303500000000000 0.0542500000000000
0.3028000000000000 0.8303500000000000 0.5542500000000000
0.8028000000000001 0.3303500000000000 0.0542500000000000
0.8028000000000001 0.3303500000000000 0.5542500000000000
0.8028000000000001 0.8303500000000000 0.0542500000000000
0.8028000000000001 0.8303500000000000 0.5542500000000000
0.0528000000000000 0.0803499999999999 0.3042500000000002
0.0528000000000000 0.0803499999999999 0.8042500000000001
0.0528000000000000 0.5803499999999999 0.3042500000000002
0.0528000000000000 0.5803499999999999 0.8042500000000001
0.5528000000000000 0.0803499999999999 0.3042500000000002
0.5528000000000000 0.0803499999999999 0.8042500000000001
0.5528000000000000 0.5803499999999999 0.3042500000000002
0.5528000000000000 0.5803499999999999 0.8042500000000001
0.0542500000000000 0.3303500000000000 0.3028000000000000
0.0542500000000000 0.3303500000000000 0.8028000000000001
0.0542500000000000 0.8303500000000000 0.3028000000000000
0.0542500000000000 0.8303500000000000 0.8028000000000001
0.5542500000000000 0.3303500000000000 0.3028000000000000
0.5542500000000000 0.3303500000000000 0.8028000000000001
0.5542500000000000 0.8303500000000000 0.3028000000000000
0.5542500000000000 0.8303500000000000 0.8028000000000001
0.3042500000000002 0.0803499999999999 0.0528000000000000
0.3042500000000002 0.0803499999999999 0.5528000000000000
0.3042500000000002 0.5803499999999999 0.0528000000000000
0.3042500000000002 0.5803499999999999 0.5528000000000000
0.8042500000000001 0.0803499999999999 0.0528000000000000
0.8042500000000001 0.0803499999999999 0.5528000000000000
0.8042500000000001 0.5803499999999999 0.0528000000000000
0.8042500000000001 0.5803499999999999 0.5528000000000000
0.3303500000000000 0.4457500000000000 0.1972000000000000
0.3303500000000000 0.4457500000000000 0.6972000000000000
0.3303500000000000 0.9457500000000000 0.1972000000000000
0.3303500000000000 0.9457500000000000 0.6972000000000000
0.8303500000000000 0.4457500000000000 0.1972000000000000
0.8303500000000000 0.4457500000000000 0.6972000000000000
0.8303500000000000 0.9457500000000000 0.1972000000000000
0.8303500000000000 0.9457500000000000 0.6972000000000000
0.0803499999999999 0.1957500000000000 0.4472000000000001
0.0803499999999999 0.1957500000000000 0.9472000000000000
0.0803499999999999 0.6957500000000001 0.4472000000000001
0.0803499999999999 0.6957500000000000 0.9472000000000000
0.5803499999999999 0.1957500000000000 0.4472000000000001
0.5803499999999999 0.1957500000000000 0.9472000000000000
0.5803499999999999 0.6957500000000001 0.4472000000000001
0.5803499999999999 0.6957500000000000 0.9472000000000000
0.1972000000000000 0.3303500000000000 0.4457500000000000
0.1972000000000000 0.3303500000000000 0.9457500000000000
0.1972000000000000 0.8303500000000000 0.4457500000000000
0.1972000000000000 0.8303500000000000 0.9457500000000000
0.6972000000000000 0.3303500000000000 0.4457500000000000
0.6972000000000000 0.3303500000000000 0.9457500000000000
0.6972000000000000 0.8303500000000000 0.4457500000000000
0.6972000000000000 0.8303500000000000 0.9457500000000000
0.4472000000000001 0.0803499999999999 0.1957500000000000
0.4472000000000001 0.0803499999999999 0.6957500000000001
0.4472000000000001 0.5803499999999999 0.1957500000000000
0.4472000000000001 0.5803499999999999 0.6957500000000001
0.9472000000000000 0.0803499999999999 0.1957500000000000
0.9472000000000000 0.0803499999999999 0.6957500000000001
0.9472000000000000 0.5803499999999999 0.1957500000000000
0.9472000000000000 0.5803499999999999 0.6957500000000001
0.4457500000000000 0.1972000000000000 0.3303500000000000
0.4457500000000000 0.1972000000000000 0.8303500000000000
0.4457500000000000 0.6972000000000000 0.3303500000000000
0.4457500000000000 0.6972000000000000 0.8303500000000000
0.9457500000000000 0.1972000000000000 0.3303500000000000
0.9457500000000000 0.1972000000000000 0.8303500000000000
0.9457500000000000 0.6972000000000000 0.3303500000000000
0.9457500000000000 0.6972000000000000 0.8303500000000000
0.1957500000000000 0.4472000000000001 0.0803499999999999
0.1957500000000000 0.4472000000000001 0.5803499999999999
0.1957500000000000 0.9472000000000000 0.0803499999999999
0.1957500000000000 0.9472000000000000 0.5803499999999999
0.6957500000000001 0.4472000000000001 0.0803499999999999
0.6957500000000001 0.4472000000000001 0.5803499999999999
0.6957500000000000 0.9472000000000000 0.0803499999999999
0.6957500000000000 0.9472000000000000 0.5803499999999999
0.4457500000000000 0.1696500000000000 0.3028000000000000
0.4457500000000000 0.1696500000000000 0.8028000000000001
0.4457500000000000 0.6696500000000001 0.3028000000000000
0.4457500000000000 0.6696500000000001 0.8028000000000001
0.9457500000000000 0.1696500000000000 0.3028000000000000
0.9457500000000000 0.1696500000000000 0.8028000000000001
0.9457500000000000 0.6696500000000001 0.3028000000000000
0.9457500000000000 0.6696500000000001 0.8028000000000001
0.1957500000000000 0.4196500000000000 0.0528000000000000
0.1957500000000000 0.4196500000000000 0.5528000000000000
0.1957500000000000 0.9196500000000001 0.0528000000000000
0.1957500000000000 0.9196500000000001 0.5528000000000000
0.6957500000000001 0.4196500000000000 0.0528000000000000
0.6957500000000001 0.4196500000000000 0.5528000000000000
0.6957500000000000 0.9196500000000001 0.0528000000000000
0.6957500000000000 0.9196500000000001 0.5528000000000000
0.0542500000000000 0.3028000000000000 0.3303500000000000
0.0542500000000000 0.3028000000000000 0.8303500000000000
0.0542500000000000 0.8028000000000001 0.3303500000000000
0.0542500000000000 0.8028000000000001 0.8303500000000000
0.5542500000000000 0.3028000000000000 0.3303500000000000
0.5542500000000000 0.3028000000000000 0.8303500000000000
0.5542500000000000 0.8028000000000001 0.3303500000000000
0.5542500000000000 0.8028000000000001 0.8303500000000000
0.3042500000000002 0.0528000000000000 0.0803499999999999
0.3042500000000002 0.0528000000000000 0.5803499999999999
0.3042500000000002 0.5528000000000000 0.0803499999999999
0.3042500000000002 0.5528000000000000 0.5803499999999999
0.8042500000000001 0.0528000000000000 0.0803499999999999
0.8042500000000001 0.0528000000000000 0.5803499999999999
0.8042500000000001 0.5528000000000000 0.0803499999999999
0.8042500000000001 0.5528000000000000 0.5803499999999999
0.1696500000000000 0.0542500000000000 0.1972000000000000
0.1696500000000000 0.0542500000000000 0.6972000000000000
0.1696500000000000 0.5542500000000000 0.1972000000000000
0.1696500000000000 0.5542500000000000 0.6972000000000000
0.6696500000000001 0.0542500000000000 0.1972000000000000
0.6696500000000001 0.0542500000000000 0.6972000000000000
0.6696500000000001 0.5542500000000000 0.1972000000000000
0.6696500000000001 0.5542500000000000 0.6972000000000000
0.4196500000000001 0.3042500000000002 0.4472000000000001
0.4196500000000000 0.3042500000000002 0.9472000000000000
0.4196500000000001 0.8042500000000001 0.4472000000000001
0.4196500000000000 0.8042500000000001 0.9472000000000000
0.9196500000000001 0.3042500000000002 0.4472000000000001
0.9196500000000001 0.3042500000000002 0.9472000000000000
0.9196500000000001 0.8042500000000001 0.4472000000000001
0.9196500000000001 0.8042500000000001 0.9472000000000000
0.3028000000000001 0.1696500000000000 0.4457500000000000
0.3028000000000000 0.1696500000000000 0.9457500000000000
0.3028000000000001 0.6696500000000001 0.4457500000000000
0.3028000000000000 0.6696500000000001 0.9457500000000000
0.8028000000000001 0.1696500000000000 0.4457500000000000
0.8028000000000001 0.1696500000000000 0.9457500000000000
0.8028000000000001 0.6696500000000001 0.4457500000000000
0.8028000000000001 0.6696500000000001 0.9457500000000000
0.0528000000000000 0.4196500000000000 0.1957500000000000
0.0528000000000000 0.4196500000000000 0.6957500000000001
0.0528000000000000 0.9196500000000001 0.1957500000000000
0.0528000000000000 0.9196500000000001 0.6957500000000001
0.5528000000000000 0.4196500000000000 0.1957500000000000
0.5528000000000000 0.4196500000000000 0.6957500000000001
0.5528000000000000 0.9196500000000001 0.1957500000000000
0.5528000000000000 0.9196500000000001 0.6957500000000001
0.1972000000000000 0.0542500000000000 0.1696500000000000
0.1972000000000000 0.0542500000000000 0.6696500000000001
0.1972000000000000 0.5542500000000000 0.1696500000000000
0.1972000000000000 0.5542500000000000 0.6696500000000001
0.6972000000000000 0.0542500000000000 0.1696500000000000
0.6972000000000000 0.0542500000000000 0.6696500000000001
0.6972000000000000 0.5542500000000000 0.1696500000000000
0.6972000000000000 0.5542500000000000 0.6696500000000001
0.4472000000000001 0.3042500000000002 0.4196500000000000
0.4472000000000001 0.3042500000000002 0.9196500000000001
0.4472000000000001 0.8042500000000001 0.4196500000000000
0.4472000000000001 0.8042500000000001 0.9196500000000001
0.9472000000000000 0.3042500000000002 0.4196500000000000
0.9471999999999999 0.3042500000000002 0.9196500000000001
0.9472000000000000 0.8042500000000001 0.4196500000000000
0.9471999999999999 0.8042500000000001 0.9196500000000001
0.3303500000000000 0.3028000000000000 0.0542500000000000
0.3303500000000000 0.3028000000000000 0.5542500000000000
0.3303500000000000 0.8028000000000001 0.0542500000000000
0.3303500000000000 0.8028000000000001 0.5542500000000000
0.8303500000000000 0.3028000000000000 0.0542500000000000
0.8303500000000000 0.3028000000000000 0.5542500000000000
0.8303500000000000 0.8028000000000001 0.0542500000000000
0.8303500000000000 0.8028000000000001 0.5542500000000000
0.0803499999999999 0.0528000000000000 0.3042500000000002
0.0803499999999999 0.0528000000000000 0.8042500000000001
0.0803499999999999 0.5528000000000000 0.3042500000000002
0.0803499999999999 0.5528000000000000 0.8042500000000001
0.5803499999999999 0.0528000000000000 0.3042500000000002
0.5803499999999999 0.0528000000000000 0.8042500000000001
0.5803499999999999 0.5528000000000000 0.3042500000000002
0.5803499999999999 0.5528000000000000 0.8042500000000001
0.1833000000000000 0.0494500000000000 0.3167000000000000
0.1833000000000000 0.0494500000000000 0.8167000000000000
0.1833000000000000 0.5494500000000000 0.3167000000000000
0.1833000000000000 0.5494500000000000 0.8167000000000000
0.6833000000000001 0.0494500000000000 0.3167000000000000
0.6833000000000001 0.0494500000000000 0.8167000000000000
0.6833000000000001 0.5494500000000000 0.3167000000000000
0.6833000000000001 0.5494500000000000 0.8167000000000000
0.4333000000000000 0.2994500000000000 0.0667000000000000
0.4333000000000000 0.2994500000000000 0.5667000000000000
0.4333000000000000 0.7994500000000000 0.0667000000000000
0.4333000000000000 0.7994500000000000 0.5667000000000000
0.9333000000000000 0.2994500000000000 0.0667000000000000
0.9333000000000000 0.2994500000000000 0.5667000000000000
0.9333000000000000 0.7994500000000000 0.0667000000000000
0.9333000000000000 0.7994500000000000 0.5667000000000000
0.0494500000000000 0.3167000000000000 0.1833000000000000
0.0494500000000000 0.3167000000000000 0.6833000000000001
0.0494500000000000 0.8167000000000000 0.1833000000000000
0.0494500000000000 0.8167000000000000 0.6833000000000001
0.5494500000000000 0.3167000000000000 0.1833000000000000
0.5494500000000000 0.3167000000000000 0.6833000000000001
0.5494500000000000 0.8167000000000000 0.1833000000000000
0.5494500000000000 0.8167000000000000 0.6833000000000001
0.2994500000000000 0.0667000000000000 0.4333000000000000
0.2994500000000000 0.0667000000000000 0.9333000000000000
0.2994500000000000 0.5667000000000000 0.4333000000000000
0.2994500000000000 0.5667000000000000 0.9333000000000000
0.7994500000000000 0.0667000000000000 0.4333000000000000
0.7994500000000000 0.0667000000000000 0.9333000000000000
0.7994500000000000 0.5667000000000000 0.4333000000000000
0.7994500000000000 0.5667000000000000 0.9333000000000000
0.3167000000000001 0.4505500000000000 0.3167000000000000
0.3167000000000001 0.4505500000000000 0.8167000000000000
0.3167000000000000 0.9505500000000001 0.3167000000000000
0.3167000000000000 0.9505500000000001 0.8167000000000000
0.8167000000000000 0.4505500000000000 0.3167000000000000
0.8167000000000000 0.4505500000000000 0.8167000000000000
0.8167000000000000 0.9505500000000001 0.3167000000000000
0.8167000000000000 0.9505500000000001 0.8167000000000000
0.0667000000000000 0.2005500000000000 0.0667000000000000
0.0667000000000000 0.2005500000000000 0.5667000000000000
0.0667000000000000 0.7005500000000000 0.0667000000000000
0.0667000000000000 0.7005500000000000 0.5667000000000000
0.5667000000000000 0.2005500000000000 0.0667000000000000
0.5667000000000000 0.2005500000000000 0.5667000000000000
0.5667000000000000 0.7005500000000000 0.0667000000000000
0.5667000000000000 0.7005500000000000 0.5667000000000000
0.1833000000000000 0.1833000000000000 0.4505500000000000
0.1833000000000000 0.1833000000000000 0.9505500000000001
0.1833000000000000 0.6833000000000001 0.4505500000000000
0.1833000000000000 0.6833000000000001 0.9505500000000001
0.6833000000000001 0.1833000000000000 0.4505500000000000
0.6833000000000001 0.1833000000000000 0.9505500000000001
0.6833000000000001 0.6833000000000001 0.4505500000000000
0.6833000000000001 0.6833000000000001 0.9505500000000001
0.4333000000000001 0.4333000000000000 0.2005500000000000
0.4333000000000001 0.4333000000000000 0.7005500000000000
0.4333000000000000 0.9333000000000000 0.2005500000000000
0.4333000000000000 0.9333000000000000 0.7005500000000000
0.9333000000000000 0.4333000000000000 0.2005500000000000
0.9333000000000000 0.4333000000000000 0.7005500000000000
0.9333000000000000 0.9333000000000000 0.2005500000000000
0.9333000000000000 0.9333000000000000 0.7005500000000000
0.3167000000000000 0.0494500000000000 0.1833000000000000
0.3167000000000000 0.0494500000000000 0.6833000000000001
0.3167000000000000 0.5494500000000000 0.1833000000000000
0.3167000000000000 0.5494500000000000 0.6833000000000001
0.8167000000000000 0.0494500000000000 0.1833000000000000
0.8167000000000000 0.0494500000000000 0.6833000000000001
0.8167000000000000 0.5494500000000000 0.1833000000000000
0.8167000000000000 0.5494500000000000 0.6833000000000001
0.4505500000000000 0.1833000000000000 0.1833000000000000
0.4505500000000000 0.1833000000000000 0.6833000000000001
0.4505500000000000 0.6833000000000001 0.1833000000000000
0.4505500000000000 0.6833000000000001 0.6833000000000001
0.9505500000000001 0.1833000000000000 0.1833000000000000
0.9505500000000001 0.1833000000000000 0.6833000000000001
0.9505500000000001 0.6833000000000001 0.1833000000000000
0.9505500000000001 0.6833000000000001 0.6833000000000001
0.1833000000000000 0.3167000000000000 0.0494500000000000
0.1833000000000000 0.3167000000000000 0.5494500000000000
0.1833000000000000 0.8167000000000000 0.0494500000000000
0.1833000000000000 0.8167000000000000 0.5494500000000000
0.6833000000000001 0.3167000000000000 0.0494500000000000
0.6833000000000001 0.3167000000000000 0.5494500000000000
0.6833000000000001 0.8167000000000000 0.0494500000000000
0.6833000000000001 0.8167000000000000 0.5494500000000000
0.3167000000000001 0.3167000000000001 0.4505500000000000
0.3167000000000000 0.3167000000000000 0.9505500000000001
0.3167000000000001 0.8167000000000000 0.4505500000000000
0.3167000000000000 0.8167000000000000 0.9505500000000001
0.8167000000000000 0.3167000000000001 0.4505500000000000
0.8167000000000000 0.3167000000000000 0.9505500000000001
0.8167000000000000 0.8167000000000000 0.4505500000000000
0.8167000000000000 0.8167000000000000 0.9505500000000001
0.0667000000000000 0.0667000000000000 0.2005500000000000
0.0667000000000000 0.0667000000000000 0.7005500000000000
0.0667000000000000 0.5667000000000000 0.2005500000000000
0.0667000000000000 0.5667000000000000 0.7005500000000000
0.5667000000000000 0.0667000000000000 0.2005500000000000
0.5667000000000000 0.0667000000000000 0.7005500000000000
0.5667000000000000 0.5667000000000000 0.2005500000000000
0.5667000000000000 0.5667000000000000 0.7005500000000000
0.4505500000000000 0.3167000000000000 0.3167000000000000
0.4505500000000000 0.3167000000000000 0.8167000000000000
0.4505500000000000 0.8167000000000000 0.3167000000000000
0.4505500000000000 0.8167000000000000 0.8167000000000000
0.9505500000000001 0.3167000000000000 0.3167000000000000
0.9505500000000001 0.3167000000000000 0.8167000000000000
0.9505500000000001 0.8167000000000000 0.3167000000000000
0.9505500000000001 0.8167000000000000 0.8167000000000000
0.2005500000000000 0.0667000000000000 0.0667000000000000
0.2005500000000000 0.0667000000000000 0.5667000000000000
0.2005500000000000 0.5667000000000000 0.0667000000000000
0.2005500000000000 0.5667000000000000 0.5667000000000000
0.7005500000000000 0.0667000000000000 0.0667000000000000
0.7005500000000000 0.0667000000000000 0.5667000000000000
0.7005500000000000 0.5667000000000000 0.0667000000000000
0.7005500000000000 0.5667000000000000 0.5667000000000000
0.2994500000000000 0.4333000000000000 0.0667000000000000
0.2994500000000000 0.4333000000000000 0.5667000000000000
0.2994500000000000 0.9333000000000000 0.0667000000000000
0.2994500000000000 0.9333000000000000 0.5667000000000000
0.7994500000000000 0.4333000000000000 0.0667000000000000
0.7994500000000000 0.4333000000000000 0.5667000000000000
0.7994500000000000 0.9333000000000000 0.0667000000000000
0.7994500000000000 0.9333000000000000 0.5667000000000000
0.1833000000000000 0.4505500000000000 0.1833000000000000
0.1833000000000000 0.4505500000000000 0.6833000000000001
0.1833000000000000 0.9505500000000001 0.1833000000000000
0.1833000000000000 0.9505500000000001 0.6833000000000001
0.6833000000000001 0.4505500000000000 0.1833000000000000
0.6833000000000001 0.4505500000000000 0.6833000000000001
0.6833000000000001 0.9505500000000001 0.1833000000000000
0.6833000000000001 0.9505500000000001 0.6833000000000001
0.4333000000000000 0.2005500000000000 0.4333000000000000
0.4333000000000000 0.2005500000000000 0.9333000000000000
0.4333000000000000 0.7005500000000000 0.4333000000000000
0.4333000000000000 0.7005500000000000 0.9333000000000000
0.9333000000000000 0.2005500000000000 0.4333000000000000
0.9333000000000000 0.2005500000000000 0.9333000000000000
0.9333000000000000 0.7005500000000000 0.4333000000000000
0.9333000000000000 0.7005500000000000 0.9333000000000000
0.2054500000000000 0.4840500000000000 0.3408000000000000
0.2054500000000000 0.4840499999999999 0.8408000000000000
0.2054500000000000 0.9840500000000001 0.3408000000000000
0.2054500000000000 0.9840500000000001 0.8408000000000000
0.7054500000000001 0.4840500000000000 0.3408000000000000
0.7054500000000001 0.4840499999999999 0.8408000000000000
0.7054500000000000 0.9840500000000001 0.3408000000000000
0.7054500000000000 0.9840500000000001 0.8408000000000000
0.4554500000000000 0.2340500000000000 0.0908000000000000
0.4554500000000000 0.2340500000000000 0.5908000000000001
0.4554500000000000 0.7340500000000001 0.0908000000000000
0.4554500000000000 0.7340500000000001 0.5908000000000001
0.9554500000000000 0.2340500000000000 0.0908000000000000
0.9554500000000000 0.2340500000000000 0.5908000000000001
0.9554500000000000 0.7340500000000001 0.0908000000000000
0.9554500000000000 0.7340500000000001 0.5908000000000001
0.4840500000000000 0.3408000000000000 0.2054500000000000
0.4840499999999999 0.3408000000000000 0.7054500000000001
0.4840499999999999 0.8408000000000000 0.2054500000000000
0.4840499999999999 0.8408000000000000 0.7054500000000001
0.9840500000000001 0.3408000000000000 0.2054500000000000
0.9840500000000001 0.3408000000000000 0.7054500000000001
0.9840500000000001 0.8408000000000000 0.2054500000000000
0.9840500000000001 0.8408000000000000 0.7054500000000001
0.2340500000000000 0.0908000000000000 0.4554500000000000
0.2340500000000000 0.0908000000000000 0.9554500000000000
0.2340500000000000 0.5908000000000001 0.4554500000000000
0.2340500000000000 0.5908000000000000 0.9554500000000000
0.7340500000000001 0.0908000000000000 0.4554500000000000
0.7340500000000001 0.0908000000000000 0.9554500000000000
0.7340500000000001 0.5908000000000001 0.4554500000000000
0.7340500000000001 0.5908000000000000 0.9554500000000000
0.3408000000000000 0.2054500000000000 0.4840500000000000
0.3408000000000000 0.2054500000000000 0.9840500000000001
0.3408000000000000 0.7054500000000001 0.4840500000000000
0.3408000000000000 0.7054500000000000 0.9840500000000001
0.8408000000000000 0.2054500000000000 0.4840500000000000
0.8408000000000000 0.2054500000000000 0.9840500000000001
0.8408000000000000 0.7054500000000001 0.4840500000000000
0.8408000000000000 0.7054500000000000 0.9840500000000001
0.0908000000000000 0.4554500000000000 0.2340500000000000
0.0908000000000000 0.4554500000000000 0.7340500000000001
0.0908000000000000 0.9554500000000000 0.2340500000000000
0.0908000000000000 0.9554500000000000 0.7340500000000001
0.5908000000000001 0.4554500000000000 0.2340500000000000
0.5908000000000001 0.4554500000000000 0.7340500000000001
0.5908000000000000 0.9554500000000000 0.2340500000000000
0.5908000000000000 0.9554500000000000 0.7340500000000001
0.4840500000000000 0.2945500000000002 0.1592000000000000
0.4840499999999999 0.2945500000000001 0.6592000000000000
0.4840499999999999 0.7945500000000001 0.1592000000000000
0.4840499999999999 0.7945500000000001 0.6592000000000000
0.9840500000000001 0.2945500000000002 0.1592000000000000
0.9840500000000001 0.2945500000000001 0.6592000000000000
0.9840500000000001 0.7945500000000001 0.1592000000000000
0.9840500000000001 0.7945500000000001 0.6592000000000000
0.2340500000000000 0.0445500000000000 0.4092000000000002
0.2340500000000000 0.0445500000000000 0.9092000000000002
0.2340500000000000 0.5445500000000000 0.4092000000000002
0.2340500000000000 0.5445500000000000 0.9092000000000002
0.7340500000000001 0.0445500000000000 0.4092000000000002
0.7340500000000001 0.0445500000000000 0.9092000000000002
0.7340500000000001 0.5445500000000000 0.4092000000000002
0.7340500000000001 0.5445500000000000 0.9092000000000002
0.3408000000000000 0.0159500000000000 0.2945500000000002
0.3408000000000000 0.0159500000000000 0.7945500000000001
0.3408000000000000 0.5159500000000000 0.2945500000000002
0.3408000000000000 0.5159500000000000 0.7945500000000001
0.8408000000000000 0.0159500000000000 0.2945500000000002
0.8408000000000000 0.0159500000000000 0.7945500000000001
0.8408000000000000 0.5159500000000000 0.2945500000000002
0.8408000000000000 0.5159500000000000 0.7945500000000001
0.0908000000000000 0.2659500000000000 0.0445500000000000
0.0908000000000000 0.2659500000000000 0.5445500000000000
0.0908000000000000 0.7659500000000000 0.0445500000000000
0.0908000000000000 0.7659500000000000 0.5445500000000000
0.5908000000000001 0.2659500000000000 0.0445500000000000
0.5908000000000001 0.2659500000000000 0.5445500000000000
0.5908000000000001 0.7659500000000000 0.0445500000000000
0.5908000000000001 0.7659500000000000 0.5445500000000000
0.2054500000000000 0.1592000000000000 0.0159500000000000
0.2054500000000000 0.1592000000000000 0.5159500000000000
0.2054500000000000 0.6592000000000000 0.0159500000000000
0.2054500000000000 0.6592000000000000 0.5159500000000000
0.7054500000000001 0.1592000000000000 0.0159500000000000
0.7054500000000001 0.1592000000000000 0.5159500000000000
0.7054500000000001 0.6592000000000000 0.0159500000000000
0.7054500000000001 0.6592000000000000 0.5159500000000000
0.4554500000000000 0.4092000000000002 0.2659500000000000
0.4554500000000000 0.4092000000000002 0.7659500000000000
0.4554500000000000 0.9092000000000002 0.2659500000000000
0.4554500000000000 0.9092000000000002 0.7659500000000000
0.9554500000000000 0.4092000000000002 0.2659500000000000
0.9554500000000000 0.4092000000000002 0.7659500000000000
0.9554499999999999 0.9092000000000002 0.2659500000000000
0.9554499999999999 0.9092000000000002 0.7659500000000000
0.2945500000000002 0.0159500000000000 0.3408000000000000
0.2945500000000001 0.0159500000000000 0.8408000000000000
0.2945500000000001 0.5159500000000000 0.3408000000000000
0.2945500000000001 0.5159500000000000 0.8408000000000000
0.7945500000000001 0.0159500000000000 0.3408000000000000
0.7945500000000001 0.0159500000000000 0.8408000000000000
0.7945500000000001 0.5159500000000000 0.3408000000000000
0.7945500000000001 0.5159500000000000 0.8408000000000000
0.0445500000000000 0.2659500000000000 0.0908000000000000
0.0445500000000000 0.2659500000000000 0.5908000000000001
0.0445500000000000 0.7659500000000000 0.0908000000000000
0.0445500000000000 0.7659500000000000 0.5908000000000001
0.5445500000000000 0.2659500000000000 0.0908000000000000
0.5445500000000000 0.2659500000000000 0.5908000000000001
0.5445500000000000 0.7659500000000000 0.0908000000000000
0.5445500000000000 0.7659500000000000 0.5908000000000001
0.1592000000000000 0.2054500000000000 0.0159500000000000
0.1592000000000000 0.2054500000000000 0.5159500000000000
0.1592000000000000 0.7054500000000001 0.0159500000000000
0.1592000000000000 0.7054500000000001 0.5159500000000000
0.6592000000000000 0.2054500000000000 0.0159500000000000
0.6592000000000000 0.2054500000000000 0.5159500000000000
0.6592000000000000 0.7054500000000001 0.0159500000000000
0.6592000000000000 0.7054500000000001 0.5159500000000000
0.4092000000000002 0.4554500000000000 0.2659500000000000
0.4092000000000002 0.4554500000000000 0.7659500000000000
0.4092000000000002 0.9554500000000000 0.2659500000000000
0.4092000000000002 0.9554500000000000 0.7659500000000000
0.9092000000000002 0.4554500000000000 0.2659500000000000
0.9092000000000002 0.4554500000000000 0.7659500000000000
0.9092000000000002 0.9554500000000000 0.2659500000000000
0.9092000000000002 0.9554500000000000 0.7659500000000000
0.2945500000000001 0.4840500000000000 0.1592000000000000
0.2945500000000001 0.4840499999999999 0.6592000000000000
0.2945500000000001 0.9840500000000001 0.1592000000000000
0.2945500000000001 0.9840500000000001 0.6592000000000000
0.7945500000000001 0.4840500000000000 0.1592000000000000
0.7945500000000001 0.4840499999999999 0.6592000000000000
0.7945500000000001 0.9840500000000001 0.1592000000000000
0.7945500000000001 0.9840500000000001 0.6592000000000000
0.0445500000000000 0.2340500000000000 0.4092000000000002
0.0445500000000000 0.2340500000000000 0.9092000000000002
0.0445500000000000 0.7340500000000001 0.4092000000000002
0.0445500000000000 0.7340500000000001 0.9092000000000002
0.5445500000000000 0.2340500000000000 0.4092000000000002
0.5445500000000000 0.2340500000000000 0.9092000000000002
0.5445500000000000 0.7340500000000001 0.4092000000000002
0.5445500000000000 0.7340500000000001 0.9092000000000002
0.0159500000000000 0.1592000000000000 0.2054500000000000
0.0159500000000000 0.1592000000000000 0.7054500000000001
0.0159500000000000 0.6592000000000000 0.2054500000000000
0.0159500000000000 0.6592000000000000 0.7054500000000001
0.5159500000000000 0.1592000000000000 0.2054500000000000
0.5159500000000000 0.1592000000000000 0.7054500000000001
0.5159500000000000 0.6592000000000000 0.2054500000000000
0.5159500000000000 0.6592000000000000 0.7054500000000001
0.2659500000000000 0.4092000000000002 0.4554500000000000
0.2659500000000000 0.4092000000000002 0.9554500000000000
0.2659500000000000 0.9092000000000002 0.4554500000000000
0.2659500000000000 0.9092000000000002 0.9554500000000000
0.7659500000000000 0.4092000000000002 0.4554500000000000
0.7659500000000000 0.4092000000000002 0.9554500000000000
0.7659500000000000 0.9092000000000002 0.4554500000000000
0.7659500000000000 0.9092000000000002 0.9554500000000000
0.1592000000000000 0.2945500000000001 0.4840500000000000
0.1592000000000000 0.2945500000000001 0.9840500000000001
0.1592000000000000 0.7945500000000001 0.4840500000000000
0.1592000000000000 0.7945500000000001 0.9840500000000001
0.6592000000000000 0.2945500000000001 0.4840500000000000
0.6592000000000000 0.2945500000000001 0.9840500000000001
0.6592000000000000 0.7945500000000001 0.4840500000000000
0.6592000000000000 0.7945500000000001 0.9840500000000001
0.4092000000000002 0.0445500000000000 0.2340500000000000
0.4092000000000002 0.0445500000000000 0.7340500000000001
0.4092000000000002 0.5445500000000000 0.2340500000000000
0.4092000000000002 0.5445500000000000 0.7340500000000001
0.9092000000000002 0.0445500000000000 0.2340500000000000
0.9092000000000002 0.0445500000000000 0.7340500000000001
0.9092000000000002 0.5445500000000000 0.2340500000000000
0.9092000000000002 0.5445500000000000 0.7340500000000001
0.0159500000000000 0.2054500000000000 0.1592000000000000
0.0159500000000000 0.2054500000000000 0.6592000000000000
0.0159500000000000 0.7054500000000001 0.1592000000000000
0.0159500000000000 0.7054500000000001 0.6592000000000000
0.5159500000000000 0.2054500000000000 0.1592000000000000
0.5159500000000000 0.2054500000000000 0.6592000000000000
0.5159500000000000 0.7054500000000001 0.1592000000000000
0.5159500000000000 0.7054500000000001 0.6592000000000000
0.2659500000000000 0.4554500000000000 0.4092000000000002
0.2659500000000000 0.4554500000000000 0.9092000000000002
0.2659500000000000 0.9554500000000000 0.4092000000000002
0.2659500000000000 0.9554499999999999 0.9092000000000002
0.7659500000000000 0.4554500000000000 0.4092000000000002
0.7659500000000000 0.4554500000000000 0.9092000000000002
0.7659500000000000 0.9554500000000000 0.4092000000000002
0.7659500000000000 0.9554499999999999 0.9092000000000002
0.1592000000000000 0.4840500000000000 0.2945500000000002
0.1592000000000000 0.4840499999999999 0.7945500000000001
0.1592000000000000 0.9840500000000001 0.2945500000000002
0.1592000000000000 0.9840500000000001 0.7945500000000001
0.6592000000000000 0.4840500000000000 0.2945500000000002
0.6592000000000000 0.4840499999999999 0.7945500000000001
0.6592000000000000 0.9840500000000001 0.2945500000000002
0.6592000000000000 0.9840500000000001 0.7945500000000001
0.4092000000000002 0.2340500000000000 0.0445500000000000
0.4092000000000002 0.2340500000000000 0.5445500000000000
0.4092000000000002 0.7340500000000001 0.0445500000000000
0.4092000000000002 0.7340500000000001 0.5445500000000000
0.9092000000000002 0.2340500000000000 0.0445500000000000
0.9092000000000002 0.2340500000000000 0.5445500000000000
0.9092000000000002 0.7340500000000001 0.0445500000000000
0.9092000000000002 0.7340500000000001 0.5445500000000000
0.2945500000000002 0.3408000000000000 0.0159500000000000
0.2945500000000001 0.3408000000000000 0.5159500000000000
0.2945500000000001 0.8408000000000000 0.0159500000000000
0.2945500000000001 0.8408000000000000 0.5159500000000000
0.7945500000000001 0.3408000000000000 0.0159500000000000
0.7945500000000001 0.3408000000000000 0.5159500000000000
0.7945500000000001 0.8408000000000000 0.0159500000000000
0.7945500000000001 0.8408000000000000 0.5159500000000000
0.0445500000000000 0.0908000000000000 0.2659500000000000
0.0445500000000000 0.0908000000000000 0.7659500000000000
0.0445500000000000 0.5908000000000001 0.2659500000000000
0.0445500000000000 0.5908000000000001 0.7659500000000000
0.5445500000000000 0.0908000000000000 0.2659500000000000
0.5445500000000000 0.0908000000000000 0.7659500000000000
0.5445500000000000 0.5908000000000001 0.2659500000000000
0.5445500000000000 0.5908000000000001 0.7659500000000000
0.0159500000000000 0.3408000000000000 0.2945500000000002
0.0159500000000000 0.3408000000000000 0.7945500000000001
0.0159500000000000 0.8408000000000000 0.2945500000000002
0.0159500000000000 0.8408000000000000 0.7945500000000001
0.5159500000000000 0.3408000000000000 0.2945500000000002
0.5159500000000000 0.3408000000000000 0.7945500000000001
0.5159500000000000 0.8408000000000000 0.2945500000000002
0.5159500000000000 0.8408000000000000 0.7945500000000001
0.2659500000000000 0.0908000000000000 0.0445500000000000
0.2659500000000000 0.0908000000000000 0.5445500000000000
0.2659500000000000 0.5908000000000001 0.0445500000000000
0.2659500000000000 0.5908000000000001 0.5445500000000000
0.7659500000000000 0.0908000000000000 0.0445500000000000
0.7659500000000000 0.0908000000000000 0.5445500000000000
0.7659500000000000 0.5908000000000001 0.0445500000000000
0.7659500000000000 0.5908000000000001 0.5445500000000000
0.3408000000000000 0.4840500000000000 0.2054500000000000
0.3408000000000000 0.4840499999999999 0.7054500000000001
0.3408000000000000 0.9840500000000001 0.2054500000000000
0.3408000000000000 0.9840500000000001 0.7054500000000001
0.8408000000000000 0.4840500000000000 0.2054500000000000
0.8408000000000000 0.4840499999999999 0.7054500000000001
0.8408000000000000 0.9840500000000001 0.2054500000000000
0.8408000000000000 0.9840500000000001 0.7054500000000001
0.0908000000000000 0.2340500000000000 0.4554500000000000
0.0908000000000000 0.2340500000000000 0.9554500000000000
0.0908000000000000 0.7340500000000001 0.4554500000000000
0.0908000000000000 0.7340500000000001 0.9554500000000000
0.5908000000000001 0.2340500000000000 0.4554500000000000
0.5908000000000000 0.2340500000000000 0.9554500000000000
0.5908000000000001 0.7340500000000001 0.4554500000000000
0.5908000000000000 0.7340500000000001 0.9554500000000000
0.2054500000000000 0.3408000000000000 0.4840500000000000
0.2054500000000000 0.3408000000000000 0.9840500000000001
0.2054500000000000 0.8408000000000000 0.4840500000000000
0.2054500000000000 0.8408000000000000 0.9840500000000001
0.7054500000000001 0.3408000000000000 0.4840500000000000
0.7054500000000000 0.3408000000000000 0.9840500000000001
0.7054500000000001 0.8408000000000000 0.4840500000000000
0.7054500000000000 0.8408000000000000 0.9840500000000001
0.4554500000000000 0.0908000000000000 0.2340500000000000
0.4554500000000000 0.0908000000000000 0.7340500000000001
0.4554500000000000 0.5908000000000001 0.2340500000000000
0.4554500000000000 0.5908000000000001 0.7340500000000001
0.9554500000000000 0.0908000000000000 0.2340500000000000
0.9554500000000000 0.0908000000000000 0.7340500000000001
0.9554500000000000 0.5908000000000001 0.2340500000000000
0.9554500000000000 0.5908000000000001 0.7340500000000001
0.4840500000000000 0.2054500000000000 0.3408000000000000
0.4840499999999999 0.2054500000000000 0.8408000000000000
0.4840499999999999 0.7054500000000001 0.3408000000000000
0.4840499999999999 0.7054500000000001 0.8408000000000000
0.9840500000000001 0.2054500000000000 0.3408000000000000
0.9840500000000001 0.2054500000000000 0.8408000000000000
0.9840500000000001 0.7054500000000001 0.3408000000000000
0.9840500000000001 0.7054500000000001 0.8408000000000000
0.2340500000000000 0.4554500000000000 0.0908000000000000
0.2340500000000000 0.4554500000000000 0.5908000000000001
0.2340500000000000 0.9554500000000000 0.0908000000000000
0.2340500000000000 0.9554500000000000 0.5908000000000001
0.7340500000000001 0.4554500000000000 0.0908000000000000
0.7340500000000001 0.4554500000000000 0.5908000000000001
0.7340500000000001 0.9554500000000000 0.0908000000000000
0.7340500000000001 0.9554500000000000 0.5908000000000001
0.4840500000000000 0.1592000000000000 0.2945500000000002
0.4840499999999999 0.1592000000000000 0.7945500000000001
0.4840499999999999 0.6592000000000000 0.2945500000000002
0.4840499999999999 0.6592000000000000 0.7945500000000001
0.9840500000000001 0.1592000000000000 0.2945500000000002
0.9840500000000001 0.1592000000000000 0.7945500000000001
0.9840500000000001 0.6592000000000000 0.2945500000000002
0.9840500000000001 0.6592000000000000 0.7945500000000001
0.2340500000000000 0.4092000000000002 0.0445500000000000
0.2340500000000000 0.4092000000000002 0.5445500000000000
0.2340500000000000 0.9092000000000002 0.0445500000000000
0.2340500000000000 0.9092000000000002 0.5445500000000000
0.7340500000000001 0.4092000000000002 0.0445500000000000
0.7340500000000001 0.4092000000000002 0.5445500000000000
0.7340500000000001 0.9092000000000002 0.0445500000000000
0.7340500000000001 0.9092000000000002 0.5445500000000000
0.0159500000000000 0.2945500000000002 0.3408000000000000
0.0159500000000000 0.2945500000000001 0.8408000000000000
0.0159500000000000 0.7945500000000001 0.3408000000000000
0.0159500000000000 0.7945500000000001 0.8408000000000000
0.5159500000000000 0.2945500000000002 0.3408000000000000
0.5159500000000000 0.2945500000000001 0.8408000000000000
0.5159500000000000 0.7945500000000001 0.3408000000000000
0.5159500000000000 0.7945500000000001 0.8408000000000000
0.2659500000000000 0.0445500000000000 0.0908000000000000
0.2659500000000000 0.0445500000000000 0.5908000000000001
0.2659500000000000 0.5445500000000000 0.0908000000000000
0.2659500000000000 0.5445500000000000 0.5908000000000001
0.7659500000000000 0.0445500000000000 0.0908000000000000
0.7659500000000000 0.0445500000000000 0.5908000000000001
0.7659500000000000 0.5445500000000000 0.0908000000000000
0.7659500000000000 0.5445500000000000 0.5908000000000001
0.1592000000000000 0.0159500000000000 0.2054500000000000
0.1592000000000000 0.0159500000000000 0.7054500000000001
0.1592000000000000 0.5159500000000000 0.2054500000000000
0.1592000000000000 0.5159500000000000 0.7054500000000001
0.6592000000000000 0.0159500000000000 0.2054500000000000
0.6592000000000000 0.0159500000000000 0.7054500000000001
0.6592000000000000 0.5159500000000000 0.2054500000000000
0.6592000000000000 0.5159500000000000 0.7054500000000001
0.4092000000000002 0.2659500000000000 0.4554500000000000
0.4092000000000002 0.2659500000000000 0.9554500000000000
0.4092000000000002 0.7659500000000000 0.4554500000000000
0.4092000000000002 0.7659500000000000 0.9554500000000000
0.9092000000000002 0.2659500000000000 0.4554500000000000
0.9092000000000002 0.2659500000000000 0.9554500000000000
0.9092000000000002 0.7659500000000000 0.4554500000000000
0.9092000000000002 0.7659500000000000 0.9554500000000000
0.2945500000000001 0.1592000000000000 0.4840500000000000
0.2945500000000001 0.1592000000000000 0.9840500000000001
0.2945500000000001 0.6592000000000000 0.4840500000000000
0.2945500000000001 0.6592000000000000 0.9840500000000001
0.7945500000000001 0.1592000000000000 0.4840500000000000
0.7945500000000001 0.1592000000000000 0.9840500000000001
0.7945500000000001 0.6592000000000000 0.4840500000000000
0.7945500000000001 0.6592000000000000 0.9840500000000001
0.0445500000000000 0.4092000000000002 0.2340500000000000
0.0445500000000000 0.4092000000000002 0.7340500000000001
0.0445500000000000 0.9092000000000002 0.2340500000000000
0.0445500000000000 0.9092000000000002 0.7340500000000001
0.5445500000000000 0.4092000000000002 0.2340500000000000
0.5445500000000000 0.4092000000000002 0.7340500000000001
0.5445500000000000 0.9092000000000002 0.2340500000000000
0.5445500000000000 0.9092000000000002 0.7340500000000001
0.2054500000000000 0.0159500000000000 0.1592000000000000
0.2054500000000000 0.0159500000000000 0.6592000000000000
0.2054500000000000 0.5159500000000000 0.1592000000000000
0.2054500000000000 0.5159500000000000 0.6592000000000000
0.7054500000000001 0.0159500000000000 0.1592000000000000
0.7054500000000001 0.0159500000000000 0.6592000000000000
0.7054500000000001 0.5159500000000000 0.1592000000000000
0.7054500000000001 0.5159500000000000 0.6592000000000000
0.4554500000000000 0.2659500000000000 0.4092000000000002
0.4554500000000000 0.2659500000000000 0.9092000000000002
0.4554500000000000 0.7659500000000000 0.4092000000000002
0.4554500000000000 0.7659500000000000 0.9092000000000002
0.9554500000000000 0.2659500000000000 0.4092000000000002
0.9554499999999999 0.2659500000000000 0.9092000000000002
0.9554500000000000 0.7659500000000000 0.4092000000000002
0.9554499999999999 0.7659500000000000 0.9092000000000002
0.3408000000000000 0.2945500000000002 0.0159500000000000
0.3408000000000000 0.2945500000000001 0.5159500000000000
0.3408000000000000 0.7945500000000001 0.0159500000000000
0.3408000000000000 0.7945500000000001 0.5159500000000000
0.8408000000000000 0.2945500000000002 0.0159500000000000
0.8408000000000000 0.2945500000000001 0.5159500000000000
0.8408000000000000 0.7945500000000001 0.0159500000000000
0.8408000000000000 0.7945500000000001 0.5159500000000000
0.0908000000000000 0.0445500000000000 0.2659500000000000
0.0908000000000000 0.0445500000000000 0.7659500000000000
0.0908000000000000 0.5445500000000000 0.2659500000000000
0.0908000000000000 0.5445500000000000 0.7659500000000000
0.5908000000000001 0.0445500000000000 0.2659500000000000
0.5908000000000001 0.0445500000000000 0.7659500000000000
0.5908000000000001 0.5445500000000000 0.2659500000000000
0.5908000000000001 0.5445500000000000 0.7659500000000000
0.2500000000000000 0.0000000000000000 0.3750000000000003
0.2500000000000000 0.0000000000000000 0.8750000000000002
0.2500000000000000 0.5000000000000000 0.3750000000000003
0.2500000000000000 0.5000000000000001 0.8750000000000002
0.7500000000000001 0.0000000000000000 0.3750000000000003
0.7500000000000002 0.0000000000000000 0.8750000000000002
0.7500000000000001 0.5000000000000000 0.3750000000000003
0.7500000000000002 0.5000000000000001 0.8750000000000002
0.0000000000000000 0.2500000000000000 0.1250000000000000
0.0000000000000000 0.2500000000000000 0.6250000000000000
0.0000000000000000 0.7500000000000001 0.1250000000000000
0.0000000000000000 0.7500000000000001 0.6250000000000000
0.5000000000000000 0.2500000000000000 0.1250000000000000
0.4999999999999999 0.2500000000000000 0.6250000000000000
0.4999999999999999 0.7500000000000001 0.1250000000000000
0.4999999999999999 0.7500000000000001 0.6250000000000000
0.0000000000000000 0.3750000000000003 0.2500000000000000
0.0000000000000000 0.3750000000000002 0.7500000000000001
0.0000000000000000 0.8750000000000002 0.2500000000000000
0.0000000000000000 0.8750000000000002 0.7500000000000001
0.5000000000000000 0.3750000000000003 0.2500000000000000
0.4999999999999999 0.3750000000000002 0.7500000000000001
0.5000000000000001 0.8750000000000002 0.2500000000000000
0.5000000000000001 0.8750000000000002 0.7500000000000001
0.2500000000000000 0.1250000000000000 0.0000000000000000
0.2500000000000000 0.1250000000000000 0.5000000000000000
0.2500000000000000 0.6250000000000000 0.0000000000000000
0.2500000000000000 0.6250000000000000 0.5000000000000000
0.7500000000000001 0.1250000000000000 0.0000000000000000
0.7500000000000001 0.1250000000000000 0.5000000000000000
0.7500000000000001 0.6250000000000000 0.0000000000000000
0.7500000000000001 0.6250000000000000 0.5000000000000000
0.3750000000000003 0.2500000000000000 0.0000000000000000
0.3750000000000002 0.2500000000000000 0.5000000000000000
0.3750000000000002 0.7500000000000001 0.0000000000000000
0.3750000000000002 0.7500000000000001 0.5000000000000000
0.8750000000000002 0.2500000000000000 0.0000000000000000
0.8750000000000002 0.2500000000000000 0.5000000000000000
0.8750000000000002 0.7500000000000001 0.0000000000000000
0.8750000000000002 0.7500000000000001 0.5000000000000000
0.1250000000000000 0.0000000000000000 0.2500000000000000
0.1250000000000000 0.0000000000000000 0.7500000000000001
0.1250000000000000 0.5000000000000000 0.2500000000000000
0.1250000000000000 0.4999999999999999 0.7500000000000001
0.6250000000000000 0.0000000000000000 0.2500000000000000
0.6250000000000000 0.0000000000000000 0.7500000000000001
0.6250000000000000 0.5000000000000000 0.2500000000000000
0.6250000000000000 0.4999999999999999 0.7500000000000001
0.3750000000000003 0.0000000000000000 0.2500000000000000
0.3750000000000002 0.0000000000000000 0.7500000000000001
0.3750000000000002 0.5000000000000000 0.2500000000000000
0.3750000000000002 0.4999999999999999 0.7500000000000001
0.8750000000000002 0.0000000000000000 0.2500000000000000
0.8750000000000002 0.0000000000000000 0.7500000000000001
0.8750000000000002 0.5000000000000000 0.2500000000000000
0.8750000000000002 0.4999999999999999 0.7500000000000001
0.1250000000000000 0.2500000000000000 0.0000000000000000
0.1250000000000000 0.2500000000000000 0.5000000000000000
0.1250000000000000 0.7500000000000001 0.0000000000000000
0.1250000000000000 0.7500000000000001 0.5000000000000000
0.6250000000000000 0.2500000000000000 0.0000000000000000
0.6250000000000000 0.2500000000000000 0.5000000000000000
0.6250000000000000 0.7500000000000001 0.0000000000000000
0.6250000000000000 0.7500000000000001 0.5000000000000000
0.2500000000000000 0.0000000000000000 0.1250000000000000
0.2500000000000000 0.0000000000000000 0.6250000000000000
0.2500000000000000 0.5000000000000000 0.1250000000000000
0.2500000000000000 0.4999999999999999 0.6250000000000000
0.7500000000000001 0.0000000000000000 0.1250000000000000
0.7500000000000001 0.0000000000000000 0.6250000000000000
0.7500000000000001 0.5000000000000000 0.1250000000000000
0.7500000000000001 0.4999999999999999 0.6250000000000000
0.0000000000000000 0.2500000000000000 0.3749999999999999
0.0000000000000000 0.2500000000000000 0.8750000000000001
0.0000000000000000 0.7500000000000001 0.3749999999999999
0.0000000000000000 0.7500000000000002 0.8750000000000001
0.5000000000000000 0.2500000000000000 0.3749999999999999
0.5000000000000001 0.2500000000000000 0.8750000000000001
0.4999999999999999 0.7500000000000001 0.3749999999999999
0.5000000000000001 0.7500000000000002 0.8750000000000001
0.0000000000000000 0.1250000000000000 0.2500000000000000
0.0000000000000000 0.1250000000000000 0.7500000000000001
0.0000000000000000 0.6250000000000000 0.2500000000000000
0.0000000000000000 0.6250000000000000 0.7500000000000001
0.5000000000000000 0.1250000000000000 0.2500000000000000
0.4999999999999999 0.1250000000000000 0.7500000000000001
0.4999999999999999 0.6250000000000000 0.2500000000000000
0.4999999999999999 0.6250000000000000 0.7500000000000001
0.2500000000000000 0.3749999999999999 0.0000000000000000
0.2500000000000000 0.3749999999999999 0.5000000000000000
0.2500000000000000 0.8750000000000001 0.0000000000000000
0.2500000000000000 0.8750000000000001 0.5000000000000000
0.7500000000000001 0.3749999999999999 0.0000000000000000
0.7500000000000001 0.3749999999999999 0.5000000000000000
0.7500000000000002 0.8750000000000001 0.0000000000000000
0.7500000000000002 0.8750000000000001 0.5000000000000000
0.2090500000000000 0.4236000000000000 0.3408500000000000
0.2090500000000000 0.4236000000000000 0.8408500000000000
0.2090500000000000 0.9236000000000000 0.3408500000000000
0.2090500000000000 0.9236000000000000 0.8408500000000000
0.7090500000000001 0.4236000000000000 0.3408500000000000
0.7090500000000001 0.4236000000000000 0.8408500000000000
0.7090500000000001 0.9236000000000000 0.3408500000000000
0.7090500000000001 0.9236000000000000 0.8408500000000000
0.4590500000000001 0.1736000000000001 0.0908500000000000
0.4590500000000001 0.1736000000000001 0.5908500000000000
0.4590500000000001 0.6736000000000002 0.0908500000000000
0.4590500000000001 0.6736000000000002 0.5908500000000000
0.9590500000000002 0.1736000000000001 0.0908500000000000
0.9590500000000002 0.1736000000000001 0.5908500000000000
0.9590500000000002 0.6736000000000002 0.0908500000000000
0.9590500000000002 0.6736000000000002 0.5908500000000000
0.4236000000000000 0.3408500000000000 0.2090500000000000
0.4236000000000000 0.3408500000000000 0.7090500000000001
0.4236000000000000 0.8408500000000000 0.2090500000000000
0.4236000000000000 0.8408500000000000 0.7090500000000001
0.9236000000000000 0.3408500000000000 0.2090500000000000
0.9236000000000000 0.3408500000000000 0.7090500000000001
0.9236000000000000 0.8408500000000000 0.2090500000000000
0.9236000000000000 0.8408500000000000 0.7090500000000001
0.1736000000000001 0.0908500000000000 0.4590500000000001
0.1736000000000001 0.0908500000000000 0.9590500000000002
0.1736000000000001 0.5908500000000000 0.4590500000000001
0.1736000000000001 0.5908500000000000 0.9590500000000002
0.6736000000000002 0.0908500000000000 0.4590500000000001
0.6736000000000002 0.0908500000000000 0.9590500000000002
0.6736000000000002 0.5908500000000000 0.4590500000000001
0.6736000000000002 0.5908500000000000 0.9590500000000002
0.3408500000000000 0.2090500000000000 0.4236000000000000
0.3408500000000000 0.2090500000000000 0.9236000000000000
0.3408500000000000 0.7090500000000001 0.4236000000000000
0.3408500000000000 0.7090500000000001 0.9236000000000000
0.8408500000000000 0.2090500000000000 0.4236000000000000
0.8408500000000000 0.2090500000000000 0.9236000000000000
0.8408500000000000 0.7090500000000001 0.4236000000000000
0.8408500000000000 0.7090500000000001 0.9236000000000000
0.0908500000000000 0.4590500000000001 0.1736000000000001
0.0908500000000000 0.4590500000000001 0.6736000000000002
0.0908500000000000 0.9590500000000002 0.1736000000000001
0.0908500000000000 0.9590500000000002 0.6736000000000002
0.5908500000000000 0.4590500000000001 0.1736000000000001
0.5908500000000000 0.4590500000000001 0.6736000000000002
0.5908500000000000 0.9590500000000002 0.1736000000000001
0.5908500000000000 0.9590500000000002 0.6736000000000002
0.4236000000000000 0.2909499999999999 0.1591500000000000
0.4236000000000000 0.2909499999999999 0.6591500000000000
0.4236000000000000 0.7909499999999999 0.1591500000000000
0.4236000000000000 0.7909499999999999 0.6591500000000000
0.9236000000000000 0.2909499999999999 0.1591500000000000
0.9236000000000000 0.2909499999999999 0.6591500000000000
0.9236000000000000 0.7909499999999999 0.1591500000000000
0.9236000000000000 0.7909499999999999 0.6591500000000000
0.1736000000000001 0.0409500000000000 0.4091500000000000
0.1736000000000001 0.0409500000000000 0.9091500000000001
0.1736000000000001 0.5409500000000000 0.4091500000000000
0.1736000000000001 0.5409500000000000 0.9091500000000001
0.6736000000000002 0.0409500000000000 0.4091500000000000
0.6736000000000002 0.0409500000000000 0.9091500000000001
0.6736000000000002 0.5409500000000000 0.4091500000000000
0.6736000000000002 0.5409500000000000 0.9091500000000001
0.3408500000000000 0.0764000000000000 0.2909499999999999
0.3408500000000000 0.0764000000000000 0.7909499999999999
0.3408500000000000 0.5764000000000000 0.2909499999999999
0.3408500000000000 0.5764000000000000 0.7909499999999999
0.8408500000000000 0.0764000000000000 0.2909499999999999
0.8408500000000000 0.0764000000000000 0.7909499999999999
0.8408500000000000 0.5764000000000000 0.2909499999999999
0.8408500000000000 0.5764000000000000 0.7909499999999999
0.0908500000000000 0.3264000000000000 0.0409500000000000
0.0908500000000000 0.3264000000000000 0.5409500000000000
0.0908500000000000 0.8264000000000000 0.0409500000000000
0.0908500000000000 0.8264000000000000 0.5409500000000000
0.5908500000000000 0.3264000000000000 0.0409500000000000
0.5908500000000000 0.3264000000000000 0.5409500000000000
0.5908500000000000 0.8264000000000000 0.0409500000000000
0.5908500000000000 0.8264000000000000 0.5409500000000000
0.2090500000000000 0.1591500000000000 0.0764000000000000
0.2090500000000000 0.1591500000000000 0.5764000000000000
0.2090500000000001 0.6591500000000000 0.0764000000000000
0.2090500000000001 0.6591500000000000 0.5764000000000000
0.7090500000000001 0.1591500000000000 0.0764000000000000
0.7090500000000001 0.1591500000000000 0.5764000000000000
0.7090500000000001 0.6591500000000000 0.0764000000000000
0.7090500000000001 0.6591500000000000 0.5764000000000000
0.4590500000000001 0.4091500000000000 0.3264000000000000
0.4590500000000001 0.4091500000000000 0.8264000000000000
0.4590500000000001 0.9091500000000001 0.3264000000000000
0.4590500000000001 0.9091500000000001 0.8264000000000000
0.9590500000000002 0.4091500000000000 0.3264000000000000
0.9590500000000002 0.4091500000000000 0.8264000000000000
0.9590500000000001 0.9091500000000001 0.3264000000000000
0.9590500000000001 0.9091500000000001 0.8264000000000000
0.2909499999999999 0.0764000000000000 0.3408500000000000
0.2909499999999999 0.0764000000000000 0.8408500000000000
0.2909499999999999 0.5764000000000000 0.3408500000000000
0.2909499999999999 0.5764000000000000 0.8408500000000000
0.7909499999999999 0.0764000000000000 0.3408500000000000
0.7909499999999999 0.0764000000000000 0.8408500000000000
0.7909499999999999 0.5764000000000000 0.3408500000000000
0.7909499999999999 0.5764000000000000 0.8408500000000000
0.0409500000000000 0.3264000000000000 0.0908500000000000
0.0409500000000000 0.3264000000000000 0.5908500000000000
0.0409500000000000 0.8264000000000000 0.0908500000000000
0.0409500000000000 0.8264000000000000 0.5908500000000000
0.5409500000000000 0.3264000000000000 0.0908500000000000
0.5409500000000000 0.3264000000000000 0.5908500000000000
0.5409500000000000 0.8264000000000000 0.0908500000000000
0.5409500000000000 0.8264000000000000 0.5908500000000000
0.1591500000000000 0.2090500000000000 0.0764000000000000
0.1591500000000000 0.2090500000000000 0.5764000000000000
0.1591500000000000 0.7090500000000001 0.0764000000000000
0.1591500000000000 0.7090500000000001 0.5764000000000000
0.6591500000000000 0.2090500000000000 0.0764000000000000
0.6591500000000000 0.2090500000000000 0.5764000000000000
0.6591500000000000 0.7090500000000001 0.0764000000000000
0.6591500000000000 0.7090500000000001 0.5764000000000000
0.4091500000000000 0.4590500000000001 0.3264000000000000
0.4091500000000000 0.4590500000000001 0.8264000000000000
0.4091500000000000 0.9590500000000002 0.3264000000000000
0.4091500000000000 0.9590500000000002 0.8264000000000000
0.9091500000000001 0.4590500000000001 0.3264000000000000
0.9091500000000001 0.4590500000000001 0.8264000000000000
0.9091500000000001 0.9590500000000002 0.3264000000000000
0.9091500000000001 0.9590500000000002 0.8264000000000000
0.2909499999999999 0.4236000000000000 0.1591500000000000
0.2909499999999999 0.4236000000000000 0.6591500000000000
0.2909499999999999 0.9236000000000000 0.1591500000000000
0.2909499999999999 0.9236000000000000 0.6591500000000000
0.7909499999999999 0.4236000000000000 0.1591500000000000
0.7909499999999999 0.4236000000000000 0.6591500000000000
0.7909499999999999 0.9236000000000000 0.1591500000000000
0.7909499999999999 0.9236000000000000 0.6591500000000000
0.0409500000000000 0.1736000000000001 0.4091500000000000
0.0409500000000000 0.1736000000000001 0.9091500000000001
0.0409500000000000 0.6736000000000002 0.4091500000000000
0.0409500000000000 0.6736000000000002 0.9091500000000001
0.5409500000000000 0.1736000000000001 0.4091500000000000
0.5409500000000000 0.1736000000000001 0.9091500000000001
0.5409500000000000 0.6736000000000002 0.4091500000000000
0.5409500000000000 0.6736000000000002 0.9091500000000001
0.0764000000000000 0.1591500000000000 0.2090500000000000
0.0764000000000000 0.1591500000000000 0.7090500000000001
0.0764000000000000 0.6591500000000000 0.2090500000000000
0.0764000000000000 0.6591500000000000 0.7090500000000001
0.5764000000000000 0.1591500000000000 0.2090500000000000
0.5764000000000000 0.1591500000000000 0.7090500000000001
0.5764000000000000 0.6591500000000000 0.2090500000000000
0.5764000000000000 0.6591500000000000 0.7090500000000001
0.3264000000000000 0.4091500000000000 0.4590500000000001
0.3264000000000000 0.4091500000000000 0.9590500000000002
0.3264000000000000 0.9091500000000001 0.4590500000000001
0.3264000000000000 0.9091500000000001 0.9590500000000002
0.8264000000000000 0.4091500000000000 0.4590500000000001
0.8264000000000000 0.4091500000000000 0.9590500000000002
0.8264000000000000 0.9091500000000001 0.4590500000000001
0.8264000000000000 0.9091500000000001 0.9590500000000002
0.1591500000000000 0.2909499999999999 0.4236000000000000
0.1591500000000000 0.2909499999999999 0.9236000000000000
0.1591500000000000 0.7909499999999999 0.4236000000000000
0.1591500000000000 0.7909499999999999 0.9236000000000000
0.6591500000000000 0.2909499999999999 0.4236000000000000
0.6591500000000000 0.2909499999999999 0.9236000000000000
0.6591500000000000 0.7909499999999999 0.4236000000000000
0.6591500000000000 0.7909499999999999 0.9236000000000000
0.4091500000000000 0.0409500000000000 0.1736000000000001
0.4091500000000000 0.0409500000000000 0.6736000000000002
0.4091500000000000 0.5409500000000000 0.1736000000000001
0.4091500000000000 0.5409500000000000 0.6736000000000002
0.9091500000000001 0.0409500000000000 0.1736000000000001
0.9091500000000001 0.0409500000000000 0.6736000000000002
0.9091500000000001 0.5409500000000000 0.1736000000000001
0.9091500000000001 0.5409500000000000 0.6736000000000002
0.0764000000000000 0.2090500000000000 0.1591500000000000
0.0764000000000000 0.2090500000000001 0.6591500000000000
0.0764000000000000 0.7090500000000001 0.1591500000000000
0.0764000000000000 0.7090500000000001 0.6591500000000000
0.5764000000000000 0.2090500000000000 0.1591500000000000
0.5764000000000000 0.2090500000000001 0.6591500000000000
0.5764000000000000 0.7090500000000001 0.1591500000000000
0.5764000000000000 0.7090500000000001 0.6591500000000000
0.3264000000000000 0.4590500000000001 0.4091500000000000
0.3264000000000000 0.4590500000000001 0.9091500000000001
0.3264000000000000 0.9590500000000002 0.4091500000000000
0.3264000000000000 0.9590500000000001 0.9091500000000001
0.8264000000000000 0.4590500000000001 0.4091500000000000
0.8264000000000000 0.4590500000000001 0.9091500000000001
0.8264000000000000 0.9590500000000002 0.4091500000000000
0.8264000000000000 0.9590500000000001 0.9091500000000001
0.1591500000000000 0.4236000000000000 0.2909499999999999
0.1591500000000000 0.4236000000000000 0.7909499999999999
0.1591500000000000 0.9236000000000000 0.2909499999999999
0.1591500000000000 0.9236000000000000 0.7909499999999999
0.6591500000000000 0.4236000000000000 0.2909499999999999
0.6591500000000000 0.4236000000000000 0.7909499999999999
0.6591500000000000 0.9236000000000000 0.2909499999999999
0.6591500000000000 0.9236000000000000 0.7909499999999999
0.4091500000000000 0.1736000000000001 0.0409500000000000
0.4091500000000000 0.1736000000000001 0.5409500000000000
0.4091500000000000 0.6736000000000002 0.0409500000000000
0.4091500000000000 0.6736000000000002 0.5409500000000000
0.9091500000000001 0.1736000000000001 0.0409500000000000
0.9091500000000001 0.1736000000000001 0.5409500000000000
0.9091500000000001 0.6736000000000002 0.0409500000000000
0.9091500000000001 0.6736000000000002 0.5409500000000000
0.2909499999999999 0.3408500000000000 0.0764000000000000
0.2909499999999999 0.3408500000000000 0.5764000000000000
0.2909499999999999 0.8408500000000000 0.0764000000000000
0.2909499999999999 0.8408500000000000 0.5764000000000000
0.7909499999999999 0.3408500000000000 0.0764000000000000
0.7909499999999999 0.3408500000000000 0.5764000000000000
0.7909499999999999 0.8408500000000000 0.0764000000000000
0.7909499999999999 0.8408500000000000 0.5764000000000000
0.0409500000000000 0.0908500000000000 0.3264000000000000
0.0409500000000000 0.0908500000000000 0.8264000000000000
0.0409500000000000 0.5908500000000000 0.3264000000000000
0.0409500000000000 0.5908500000000000 0.8264000000000000
0.5409500000000000 0.0908500000000000 0.3264000000000000
0.5409500000000000 0.0908500000000000 0.8264000000000000
0.5409500000000000 0.5908500000000000 0.3264000000000000
0.5409500000000000 0.5908500000000000 0.8264000000000000
0.0764000000000000 0.3408500000000000 0.2909499999999999
0.0764000000000000 0.3408500000000000 0.7909499999999999
0.0764000000000000 0.8408500000000000 0.2909499999999999
0.0764000000000000 0.8408500000000000 0.7909499999999999
0.5764000000000000 0.3408500000000000 0.2909499999999999
0.5764000000000000 0.3408500000000000 0.7909499999999999
0.5764000000000000 0.8408500000000000 0.2909499999999999
0.5764000000000000 0.8408500000000000 0.7909499999999999
0.3264000000000000 0.0908500000000000 0.0409500000000000
0.3264000000000000 0.0908500000000000 0.5409500000000000
0.3264000000000000 0.5908500000000000 0.0409500000000000
0.3264000000000000 0.5908500000000000 0.5409500000000000
0.8264000000000000 0.0908500000000000 0.0409500000000000
0.8264000000000000 0.0908500000000000 0.5409500000000000
0.8264000000000000 0.5908500000000000 0.0409500000000000
0.8264000000000000 0.5908500000000000 0.5409500000000000
0.3408500000000000 0.4236000000000000 0.2090500000000000
0.3408500000000000 0.4236000000000000 0.7090500000000001
0.3408500000000000 0.9236000000000000 0.2090500000000000
0.3408500000000000 0.9236000000000000 0.7090500000000001
0.8408500000000000 0.4236000000000000 0.2090500000000000
0.8408500000000000 0.4236000000000000 0.7090500000000001
0.8408500000000000 0.9236000000000000 0.2090500000000000
0.8408500000000000 0.9236000000000000 0.7090500000000001
0.0908500000000000 0.1736000000000001 0.4590500000000001
0.0908500000000000 0.1736000000000001 0.9590500000000002
0.0908500000000000 0.6736000000000002 0.4590500000000001
0.0908500000000000 0.6736000000000002 0.9590500000000002
0.5908500000000000 0.1736000000000001 0.4590500000000001
0.5908500000000000 0.1736000000000001 0.9590500000000002
0.5908500000000000 0.6736000000000002 0.4590500000000001
0.5908500000000000 0.6736000000000002 0.9590500000000002
0.2090500000000000 0.3408500000000000 0.4236000000000000
0.2090500000000000 0.3408500000000000 0.9236000000000000
0.2090500000000000 0.8408500000000000 0.4236000000000000
0.2090500000000000 0.8408500000000000 0.9236000000000000
0.7090500000000001 0.3408500000000000 0.4236000000000000
0.7090500000000001 0.3408500000000000 0.9236000000000000
0.7090500000000001 0.8408500000000000 0.4236000000000000
0.7090500000000001 0.8408500000000000 0.9236000000000000
0.4590500000000001 0.0908500000000000 0.1736000000000001
0.4590500000000001 0.0908500000000000 0.6736000000000002
0.4590500000000001 0.5908500000000000 0.1736000000000001
0.4590500000000001 0.5908500000000000 0.6736000000000002
0.9590500000000002 0.0908500000000000 0.1736000000000001
0.9590500000000002 0.0908500000000000 0.6736000000000002
0.9590500000000002 0.5908500000000000 0.1736000000000001
0.9590500000000002 0.5908500000000000 0.6736000000000002
0.4236000000000000 0.2090500000000000 0.3408500000000000
0.4236000000000000 0.2090500000000000 0.8408500000000000
0.4236000000000000 0.7090500000000001 0.3408500000000000
0.4236000000000000 0.7090500000000001 0.8408500000000000
0.9236000000000000 0.2090500000000000 0.3408500000000000
0.9236000000000000 0.2090500000000000 0.8408500000000000
0.9236000000000000 0.7090500000000001 0.3408500000000000
0.9236000000000000 0.7090500000000001 0.8408500000000000
0.1736000000000001 0.4590500000000001 0.0908500000000000
0.1736000000000001 0.4590500000000001 0.5908500000000000
0.1736000000000001 0.9590500000000002 0.0908500000000000
0.1736000000000001 0.9590500000000002 0.5908500000000000
0.6736000000000002 0.4590500000000001 0.0908500000000000
0.6736000000000002 0.4590500000000001 0.5908500000000000
0.6736000000000002 0.9590500000000002 0.0908500000000000
0.6736000000000002 0.9590500000000002 0.5908500000000000
0.4236000000000000 0.1591500000000000 0.2909499999999999
0.4236000000000000 0.1591500000000000 0.7909499999999999
0.4236000000000000 0.6591500000000000 0.2909499999999999
0.4236000000000000 0.6591500000000000 0.7909499999999999
0.9236000000000000 0.1591500000000000 0.2909499999999999
0.9236000000000000 0.1591500000000000 0.7909499999999999
0.9236000000000000 0.6591500000000000 0.2909499999999999
0.9236000000000000 0.6591500000000000 0.7909499999999999
0.1736000000000001 0.4091500000000000 0.0409500000000000
0.1736000000000001 0.4091500000000000 0.5409500000000000
0.1736000000000001 0.9091500000000001 0.0409500000000000
0.1736000000000001 0.9091500000000001 0.5409500000000000
0.6736000000000002 0.4091500000000000 0.0409500000000000
0.6736000000000002 0.4091500000000000 0.5409500000000000
0.6736000000000002 0.9091500000000001 0.0409500000000000
0.6736000000000002 0.9091500000000001 0.5409500000000000
0.0764000000000000 0.2909499999999999 0.3408500000000000
0.0764000000000000 0.2909499999999999 0.8408500000000000
0.0764000000000000 0.7909499999999999 0.3408500000000000
0.0764000000000000 0.7909499999999999 0.8408500000000000
0.5764000000000000 0.2909499999999999 0.3408500000000000
0.5764000000000000 0.2909499999999999 0.8408500000000000
0.5764000000000000 0.7909499999999999 0.3408500000000000
0.5764000000000000 0.7909499999999999 0.8408500000000000
0.3264000000000000 0.0409500000000000 0.0908500000000000
0.3264000000000000 0.0409500000000000 0.5908500000000000
0.3264000000000000 0.5409500000000000 0.0908500000000000
0.3264000000000000 0.5409500000000000 0.5908500000000000
0.8264000000000000 0.0409500000000000 0.0908500000000000
0.8264000000000000 0.0409500000000000 0.5908500000000000
0.8264000000000000 0.5409500000000000 0.0908500000000000
0.8264000000000000 0.5409500000000000 0.5908500000000000
0.1591500000000000 0.0764000000000000 0.2090500000000000
0.1591500000000000 0.0764000000000000 0.7090500000000001
0.1591500000000000 0.5764000000000000 0.2090500000000000
0.1591500000000000 0.5764000000000000 0.7090500000000001
0.6591500000000000 0.0764000000000000 0.2090500000000000
0.6591500000000000 0.0764000000000000 0.7090500000000001
0.6591500000000000 0.5764000000000000 0.2090500000000000
0.6591500000000000 0.5764000000000000 0.7090500000000001
0.4091500000000000 0.3264000000000000 0.4590500000000001
0.4091500000000000 0.3264000000000000 0.9590500000000002
0.4091500000000000 0.8264000000000000 0.4590500000000001
0.4091500000000000 0.8264000000000000 0.9590500000000002
0.9091500000000001 0.3264000000000000 0.4590500000000001
0.9091500000000001 0.3264000000000000 0.9590500000000002
0.9091500000000001 0.8264000000000000 0.4590500000000001
0.9091500000000001 0.8264000000000000 0.9590500000000002
0.2909499999999999 0.1591500000000000 0.4236000000000000
0.2909499999999999 0.1591500000000000 0.9236000000000000
0.2909499999999999 0.6591500000000000 0.4236000000000000
0.2909499999999999 0.6591500000000000 0.9236000000000000
0.7909499999999999 0.1591500000000000 0.4236000000000000
0.7909499999999999 0.1591500000000000 0.9236000000000000
0.7909499999999999 0.6591500000000000 0.4236000000000000
0.7909499999999999 0.6591500000000000 0.9236000000000000
0.0409500000000000 0.4091500000000000 0.1736000000000001
0.0409500000000000 0.4091500000000000 0.6736000000000002
0.0409500000000000 0.9091500000000001 0.1736000000000001
0.0409500000000000 0.9091500000000001 0.6736000000000002
0.5409500000000000 0.4091500000000000 0.1736000000000001
0.5409500000000000 0.4091500000000000 0.6736000000000002
0.5409500000000000 0.9091500000000001 0.1736000000000001
0.5409500000000000 0.9091500000000001 0.6736000000000002
0.2090500000000000 0.0764000000000000 0.1591500000000000
0.2090500000000001 0.0764000000000000 0.6591500000000000
0.2090500000000000 0.5764000000000000 0.1591500000000000
0.2090500000000001 0.5764000000000000 0.6591500000000000
0.7090500000000001 0.0764000000000000 0.1591500000000000
0.7090500000000001 0.0764000000000000 0.6591500000000000
0.7090500000000001 0.5764000000000000 0.1591500000000000
0.7090500000000001 0.5764000000000000 0.6591500000000000
0.4590500000000001 0.3264000000000000 0.4091500000000000
0.4590500000000001 0.3264000000000000 0.9091500000000001
0.4590500000000001 0.8264000000000000 0.4091500000000000
0.4590500000000001 0.8264000000000000 0.9091500000000001
0.9590500000000002 0.3264000000000000 0.4091500000000000
0.9590500000000001 0.3264000000000000 0.9091500000000001
0.9590500000000002 0.8264000000000000 0.4091500000000000
0.9590500000000001 0.8264000000000000 0.9091500000000001
0.3408500000000000 0.2909499999999999 0.0764000000000000
0.3408500000000000 0.2909499999999999 0.5764000000000000
0.3408500000000000 0.7909499999999999 0.0764000000000000
0.3408500000000000 0.7909499999999999 0.5764000000000000
0.8408500000000000 0.2909499999999999 0.0764000000000000
0.8408500000000000 0.2909499999999999 0.5764000000000000
0.8408500000000000 0.7909499999999999 0.0764000000000000
0.8408500000000000 0.7909499999999999 0.5764000000000000
0.0908500000000000 0.0409500000000000 0.3264000000000000
0.0908500000000000 0.0409500000000000 0.8264000000000000
0.0908500000000000 0.5409500000000000 0.3264000000000000
0.0908500000000000 0.5409500000000000 0.8264000000000000
0.5908500000000000 0.0409500000000000 0.3264000000000000
0.5908500000000000 0.0409500000000000 0.8264000000000000
0.5908500000000000 0.5409500000000000 0.3264000000000000
0.5908500000000000 0.5409500000000000 0.8264000000000000
0.2021500000000000 0.0584000000000000 0.2978500000000000
0.2021500000000000 0.0584000000000000 0.7978499999999999
0.2021500000000000 0.5584000000000000 0.2978500000000000
0.2021500000000000 0.5584000000000000 0.7978499999999999
0.7021500000000001 0.0584000000000000 0.2978500000000000
0.7021500000000001 0.0584000000000000 0.7978499999999999
0.7021500000000001 0.5584000000000000 0.2978500000000000
0.7021500000000001 0.5584000000000000 0.7978499999999999
0.4521500000000002 0.3084000000000001 0.0478499999999999
0.4521500000000002 0.3084000000000001 0.5478500000000001
0.4521500000000002 0.8084000000000001 0.0478499999999999
0.4521500000000002 0.8084000000000001 0.5478500000000001
0.9521500000000003 0.3084000000000001 0.0478499999999999
0.9521500000000003 0.3084000000000001 0.5478500000000001
0.9521500000000003 0.8084000000000001 0.0478499999999999
0.9521500000000003 0.8084000000000001 0.5478500000000001
0.0584000000000000 0.2978500000000000 0.2021500000000000
0.0584000000000000 0.2978500000000000 0.7021500000000001
0.0584000000000000 0.7978499999999999 0.2021500000000000
0.0584000000000000 0.7978499999999999 0.7021500000000001
0.5584000000000000 0.2978500000000000 0.2021500000000000
0.5584000000000000 0.2978500000000000 0.7021500000000001
0.5584000000000000 0.7978499999999999 0.2021500000000000
0.5584000000000000 0.7978499999999999 0.7021500000000001
0.3084000000000002 0.0478499999999999 0.4521500000000002
0.3084000000000001 0.0478500000000000 0.9521500000000003
0.3084000000000002 0.5478500000000001 0.4521500000000002
0.3084000000000001 0.5478499999999999 0.9521500000000003
0.8084000000000001 0.0478499999999999 0.4521500000000002
0.8084000000000001 0.0478500000000000 0.9521500000000003
0.8084000000000001 0.5478500000000001 0.4521500000000002
0.8084000000000001 0.5478499999999999 0.9521500000000003
0.2978500000000001 0.4416000000000000 0.2978500000000000
0.2978500000000001 0.4416000000000000 0.7978499999999999
0.2978500000000000 0.9416000000000001 0.2978500000000000
0.2978500000000000 0.9416000000000001 0.7978499999999999
0.7978499999999999 0.4416000000000000 0.2978500000000000
0.7978499999999999 0.4416000000000000 0.7978499999999999
0.7978499999999999 0.9416000000000001 0.2978500000000000
0.7978499999999999 0.9416000000000001 0.7978499999999999
0.0478499999999999 0.1916000000000000 0.0478500000000000
0.0478499999999999 0.1916000000000000 0.5478500000000001
0.0478500000000000 0.6916000000000001 0.0478500000000000
0.0478500000000000 0.6916000000000001 0.5478500000000001
0.5478500000000001 0.1916000000000000 0.0478500000000000
0.5478500000000001 0.1916000000000000 0.5478500000000001
0.5478500000000001 0.6916000000000001 0.0478500000000000
0.5478500000000001 0.6916000000000001 0.5478500000000001
0.2021500000000000 0.2021500000000000 0.4416000000000000
0.2021500000000000 0.2021500000000000 0.9416000000000001
0.2021500000000000 0.7021500000000001 0.4416000000000000
0.2021500000000000 0.7021500000000001 0.9416000000000001
0.7021500000000001 0.2021500000000000 0.4416000000000000
0.7021500000000001 0.2021500000000000 0.9416000000000001
0.7021500000000001 0.7021500000000001 0.4416000000000000
0.7021500000000001 0.7021500000000001 0.9416000000000001
0.4521500000000003 0.4521500000000002 0.1916000000000000
0.4521500000000002 0.4521500000000002 0.6916000000000001
0.4521500000000002 0.9521500000000003 0.1916000000000000
0.4521500000000002 0.9521500000000003 0.6916000000000001
0.9521500000000003 0.4521500000000002 0.1916000000000000
0.9521500000000003 0.4521500000000002 0.6916000000000001
0.9521500000000002 0.9521500000000003 0.1916000000000000
0.9521500000000002 0.9521500000000003 0.6916000000000001
0.2978500000000000 0.0584000000000000 0.2021500000000000
0.2978500000000000 0.0584000000000000 0.7021500000000001
0.2978500000000000 0.5584000000000000 0.2021500000000000
0.2978500000000000 0.5584000000000000 0.7021500000000001
0.7978499999999999 0.0584000000000000 0.2021500000000000
0.7978499999999999 0.0584000000000000 0.7021500000000001
0.7978499999999999 0.5584000000000000 0.2021500000000000
0.7978499999999999 0.5584000000000000 0.7021500000000001
0.4416000000000000 0.2021500000000000 0.2021500000000000
0.4416000000000000 0.2021500000000000 0.7021500000000001
0.4416000000000000 0.7021500000000001 0.2021500000000000
0.4416000000000000 0.7021500000000001 0.7021500000000001
0.9416000000000001 0.2021500000000000 0.2021500000000000
0.9416000000000001 0.2021500000000000 0.7021500000000001
0.9416000000000001 0.7021500000000001 0.2021500000000000
0.9416000000000001 0.7021500000000001 0.7021500000000001
0.2021500000000000 0.2978500000000000 0.0584000000000000
0.2021500000000000 0.2978500000000000 0.5584000000000000
0.2021500000000000 0.7978499999999999 0.0584000000000000
0.2021500000000000 0.7978499999999999 0.5584000000000000
0.7021500000000001 0.2978500000000000 0.0584000000000000
0.7021500000000001 0.2978500000000000 0.5584000000000000
0.7021500000000001 0.7978499999999999 0.0584000000000000
0.7021500000000001 0.7978499999999999 0.5584000000000000
0.2978500000000001 0.2978500000000001 0.4416000000000000
0.2978500000000000 0.2978500000000000 0.9416000000000001
0.2978500000000001 0.7978499999999999 0.4416000000000000
0.2978500000000000 0.7978499999999999 0.9416000000000001
0.7978499999999999 0.2978500000000001 0.4416000000000000
0.7978499999999999 0.2978500000000000 0.9416000000000001
0.7978499999999999 0.7978499999999999 0.4416000000000000
0.7978499999999999 0.7978499999999999 0.9416000000000001
0.0478500000000000 0.0478499999999999 0.1916000000000000
0.0478500000000000 0.0478500000000000 0.6916000000000001
0.0478500000000000 0.5478500000000001 0.1916000000000000
0.0478500000000000 0.5478500000000001 0.6916000000000001
0.5478500000000001 0.0478499999999999 0.1916000000000000
0.5478500000000001 0.0478500000000000 0.6916000000000001
0.5478500000000001 0.5478500000000001 0.1916000000000000
0.5478500000000001 0.5478500000000001 0.6916000000000001
0.4416000000000000 0.2978500000000000 0.2978500000000000
0.4416000000000000 0.2978500000000000 0.7978499999999999
0.4416000000000000 0.7978499999999999 0.2978500000000000
0.4416000000000000 0.7978499999999999 0.7978499999999999
0.9416000000000001 0.2978500000000000 0.2978500000000000
0.9416000000000001 0.2978500000000000 0.7978499999999999
0.9416000000000001 0.7978499999999999 0.2978500000000000
0.9416000000000001 0.7978499999999999 0.7978499999999999
0.1916000000000000 0.0478499999999999 0.0478500000000000
0.1916000000000000 0.0478499999999999 0.5478500000000001
0.1916000000000000 0.5478500000000001 0.0478500000000000
0.1916000000000000 0.5478500000000001 0.5478500000000001
0.6916000000000001 0.0478499999999999 0.0478500000000000
0.6916000000000001 0.0478499999999999 0.5478500000000001
0.6916000000000001 0.5478500000000001 0.0478500000000000
0.6916000000000001 0.5478500000000001 0.5478500000000001
0.3084000000000002 0.4521500000000002 0.0478499999999999
0.3084000000000002 0.4521500000000002 0.5478500000000001
0.3084000000000001 0.9521500000000003 0.0478499999999999
0.3084000000000001 0.9521500000000003 0.5478500000000001
0.8084000000000001 0.4521500000000002 0.0478499999999999
0.8084000000000001 0.4521500000000002 0.5478500000000001
0.8084000000000001 0.9521500000000003 0.0478499999999999
0.8084000000000001 0.9521500000000003 0.5478500000000001
0.2021500000000000 0.4416000000000000 0.2021500000000000
0.2021500000000000 0.4416000000000000 0.7021500000000001
0.2021500000000000 0.9416000000000001 0.2021500000000000
0.2021500000000000 0.9416000000000001 0.7021500000000001
0.7021500000000001 0.4416000000000000 0.2021500000000000
0.7021500000000001 0.4416000000000000 0.7021500000000001
0.7021500000000001 0.9416000000000001 0.2021500000000000
0.7021500000000001 0.9416000000000001 0.7021500000000001
0.4521500000000003 0.1916000000000000 0.4521500000000002
0.4521500000000002 0.1916000000000000 0.9521500000000003
0.4521500000000002 0.6916000000000001 0.4521500000000002
0.4521500000000002 0.6916000000000001 0.9521500000000003
0.9521500000000003 0.1916000000000000 0.4521500000000002
0.9521500000000002 0.1916000000000000 0.9521500000000003
0.9521500000000003 0.6916000000000001 0.4521500000000002
0.9521500000000002 0.6916000000000001 0.9521500000000003
0.1579000000000000 0.0593000000000000 0.3098000000000000
0.1579000000000000 0.0593000000000000 0.8098000000000001
0.1579000000000000 0.5593000000000001 0.3098000000000000
0.1579000000000000 0.5593000000000001 0.8098000000000001
0.6579000000000000 0.0593000000000000 0.3098000000000000
0.6579000000000000 0.0593000000000000 0.8098000000000001
0.6579000000000000 0.5593000000000001 0.3098000000000000
0.6579000000000000 0.5593000000000001 0.8098000000000001
0.4079000000000002 0.3093000000000000 0.0598000000000001
0.4079000000000002 0.3093000000000000 0.5598000000000001
0.4079000000000002 0.8093000000000000 0.0598000000000001
0.4079000000000002 0.8093000000000000 0.5598000000000001
0.9079000000000002 0.3093000000000000 0.0598000000000001
0.9079000000000002 0.3093000000000000 0.5598000000000001
0.9079000000000002 0.8093000000000000 0.0598000000000001
0.9079000000000002 0.8093000000000000 0.5598000000000001
0.0593000000000000 0.3098000000000000 0.1579000000000000
0.0593000000000000 0.3098000000000000 0.6579000000000000
0.0593000000000000 0.8098000000000001 0.1579000000000000
0.0593000000000000 0.8098000000000001 0.6579000000000000
0.5593000000000001 0.3098000000000000 0.1579000000000000
0.5593000000000001 0.3098000000000000 0.6579000000000000
0.5593000000000001 0.8098000000000001 0.1579000000000000
0.5593000000000001 0.8098000000000001 0.6579000000000000
0.3093000000000000 0.0598000000000001 0.4079000000000002
0.3093000000000000 0.0598000000000001 0.9079000000000002
0.3093000000000000 0.5598000000000001 0.4079000000000002
0.3093000000000000 0.5598000000000001 0.9079000000000002
0.8093000000000000 0.0598000000000001 0.4079000000000002
0.8093000000000000 0.0598000000000001 0.9079000000000002
0.8093000000000000 0.5598000000000001 0.4079000000000002
0.8093000000000000 0.5598000000000001 0.9079000000000002
0.0593000000000000 0.3421000000000000 0.1902000000000000
0.0593000000000000 0.3421000000000000 0.6902000000000000
0.0593000000000000 0.8421000000000001 0.1902000000000000
0.0593000000000000 0.8421000000000001 0.6902000000000000
0.5593000000000001 0.3421000000000000 0.1902000000000000
0.5593000000000001 0.3421000000000000 0.6902000000000000
0.5593000000000001 0.8421000000000001 0.1902000000000000
0.5593000000000001 0.8421000000000001 0.6902000000000000
0.3093000000000001 0.0921000000000000 0.4402000000000002
0.3093000000000000 0.0921000000000000 0.9402000000000003
0.3093000000000001 0.5921000000000001 0.4402000000000002
0.3093000000000000 0.5921000000000001 0.9402000000000003
0.8093000000000000 0.0921000000000000 0.4402000000000002
0.8093000000000000 0.0921000000000000 0.9402000000000003
0.8093000000000000 0.5921000000000001 0.4402000000000002
0.8093000000000000 0.5921000000000001 0.9402000000000003
0.3098000000000001 0.4407000000000001 0.3421000000000000
0.3098000000000001 0.4407000000000001 0.8421000000000001
0.3098000000000000 0.9407000000000001 0.3421000000000000
0.3098000000000000 0.9407000000000001 0.8421000000000001
0.8098000000000001 0.4407000000000001 0.3421000000000000
0.8098000000000001 0.4407000000000001 0.8421000000000001
0.8098000000000001 0.9407000000000001 0.3421000000000000
0.8098000000000001 0.9407000000000001 0.8421000000000001
0.0598000000000001 0.1907000000000001 0.0921000000000000
0.0598000000000001 0.1907000000000001 0.5921000000000001
0.0598000000000001 0.6907000000000001 0.0921000000000000
0.0598000000000001 0.6907000000000001 0.5921000000000001
0.5598000000000001 0.1907000000000001 0.0921000000000000
0.5598000000000001 0.1907000000000001 0.5921000000000001
0.5598000000000001 0.6907000000000001 0.0921000000000000
0.5598000000000001 0.6907000000000001 0.5921000000000001
0.1579000000000000 0.1902000000000000 0.4407000000000001
0.1579000000000000 0.1902000000000000 0.9407000000000001
0.1579000000000000 0.6902000000000000 0.4407000000000001
0.1579000000000000 0.6901999999999999 0.9407000000000001
0.6579000000000000 0.1902000000000000 0.4407000000000001
0.6579000000000000 0.1902000000000000 0.9407000000000001
0.6579000000000000 0.6902000000000000 0.4407000000000001
0.6579000000000000 0.6901999999999999 0.9407000000000001
0.4079000000000003 0.4402000000000002 0.1907000000000001
0.4079000000000003 0.4402000000000002 0.6907000000000001
0.4079000000000002 0.9402000000000003 0.1907000000000001
0.4079000000000002 0.9402000000000003 0.6907000000000001
0.9079000000000002 0.4402000000000002 0.1907000000000001
0.9079000000000002 0.4402000000000002 0.6907000000000001
0.9079000000000002 0.9402000000000003 0.1907000000000001
0.9079000000000002 0.9402000000000003 0.6907000000000001
0.3421000000000000 0.4407000000000001 0.3098000000000000
0.3421000000000000 0.4407000000000001 0.8098000000000001
0.3421000000000000 0.9407000000000001 0.3098000000000000
0.3421000000000000 0.9407000000000001 0.8098000000000001
0.8421000000000001 0.4407000000000001 0.3098000000000000
0.8421000000000001 0.4407000000000001 0.8098000000000001
0.8421000000000001 0.9407000000000001 0.3098000000000000
0.8421000000000001 0.9407000000000001 0.8098000000000001
0.0921000000000000 0.1907000000000001 0.0598000000000001
0.0921000000000000 0.1907000000000001 0.5598000000000001
0.0921000000000000 0.6907000000000001 0.0598000000000001
0.0921000000000000 0.6907000000000001 0.5598000000000001
0.5921000000000001 0.1907000000000001 0.0598000000000001
0.5921000000000001 0.1907000000000001 0.5598000000000001
0.5921000000000001 0.6907000000000001 0.0598000000000001
0.5921000000000001 0.6907000000000001 0.5598000000000001
0.1902000000000000 0.1579000000000000 0.4407000000000001
0.1902000000000000 0.1579000000000000 0.9407000000000001
0.1902000000000000 0.6579000000000000 0.4407000000000001
0.1902000000000000 0.6579000000000000 0.9407000000000001
0.6902000000000000 0.1579000000000000 0.4407000000000001
0.6901999999999999 0.1579000000000000 0.9407000000000001
0.6902000000000000 0.6579000000000000 0.4407000000000001
0.6901999999999999 0.6579000000000000 0.9407000000000001
0.4402000000000002 0.4079000000000002 0.1907000000000001
0.4402000000000002 0.4079000000000002 0.6907000000000001
0.4402000000000002 0.9079000000000002 0.1907000000000001
0.4402000000000001 0.9079000000000002 0.6907000000000001
0.9402000000000003 0.4079000000000002 0.1907000000000001
0.9402000000000003 0.4079000000000002 0.6907000000000001
0.9402000000000001 0.9079000000000002 0.1907000000000001
0.9402000000000001 0.9079000000000002 0.6907000000000001
0.3421000000000000 0.0593000000000000 0.1902000000000000
0.3421000000000000 0.0593000000000000 0.6902000000000000
0.3421000000000000 0.5593000000000001 0.1902000000000000
0.3421000000000000 0.5593000000000001 0.6902000000000000
0.8421000000000001 0.0593000000000000 0.1902000000000000
0.8421000000000001 0.0593000000000000 0.6902000000000000
0.8421000000000001 0.5593000000000001 0.1902000000000000
0.8421000000000001 0.5593000000000001 0.6902000000000000
0.4407000000000001 0.1902000000000000 0.1579000000000000
0.4407000000000001 0.1902000000000000 0.6579000000000000
0.4407000000000001 0.6902000000000000 0.1579000000000000
0.4407000000000001 0.6902000000000000 0.6579000000000000
0.9407000000000001 0.1902000000000000 0.1579000000000000
0.9407000000000001 0.1902000000000000 0.6579000000000000
0.9407000000000001 0.6902000000000000 0.1579000000000000
0.9407000000000001 0.6902000000000000 0.6579000000000000
0.1902000000000000 0.3421000000000000 0.0593000000000000
0.1902000000000000 0.3421000000000000 0.5593000000000001
0.1902000000000000 0.8421000000000001 0.0593000000000000
0.1902000000000000 0.8421000000000001 0.5593000000000001
0.6902000000000000 0.3421000000000000 0.0593000000000000
0.6902000000000000 0.3421000000000000 0.5593000000000001
0.6902000000000000 0.8421000000000001 0.0593000000000000
0.6902000000000000 0.8421000000000001 0.5593000000000001
0.4407000000000001 0.1579000000000000 0.1902000000000000
0.4407000000000001 0.1579000000000000 0.6902000000000000
0.4407000000000001 0.6579000000000000 0.1902000000000000
0.4407000000000001 0.6579000000000000 0.6902000000000000
0.9407000000000001 0.1579000000000000 0.1902000000000000
0.9407000000000001 0.1579000000000000 0.6902000000000000
0.9407000000000001 0.6579000000000000 0.1902000000000000
0.9407000000000001 0.6579000000000000 0.6902000000000000
0.1902000000000000 0.0593000000000000 0.3421000000000000
0.1902000000000000 0.0593000000000000 0.8421000000000001
0.1902000000000000 0.5593000000000001 0.3421000000000000
0.1902000000000000 0.5593000000000001 0.8421000000000001
0.6902000000000000 0.0593000000000000 0.3421000000000000
0.6902000000000000 0.0593000000000000 0.8421000000000001
0.6902000000000000 0.5593000000000001 0.3421000000000000
0.6902000000000000 0.5593000000000001 0.8421000000000001
0.4402000000000002 0.3093000000000000 0.0921000000000000
0.4402000000000002 0.3093000000000000 0.5921000000000001
0.4402000000000002 0.8093000000000000 0.0921000000000000
0.4402000000000001 0.8093000000000000 0.5921000000000001
0.9402000000000003 0.3093000000000000 0.0921000000000000
0.9402000000000003 0.3093000000000000 0.5921000000000001
0.9402000000000003 0.8093000000000000 0.0921000000000000
0.9402000000000003 0.8093000000000000 0.5921000000000001
0.3421000000000000 0.3098000000000001 0.4407000000000001
0.3421000000000000 0.3098000000000000 0.9407000000000001
0.3421000000000000 0.8098000000000001 0.4407000000000001
0.3421000000000000 0.8098000000000001 0.9407000000000001
0.8421000000000001 0.3098000000000001 0.4407000000000001
0.8421000000000001 0.3098000000000000 0.9407000000000001
0.8421000000000001 0.8098000000000001 0.4407000000000001
0.8421000000000001 0.8098000000000001 0.9407000000000001
0.0921000000000000 0.0598000000000001 0.1907000000000001
0.0921000000000000 0.0598000000000001 0.6907000000000001
0.0921000000000000 0.5598000000000001 0.1907000000000001
0.0921000000000000 0.5598000000000001 0.6907000000000001
0.5921000000000001 0.0598000000000001 0.1907000000000001
0.5921000000000001 0.0598000000000001 0.6907000000000001
0.5921000000000001 0.5598000000000001 0.1907000000000001
0.5921000000000001 0.5598000000000001 0.6907000000000001
0.4407000000000001 0.3098000000000000 0.3421000000000000
0.4407000000000001 0.3098000000000000 0.8421000000000001
0.4407000000000001 0.8098000000000001 0.3421000000000000
0.4407000000000001 0.8098000000000001 0.8421000000000001
0.9407000000000001 0.3098000000000000 0.3421000000000000
0.9407000000000001 0.3098000000000000 0.8421000000000001
0.9407000000000001 0.8098000000000001 0.3421000000000000
0.9407000000000001 0.8098000000000001 0.8421000000000001
0.1907000000000001 0.0598000000000001 0.0921000000000000
0.1907000000000001 0.0598000000000001 0.5921000000000001
0.1907000000000001 0.5598000000000001 0.0921000000000000
0.1907000000000001 0.5598000000000001 0.5921000000000001
0.6907000000000001 0.0598000000000001 0.0921000000000000
0.6907000000000001 0.0598000000000001 0.5921000000000001
0.6907000000000001 0.5598000000000001 0.0921000000000000
0.6907000000000001 0.5598000000000001 0.5921000000000001
0.3098000000000000 0.0593000000000000 0.1579000000000000
0.3098000000000000 0.0593000000000000 0.6579000000000000
0.3098000000000000 0.5593000000000001 0.1579000000000000
0.3098000000000000 0.5593000000000001 0.6579000000000000
0.8098000000000001 0.0593000000000000 0.1579000000000000
0.8098000000000001 0.0593000000000000 0.6579000000000000
0.8098000000000001 0.5593000000000001 0.1579000000000000
0.8098000000000001 0.5593000000000001 0.6579000000000000
0.1579000000000000 0.3098000000000000 0.0593000000000000
0.1579000000000000 0.3098000000000000 0.5593000000000001
0.1579000000000000 0.8098000000000001 0.0593000000000000
0.1579000000000000 0.8098000000000001 0.5593000000000001
0.6579000000000000 0.3098000000000000 0.0593000000000000
0.6579000000000000 0.3098000000000000 0.5593000000000001
0.6579000000000000 0.8098000000000001 0.0593000000000000
0.6579000000000000 0.8098000000000001 0.5593000000000001
0.3093000000000000 0.4079000000000002 0.0598000000000001
0.3093000000000000 0.4079000000000002 0.5598000000000001
0.3093000000000000 0.9079000000000002 0.0598000000000001
0.3093000000000000 0.9079000000000002 0.5598000000000001
0.8093000000000000 0.4079000000000002 0.0598000000000001
0.8093000000000000 0.4079000000000002 0.5598000000000001
0.8093000000000000 0.9079000000000002 0.0598000000000001
0.8093000000000000 0.9079000000000002 0.5598000000000001
0.3093000000000001 0.4402000000000002 0.0921000000000000
0.3093000000000001 0.4402000000000002 0.5921000000000001
0.3093000000000000 0.9402000000000003 0.0921000000000000
0.3093000000000000 0.9402000000000003 0.5921000000000001
0.8093000000000000 0.4402000000000002 0.0921000000000000
0.8093000000000000 0.4402000000000002 0.5921000000000001
0.8093000000000000 0.9402000000000003 0.0921000000000000
0.8093000000000000 0.9402000000000003 0.5921000000000001
0.4407000000000001 0.3421000000000000 0.3098000000000000
0.4407000000000001 0.3421000000000000 0.8098000000000001
0.4407000000000001 0.8421000000000001 0.3098000000000000
0.4407000000000001 0.8421000000000001 0.8098000000000001
0.9407000000000001 0.3421000000000000 0.3098000000000000
0.9407000000000001 0.3421000000000000 0.8098000000000001
0.9407000000000001 0.8421000000000001 0.3098000000000000
0.9407000000000001 0.8421000000000001 0.8098000000000001
0.1907000000000001 0.0921000000000000 0.0598000000000001
0.1907000000000001 0.0921000000000000 0.5598000000000001
0.1907000000000001 0.5921000000000001 0.0598000000000001
0.1907000000000001 0.5921000000000001 0.5598000000000001
0.6907000000000001 0.0921000000000000 0.0598000000000001
0.6907000000000001 0.0921000000000000 0.5598000000000001
0.6907000000000001 0.5921000000000001 0.0598000000000001
0.6907000000000001 0.5921000000000001 0.5598000000000001
0.1902000000000000 0.4407000000000001 0.1579000000000000
0.1902000000000000 0.4407000000000001 0.6579000000000000
0.1902000000000000 0.9407000000000001 0.1579000000000000
0.1902000000000000 0.9407000000000001 0.6579000000000000
0.6902000000000000 0.4407000000000001 0.1579000000000000
0.6902000000000000 0.4407000000000001 0.6579000000000000
0.6901999999999999 0.9407000000000001 0.1579000000000000
0.6901999999999999 0.9407000000000001 0.6579000000000000
0.4402000000000002 0.1907000000000001 0.4079000000000002
0.4402000000000002 0.1907000000000001 0.9079000000000002
0.4402000000000002 0.6907000000000001 0.4079000000000002
0.4402000000000001 0.6907000000000001 0.9079000000000002
0.9402000000000003 0.1907000000000001 0.4079000000000002
0.9402000000000001 0.1907000000000001 0.9079000000000002
0.9402000000000003 0.6907000000000001 0.4079000000000002
0.9402000000000001 0.6907000000000001 0.9079000000000002
0.1579000000000000 0.4407000000000001 0.1902000000000000
0.1579000000000000 0.4407000000000001 0.6902000000000000
0.1579000000000000 0.9407000000000001 0.1902000000000000
0.1579000000000000 0.9407000000000001 0.6902000000000000
0.6579000000000000 0.4407000000000001 0.1902000000000000
0.6579000000000000 0.4407000000000001 0.6902000000000000
0.6579000000000000 0.9407000000000001 0.1902000000000000
0.6579000000000000 0.9407000000000001 0.6902000000000000
0.4079000000000003 0.1907000000000001 0.4402000000000002
0.4079000000000002 0.1907000000000001 0.9402000000000003
0.4079000000000003 0.6907000000000001 0.4402000000000002
0.4079000000000002 0.6907000000000001 0.9402000000000003
0.9079000000000002 0.1907000000000001 0.4402000000000002
0.9079000000000002 0.1907000000000001 0.9402000000000003
0.9079000000000002 0.6907000000000001 0.4402000000000002
0.9079000000000002 0.6907000000000001 0.9402000000000003
0.3098000000000001 0.3421000000000000 0.4407000000000001
0.3098000000000000 0.3421000000000000 0.9407000000000001
0.3098000000000001 0.8421000000000001 0.4407000000000001
0.3098000000000000 0.8421000000000001 0.9407000000000001
0.8098000000000001 0.3421000000000000 0.4407000000000001
0.8098000000000001 0.3421000000000000 0.9407000000000001
0.8098000000000001 0.8421000000000001 0.4407000000000001
0.8098000000000001 0.8421000000000001 0.9407000000000001
0.0598000000000001 0.0921000000000000 0.1907000000000001
0.0598000000000001 0.0921000000000000 0.6907000000000001
0.0598000000000001 0.5921000000000001 0.1907000000000001
0.0598000000000001 0.5921000000000001 0.6907000000000001
0.5598000000000001 0.0921000000000000 0.1907000000000001
0.5598000000000001 0.0921000000000000 0.6907000000000001
0.5598000000000001 0.5921000000000001 0.1907000000000001
0.5598000000000001 0.5921000000000001 0.6907000000000001
0.0700574672555536 0.4288289457053406 0.3049100290207196
0.0700574672555536 0.4288289457053406 0.8049100290207197
0.0700574672555536 0.9288289457053407 0.3049100290207196
0.0700574672555536 0.9288289457053407 0.8049100290207197
0.5700574672555536 0.4288289457053406 0.3049100290207196
0.5700574672555536 0.4288289457053406 0.8049100290207197
0.5700574672555536 0.9288289457053407 0.3049100290207196
0.5700574672555536 0.9288289457053407 0.8049100290207197
0.3138376661534286 0.1856308216978656 0.2911065633529186
0.3138376661534286 0.1856308216978656 0.7911065633529187
0.3138376661534286 0.6856308216978656 0.2911065633529186
0.3138376661534286 0.6856308216978656 0.7911065633529187
0.8138376661534286 0.1856308216978656 0.2911065633529186
0.8138376661534286 0.1856308216978656 0.7911065633529187
0.8138376661534286 0.6856308216978656 0.2911065633529186
0.8138376661534286 0.6856308216978656 0.7911065633529187
0.2911199952566878 0.1818611819878163 0.3218198372427740
0.2911199952566878 0.1818611819878163 0.8218198372427741
0.2911199952566878 0.6818611819878162 0.3218198372427740
0.2911199952566878 0.6818611819878162 0.8218198372427741
0.7911199952566880 0.1818611819878163 0.3218198372427740
0.7911199952566880 0.1818611819878163 0.8218198372427741
0.7911199952566880 0.6818611819878162 0.3218198372427740
0.7911199952566880 0.6818611819878162 0.8218198372427741
0.4299425327444463 0.0711710542946594 0.3049100290207196
0.4299425327444463 0.0711710542946594 0.8049100290207197
0.4299425327444463 0.5711710542946594 0.3049100290207196
0.4299425327444463 0.5711710542946594 0.8049100290207197
0.9299425327444464 0.0711710542946594 0.3049100290207196
0.9299425327444464 0.0711710542946594 0.8049100290207197
0.9299425327444464 0.5711710542946594 0.3049100290207196
0.9299425327444464 0.5711710542946594 0.8049100290207197
0.0711710542946591 0.3049100290207196 0.4299425327444457
0.0711710542946591 0.3049100290207196 0.9299425327444457
0.0711710542946591 0.8049100290207197 0.4299425327444457
0.0711710542946591 0.8049100290207197 0.9299425327444457
0.5711710542946591 0.3049100290207196 0.4299425327444457
0.5711710542946591 0.3049100290207196 0.9299425327444457
0.5711710542946591 0.8049100290207197 0.4299425327444457
0.5711710542946591 0.8049100290207197 0.9299425327444457
0.1950899709792805 0.4299425327444462 0.4288289457053407
0.1950899709792805 0.4299425327444461 0.9288289457053407
0.1950899709792805 0.9299425327444460 0.4288289457053407
0.1950899709792805 0.9299425327444460 0.9288289457053407
0.6950899709792806 0.4299425327444462 0.4288289457053407
0.6950899709792806 0.4299425327444461 0.9288289457053407
0.6950899709792806 0.9299425327444460 0.4288289457053407
0.6950899709792806 0.9299425327444460 0.9288289457053407
