# clIm025_mIm075__closed
1.000000
 33.9819999999999993   0.0000000000000000         0.0000000000
  0.0000000000000021  33.9819999999999993         0.0000000000
  0.0000000000000021   0.0000000000000021        33.9820000000
C C H C N Zn C C H C N Zn C C H N C C H C H H H N C C H C N Zn C C H N Zn C C H C H H H N C C H C H H H N C C H C N Zn C C H C H H H N Zn C C H C N Zn C C H C H H H N Zn C H N C H H H H N C H N C H H H H N C H H H H N Zn C H N Zn C H H H H N Zn C H N C H N Zn C H N C H H H H N C H N C C H C H H H N C C H C N C C H C H H H N C C H C H H H N C C H N C C H N C C H C N C C H C N C C H N C C H N C C H C N C C H C H H H N C H N C H N C H N C H H H H N C H H H H N C H H H H N C H N C H N C H H H H N C H N C H N C H N Cl Cl Cl Cl Cl Cl 
8 8 8 8 8 8 8 8 8 8 8 8 8 8 8 8 8 8 8 8 8 8 8 8 8 8 8 8 8 8 8 8 8 8 8 8 8 8 8 8 8 8 8 8 8 8 8 8 8 8 8 8 8 8 8 8 8 8 8 8 8 8 8 8 8 8 8 8 8 8 8 8 8 8 8 8 8 8 8 8 8 8 8 8 8 8 8 8 8 8 8 8 8 8 8 8 8 8 8 8 8 8 8 8 8 8 8 8 8 8 8 8 8 8 8 8 8 8 8 8 8 8 8 8 8 8 8 8 8 8 8 8 8 8 8 8 8 8 8 8 8 8 8 8 8 8 8 8 8 8 8 8 8 8 8 8 8 8 8 8 8 8 8 8 8 8 8 8 8 8 8 8 8 8 8 8 8 8 8 8 8 8 8 8 8 8 8 8 8 8 8 8 8 8 8 8 8 8 8 8 8 8 8 8 8 8 8 8 8 8 8 8 8 8 8 8 8 8 8 8 8 8 8 8 8 8 8 8 8 8 8 8 8 8 8 8 8 8 8 8 8 8 8 8 8 8 8 8 8 8 8 8 8 8 8 8 8 8 
Direct
0.1885250000000000 0.0039500000000000 0.3114750000000000
0.1885250000000000 0.0039500000000000 0.8114749999999999
0.1885250000000000 0.5039500000000000 0.3114750000000000
0.1885250000000000 0.5039500000000000 0.8114749999999999
0.6885250000000001 0.0039500000000000 0.3114750000000000
0.6885250000000001 0.0039500000000000 0.8114749999999999
0.6885250000000001 0.5039500000000000 0.3114750000000000
0.6885250000000001 0.5039500000000000 0.8114749999999999
0.1842550000000000 0.4495700000000000 0.3437500000000000
0.1842550000000000 0.4495700000000000 0.8437500000000000
0.1842550000000000 0.9495699999999999 0.3437500000000000
0.1842550000000000 0.9495699999999999 0.8437500000000000
0.6842550000000001 0.4495700000000000 0.3437500000000000
0.6842550000000001 0.4495700000000000 0.8437500000000000
0.6842550000000001 0.9495699999999999 0.3437500000000000
0.6842550000000001 0.9495699999999999 0.8437500000000000
0.1888500000000000 0.4294500000000000 0.3617000000000000
0.1888500000000000 0.4294500000000000 0.8617000000000000
0.1888500000000000 0.9294499999999999 0.3617000000000000
0.1888500000000000 0.9294500000000000 0.8617000000000000
0.6888500000000000 0.4294500000000000 0.3617000000000000
0.6888500000000001 0.4294500000000000 0.8617000000000000
0.6888500000000000 0.9294499999999999 0.3617000000000000
0.6888500000000000 0.9294500000000000 0.8617000000000000
0.2030499999999999 0.0427500000000000 0.2969500000000000
0.2030499999999999 0.0427500000000000 0.7969499999999999
0.2030499999999999 0.5427500000000000 0.2969500000000000
0.2030499999999999 0.5427500000000000 0.7969499999999999
0.7030500000000000 0.0427500000000000 0.2969500000000000
0.7030500000000000 0.0427500000000000 0.7969499999999999
0.7030500000000000 0.5427500000000000 0.2969500000000000
0.7030500000000000 0.5427500000000000 0.7969499999999999
0.2048650000000000 0.4841600000000000 0.3413900000000000
0.2048650000000000 0.4841599999999999 0.8413900000000001
0.2048650000000000 0.9841599999999999 0.3413900000000000
0.2048650000000000 0.9841599999999999 0.8413900000000001
0.7048650000000000 0.4841600000000000 0.3413900000000000
0.7048650000000000 0.4841599999999999 0.8413900000000001
0.7048650000000000 0.9841599999999999 0.3413900000000000
0.7048650000000000 0.9841599999999999 0.8413900000000001
0.2500000000000000 0.0000000000000000 0.3750000000000000
0.2500000000000000 0.0000000000000000 0.8750000000000000
0.2500000000000000 0.5000000000000000 0.3750000000000000
0.2500000000000000 0.5000000000000001 0.8750000000000000
0.7500000000000000 0.0000000000000000 0.3750000000000000
0.7500000000000001 0.0000000000000000 0.8750000000000000
0.7500000000000000 0.5000000000000000 0.3750000000000000
0.7500000000000001 0.5000000000000001 0.8750000000000000
0.0039500000000000 0.3114750000000000 0.1885250000000000
0.0039500000000000 0.3114750000000000 0.6885250000000001
0.0039500000000000 0.8114749999999999 0.1885250000000000
0.0039500000000000 0.8114749999999999 0.6885250000000001
0.5039500000000000 0.3114750000000000 0.1885250000000000
0.5039500000000000 0.3114750000000000 0.6885250000000001
0.5039500000000000 0.8114749999999999 0.1885250000000000
0.5039500000000000 0.8114749999999999 0.6885250000000001
0.4495700000000000 0.3157450000000000 0.1562500000000000
0.4495700000000000 0.3157450000000000 0.6562500000000000
0.4495700000000000 0.8157449999999999 0.1562500000000000
0.4495700000000000 0.8157449999999999 0.6562500000000000
0.9495699999999999 0.3157450000000000 0.1562500000000000
0.9495699999999999 0.3157450000000000 0.6562500000000000
0.9495699999999999 0.8157449999999999 0.1562500000000000
0.9495699999999999 0.8157449999999999 0.6562500000000000
0.4294500000000000 0.3111500000000000 0.1383000000000000
0.4294500000000000 0.3111500000000000 0.6383000000000000
0.4294500000000000 0.8111500000000000 0.1383000000000000
0.4294500000000000 0.8111500000000000 0.6383000000000000
0.9294499999999999 0.3111500000000000 0.1383000000000000
0.9294499999999999 0.3111500000000000 0.6383000000000000
0.9294499999999999 0.8111500000000000 0.1383000000000000
0.9294499999999999 0.8111500000000000 0.6383000000000000
0.0427500000000000 0.2969500000000000 0.2030500000000000
0.0427500000000000 0.2969500000000000 0.7030500000000000
0.0427500000000000 0.7969499999999999 0.2030500000000000
0.0427500000000000 0.7969499999999999 0.7030500000000000
0.5427500000000000 0.2969500000000000 0.2030500000000000
0.5427500000000000 0.2969500000000000 0.7030500000000000
0.5427500000000000 0.7969499999999999 0.2030500000000000
0.5427500000000000 0.7969499999999999 0.7030500000000000
0.4841600000000000 0.2951350000000000 0.1586100000000000
0.4841599999999999 0.2951350000000000 0.6586100000000000
0.4841599999999999 0.7951349999999999 0.1586100000000000
0.4841599999999999 0.7951349999999999 0.6586100000000000
0.9841599999999999 0.2951350000000000 0.1586100000000000
0.9841599999999999 0.2951350000000000 0.6586100000000000
0.9841599999999999 0.7951349999999999 0.1586100000000000
0.9841599999999999 0.7951349999999999 0.6586100000000000
0.0000000000000000 0.2500000000000000 0.1250000000000000
0.0000000000000000 0.2500000000000000 0.6250000000000000
0.0000000000000000 0.7500000000000000 0.1250000000000000
0.0000000000000000 0.7500000000000000 0.6250000000000000
0.5000000000000000 0.2500000000000000 0.1250000000000000
0.4999999999999999 0.2500000000000000 0.6250000000000000
0.4999999999999999 0.7500000000000000 0.1250000000000000
0.4999999999999999 0.7500000000000000 0.6250000000000000
0.3114750000000000 0.4960500000000000 0.3114750000000000
0.3114750000000000 0.4960499999999999 0.8114749999999999
0.3114750000000000 0.9960499999999999 0.3114750000000000
0.3114750000000000 0.9960499999999999 0.8114749999999999
0.8114749999999999 0.4960500000000000 0.3114750000000000
0.8114749999999999 0.4960499999999999 0.8114749999999999
0.8114749999999999 0.9960499999999999 0.3114750000000000
0.8114749999999999 0.9960499999999999 0.8114749999999999
0.3157450000000000 0.0504300000000000 0.3437500000000000
0.3157450000000000 0.0504300000000000 0.8437500000000000
0.3157450000000000 0.5504299999999999 0.3437500000000000
0.3157450000000000 0.5504299999999999 0.8437500000000000
0.8157449999999999 0.0504300000000000 0.3437500000000000
0.8157449999999999 0.0504300000000000 0.8437500000000000
0.8157449999999999 0.5504299999999999 0.3437500000000000
0.8157449999999999 0.5504299999999999 0.8437500000000000
0.3111500000000000 0.0705500000000000 0.3617000000000000
0.3111500000000000 0.0705500000000000 0.8617000000000000
0.3111500000000000 0.5705500000000000 0.3617000000000000
0.3111500000000000 0.5705500000000001 0.8617000000000000
0.8111500000000000 0.0705500000000000 0.3617000000000000
0.8111500000000001 0.0705500000000000 0.8617000000000000
0.8111500000000000 0.5705500000000000 0.3617000000000000
0.8111500000000001 0.5705500000000001 0.8617000000000000
0.2951350000000000 0.0158400000000000 0.3413900000000000
0.2951350000000000 0.0158400000000000 0.8413900000000001
0.2951350000000000 0.5158400000000000 0.3413900000000000
0.2951350000000000 0.5158400000000000 0.8413900000000001
0.7951349999999999 0.0158400000000000 0.3413900000000000
0.7951349999999999 0.0158400000000000 0.8413900000000001
0.7951349999999999 0.5158400000000000 0.3413900000000000
0.7951349999999999 0.5158400000000000 0.8413900000000001
0.4960500000000000 0.1885250000000000 0.1885250000000000
0.4960499999999999 0.1885250000000000 0.6885250000000001
0.4960499999999999 0.6885250000000001 0.1885250000000000
0.4960499999999999 0.6885250000000001 0.6885250000000001
0.9960499999999999 0.1885250000000000 0.1885250000000000
0.9960499999999999 0.1885250000000000 0.6885250000000001
0.9960499999999999 0.6885250000000001 0.1885250000000000
0.9960499999999999 0.6885250000000001 0.6885250000000001
0.0504300000000000 0.1842550000000000 0.1562500000000000
0.0504300000000000 0.1842550000000000 0.6562500000000000
0.0504300000000000 0.6842550000000001 0.1562500000000000
0.0504300000000000 0.6842550000000001 0.6562500000000000
0.5504299999999999 0.1842550000000000 0.1562500000000000
0.5504299999999999 0.1842550000000000 0.6562500000000000
0.5504299999999999 0.6842550000000001 0.1562500000000000
0.5504299999999999 0.6842550000000001 0.6562500000000000
0.0705500000000000 0.1888500000000000 0.1383000000000000
0.0705500000000000 0.1888500000000000 0.6383000000000000
0.0705500000000000 0.6888500000000000 0.1383000000000000
0.0705500000000000 0.6888500000000000 0.6383000000000000
0.5705500000000000 0.1888500000000000 0.1383000000000000
0.5705500000000000 0.1888500000000000 0.6383000000000000
0.5705500000000000 0.6888500000000000 0.1383000000000000
0.5705500000000000 0.6888500000000000 0.6383000000000000
0.4572500000000000 0.2030500000000000 0.2030500000000000
0.4572500000000000 0.2030499999999999 0.7030500000000000
0.4572500000000000 0.7030500000000000 0.2030500000000000
0.4572500000000000 0.7030500000000000 0.7030500000000000
0.9572499999999999 0.2030500000000000 0.2030500000000000
0.9572499999999999 0.2030499999999999 0.7030500000000000
0.9572499999999999 0.7030500000000000 0.2030500000000000
0.9572499999999999 0.7030500000000000 0.7030500000000000
0.4601000000000000 0.2293500000000000 0.2128500000000000
0.4601000000000000 0.2293500000000000 0.7128500000000000
0.4601000000000000 0.7293499999999999 0.2128500000000000
0.4601000000000000 0.7293499999999999 0.7128500000000000
0.9601000000000000 0.2293500000000000 0.2128500000000000
0.9601000000000000 0.2293500000000000 0.7128500000000000
0.9601000000000000 0.7293499999999999 0.2128500000000000
0.9601000000000000 0.7293499999999999 0.7128500000000000
0.4386000000000000 0.2029000000000000 0.1818000000000000
0.4386000000000000 0.2029000000000000 0.6818000000000000
0.4386000000000000 0.7028999999999999 0.1818000000000000
0.4385999999999999 0.7028999999999999 0.6818000000000000
0.9386000000000000 0.2029000000000000 0.1818000000000000
0.9386000000000000 0.2029000000000000 0.6818000000000000
0.9386000000000000 0.7028999999999999 0.1818000000000000
0.9386000000000000 0.7028999999999999 0.6818000000000000
0.4480500000000000 0.1862000000000000 0.2237499999999999
0.4480500000000000 0.1861999999999999 0.7237499999999998
0.4480500000000000 0.6861999999999999 0.2237499999999999
0.4480500000000000 0.6861999999999999 0.7237499999999998
0.9480500000000002 0.1862000000000000 0.2237499999999999
0.9480500000000002 0.1861999999999999 0.7237499999999998
0.9480500000000002 0.6861999999999999 0.2237499999999999
0.9480500000000002 0.6861999999999999 0.7237499999999998
0.0158400000000000 0.2048650000000000 0.1586100000000000
0.0158400000000000 0.2048650000000000 0.6586100000000000
0.0158400000000000 0.7048650000000000 0.1586100000000000
0.0158400000000000 0.7048650000000000 0.6586100000000000
0.5158400000000000 0.2048650000000000 0.1586100000000000
0.5158400000000000 0.2048650000000000 0.6586100000000000
0.5158400000000000 0.7048650000000000 0.1586100000000000
0.5158400000000000 0.7048650000000000 0.6586100000000000
0.1885250000000000 0.4960500000000000 0.1885250000000000
0.1885250000000000 0.4960499999999999 0.6885250000000001
0.1885250000000000 0.9960499999999999 0.1885250000000000
0.1885250000000000 0.9960499999999999 0.6885250000000001
0.6885250000000001 0.4960500000000000 0.1885250000000000
0.6885250000000001 0.4960499999999999 0.6885250000000001
0.6885250000000001 0.9960499999999999 0.1885250000000000
0.6885250000000001 0.9960499999999999 0.6885250000000001
0.1842550000000000 0.0504300000000000 0.1562500000000000
0.1842550000000000 0.0504300000000000 0.6562500000000000
0.1842550000000000 0.5504299999999999 0.1562500000000000
0.1842550000000000 0.5504299999999999 0.6562500000000000
0.6842550000000001 0.0504300000000000 0.1562500000000000
0.6842550000000001 0.0504300000000000 0.6562500000000000
0.6842550000000001 0.5504299999999999 0.1562500000000000
0.6842550000000001 0.5504299999999999 0.6562500000000000
0.1888500000000000 0.0705500000000000 0.1383000000000000
0.1888500000000000 0.0705500000000000 0.6383000000000000
0.1888500000000000 0.5705500000000000 0.1383000000000000
0.1888500000000000 0.5705500000000000 0.6383000000000000
0.6888500000000000 0.0705500000000000 0.1383000000000000
0.6888500000000000 0.0705500000000000 0.6383000000000000
0.6888500000000000 0.5705500000000000 0.1383000000000000
0.6888500000000000 0.5705500000000000 0.6383000000000000
0.2030499999999999 0.4572500000000000 0.2030500000000000
0.2030499999999999 0.4572500000000000 0.7030500000000000
0.2030499999999999 0.9572499999999999 0.2030500000000000
0.2030499999999999 0.9572499999999999 0.7030500000000000
0.7030500000000000 0.4572500000000000 0.2030500000000000
0.7030500000000000 0.4572500000000000 0.7030500000000000
0.7030500000000000 0.9572499999999999 0.2030500000000000
0.7030500000000000 0.9572499999999999 0.7030500000000000
0.2048650000000000 0.0158400000000000 0.1586100000000000
0.2048650000000000 0.0158400000000000 0.6586100000000000
0.2048650000000000 0.5158400000000000 0.1586100000000000
0.2048650000000000 0.5158400000000000 0.6586100000000000
0.7048650000000000 0.0158400000000000 0.1586100000000000
0.7048650000000000 0.0158400000000000 0.6586100000000000
0.7048650000000000 0.5158400000000000 0.1586100000000000
0.7048650000000000 0.5158400000000000 0.6586100000000000
0.2500000000000000 0.0000000000000000 0.1250000000000000
0.2500000000000000 0.0000000000000000 0.6250000000000000
0.2500000000000000 0.5000000000000000 0.1250000000000000
0.2500000000000000 0.4999999999999999 0.6250000000000000
0.7500000000000000 0.0000000000000000 0.1250000000000000
0.7500000000000000 0.0000000000000000 0.6250000000000000
0.7500000000000000 0.5000000000000000 0.1250000000000000
0.7500000000000000 0.4999999999999999 0.6250000000000000
0.4960500000000000 0.3114750000000000 0.3114750000000000
0.4960499999999999 0.3114750000000000 0.8114749999999999
0.4960499999999999 0.8114749999999999 0.3114750000000000
0.4960499999999999 0.8114749999999999 0.8114749999999999
0.9960499999999999 0.3114750000000000 0.3114750000000000
0.9960499999999999 0.3114750000000000 0.8114749999999999
0.9960499999999999 0.8114749999999999 0.3114750000000000
0.9960499999999999 0.8114749999999999 0.8114749999999999
0.0504300000000000 0.3157450000000000 0.3437500000000000
0.0504300000000000 0.3157450000000000 0.8437500000000000
0.0504300000000000 0.8157449999999999 0.3437500000000000
0.0504300000000000 0.8157449999999999 0.8437500000000000
0.5504299999999999 0.3157450000000000 0.3437500000000000
0.5504299999999999 0.3157450000000000 0.8437500000000000
0.5504299999999999 0.8157449999999999 0.3437500000000000
0.5504299999999999 0.8157449999999999 0.8437500000000000
0.0705500000000000 0.3111500000000000 0.3617000000000000
0.0705500000000000 0.3111500000000000 0.8617000000000000
0.0705500000000000 0.8111500000000000 0.3617000000000000
0.0705500000000000 0.8111500000000001 0.8617000000000000
0.5705500000000000 0.3111500000000000 0.3617000000000000
0.5705500000000001 0.3111500000000000 0.8617000000000000
0.5705500000000000 0.8111500000000000 0.3617000000000000
0.5705500000000001 0.8111500000000001 0.8617000000000000
0.0158400000000000 0.2951350000000000 0.3413900000000000
0.0158400000000000 0.2951350000000000 0.8413900000000001
0.0158400000000000 0.7951349999999999 0.3413900000000000
0.0158400000000000 0.7951349999999999 0.8413900000000001
0.5158400000000000 0.2951350000000000 0.3413900000000000
0.5158400000000000 0.2951350000000000 0.8413900000000001
0.5158400000000000 0.7951349999999999 0.3413900000000000
0.5158400000000000 0.7951349999999999 0.8413900000000001
0.0000000000000000 0.2500000000000000 0.3750000000000000
0.0000000000000000 0.2500000000000000 0.8750000000000000
0.0000000000000000 0.7500000000000000 0.3750000000000000
0.0000000000000000 0.7500000000000001 0.8750000000000000
0.5000000000000000 0.2500000000000000 0.3750000000000000
0.5000000000000001 0.2500000000000000 0.8750000000000000
0.4999999999999999 0.7500000000000000 0.3750000000000000
0.5000000000000001 0.7500000000000001 0.8750000000000000
0.3114750000000000 0.0039500000000000 0.1885250000000000
0.3114750000000000 0.0039500000000000 0.6885250000000001
0.3114750000000000 0.5039500000000000 0.1885250000000000
0.3114750000000000 0.5039500000000000 0.6885250000000001
0.8114749999999999 0.0039500000000000 0.1885250000000000
0.8114749999999999 0.0039500000000000 0.6885250000000001
0.8114749999999999 0.5039500000000000 0.1885250000000000
0.8114749999999999 0.5039500000000000 0.6885250000000001
0.3157450000000001 0.4495700000000000 0.1562500000000000
0.3157450000000001 0.4495700000000000 0.6562500000000000
0.3157450000000000 0.9495699999999999 0.1562500000000000
0.3157450000000000 0.9495699999999999 0.6562500000000000
0.8157449999999999 0.4495700000000000 0.1562500000000000
0.8157449999999999 0.4495700000000000 0.6562500000000000
0.8157449999999999 0.9495699999999999 0.1562500000000000
0.8157449999999999 0.9495699999999999 0.6562500000000000
0.3111500000000000 0.4294500000000000 0.1383000000000000
0.3111500000000000 0.4294500000000000 0.6383000000000000
0.3111500000000000 0.9294499999999999 0.1383000000000000
0.3111500000000000 0.9294499999999999 0.6383000000000000
0.8111500000000000 0.4294500000000000 0.1383000000000000
0.8111500000000000 0.4294500000000000 0.6383000000000000
0.8111500000000000 0.9294499999999999 0.1383000000000000
0.8111500000000000 0.9294499999999999 0.6383000000000000
0.2969500000000000 0.0427500000000000 0.2030500000000000
0.2969500000000000 0.0427500000000000 0.7030500000000000
0.2969500000000000 0.5427500000000000 0.2030500000000000
0.2969500000000000 0.5427500000000000 0.7030500000000000
0.7969499999999999 0.0427500000000000 0.2030500000000000
0.7969499999999999 0.0427500000000000 0.7030500000000000
0.7969499999999999 0.5427500000000000 0.2030500000000000
0.7969499999999999 0.5427500000000000 0.7030500000000000
0.2706499999999998 0.0399000000000000 0.2128500000000000
0.2706499999999998 0.0399000000000000 0.7128500000000000
0.2706499999999998 0.5399000000000000 0.2128500000000000
0.2706499999999998 0.5399000000000000 0.7128500000000000
0.7706499999999998 0.0399000000000000 0.2128500000000000
0.7706499999999998 0.0399000000000000 0.7128500000000000
0.7706499999999998 0.5399000000000000 0.2128500000000000
0.7706499999999998 0.5399000000000000 0.7128500000000000
0.2971000000000000 0.0614000000000000 0.1818000000000000
0.2971000000000000 0.0614000000000000 0.6818000000000000
0.2971000000000000 0.5614000000000000 0.1818000000000000
0.2971000000000000 0.5614000000000000 0.6818000000000000
0.7970999999999998 0.0614000000000000 0.1818000000000000
0.7970999999999998 0.0614000000000000 0.6818000000000000
0.7970999999999998 0.5614000000000000 0.1818000000000000
0.7970999999999998 0.5614000000000000 0.6818000000000000
0.3138000000000000 0.0519500000000000 0.2237499999999999
0.3137999999999999 0.0519500000000000 0.7237499999999998
0.3137999999999999 0.5519499999999999 0.2237499999999999
0.3137999999999999 0.5519499999999999 0.7237499999999998
0.8138000000000000 0.0519500000000000 0.2237499999999999
0.8138000000000000 0.0519500000000000 0.7237499999999998
0.8138000000000000 0.5519499999999999 0.2237499999999999
0.8138000000000000 0.5519499999999999 0.7237499999999998
0.2951350000000000 0.4841600000000000 0.1586100000000000
0.2951350000000000 0.4841599999999999 0.6586100000000000
0.2951350000000000 0.9841599999999999 0.1586100000000000
0.2951350000000000 0.9841599999999999 0.6586100000000000
0.7951349999999999 0.4841600000000000 0.1586100000000000
0.7951349999999999 0.4841599999999999 0.6586100000000000
0.7951349999999999 0.9841599999999999 0.1586100000000000
0.7951349999999999 0.9841599999999999 0.6586100000000000
0.0039500000000000 0.1885250000000000 0.3114750000000000
0.0039500000000000 0.1885250000000000 0.8114749999999999
0.0039500000000000 0.6885250000000001 0.3114750000000000
0.0039500000000000 0.6885250000000001 0.8114749999999999
0.5039500000000000 0.1885250000000000 0.3114750000000000
0.5039500000000000 0.1885250000000000 0.8114749999999999
0.5039500000000000 0.6885250000000001 0.3114750000000000
0.5039500000000000 0.6885250000000001 0.8114749999999999
0.4495700000000000 0.1842550000000000 0.3437500000000000
0.4495700000000000 0.1842550000000000 0.8437500000000000
0.4495700000000000 0.6842550000000001 0.3437500000000000
0.4495700000000000 0.6842550000000001 0.8437500000000000
0.9495699999999999 0.1842550000000000 0.3437500000000000
0.9495699999999999 0.1842550000000000 0.8437500000000000
0.9495699999999999 0.6842550000000001 0.3437500000000000
0.9495699999999999 0.6842550000000001 0.8437500000000000
0.4294500000000000 0.1888500000000000 0.3617000000000000
0.4294500000000000 0.1888500000000000 0.8617000000000000
0.4294500000000000 0.6888500000000000 0.3617000000000000
0.4294500000000000 0.6888500000000001 0.8617000000000000
0.9294499999999999 0.1888500000000000 0.3617000000000000
0.9294500000000000 0.1888500000000000 0.8617000000000000
0.9294499999999999 0.6888500000000000 0.3617000000000000
0.9294500000000000 0.6888500000000001 0.8617000000000000
0.0427500000000000 0.2030499999999999 0.2969500000000000
0.0427500000000000 0.2030499999999999 0.7969499999999999
0.0427500000000000 0.7030500000000000 0.2969500000000000
0.0427500000000000 0.7030500000000000 0.7969499999999999
0.5427500000000000 0.2030499999999999 0.2969500000000000
0.5427500000000000 0.2030499999999999 0.7969499999999999
0.5427500000000000 0.7030500000000000 0.2969500000000000
0.5427500000000000 0.7030500000000000 0.7969499999999999
0.0399000000000000 0.2293500000000000 0.2871500000000000
0.0399000000000000 0.2293500000000000 0.7871499999999999
0.0399000000000000 0.7293499999999999 0.2871500000000000
0.0399000000000000 0.7293499999999999 0.7871499999999999
0.5399000000000000 0.2293500000000000 0.2871500000000000
0.5399000000000000 0.2293500000000000 0.7871499999999999
0.5399000000000000 0.7293499999999999 0.2871500000000000
0.5399000000000000 0.7293499999999999 0.7871499999999999
0.0614000000000000 0.2029000000000000 0.3182000000000000
0.0614000000000000 0.2029000000000000 0.8181999999999999
0.0614000000000000 0.7028999999999999 0.3182000000000000
0.0614000000000000 0.7028999999999999 0.8181999999999999
0.5614000000000000 0.2029000000000000 0.3182000000000000
0.5614000000000000 0.2029000000000000 0.8181999999999999
0.5614000000000000 0.7028999999999999 0.3182000000000000
0.5614000000000000 0.7028999999999999 0.8181999999999999
0.0519500000000000 0.1861999999999999 0.2762500000000000
0.0519500000000000 0.1861999999999999 0.7762500000000000
0.0519500000000000 0.6861999999999999 0.2762500000000000
0.0519500000000000 0.6861999999999999 0.7762500000000000
0.5519499999999999 0.1861999999999999 0.2762500000000000
0.5519499999999999 0.1861999999999999 0.7762500000000000
0.5519499999999999 0.6861999999999999 0.2762500000000000
0.5519499999999999 0.6861999999999999 0.7762500000000000
0.4841600000000000 0.2048650000000000 0.3413900000000000
0.4841599999999999 0.2048650000000000 0.8413900000000001
0.4841599999999999 0.7048650000000000 0.3413900000000000
0.4841599999999999 0.7048650000000000 0.8413900000000001
0.9841599999999999 0.2048650000000000 0.3413900000000000
0.9841599999999999 0.2048650000000000 0.8413900000000001
0.9841599999999999 0.7048650000000000 0.3413900000000000
0.9841599999999999 0.7048650000000000 0.8413900000000001
0.3114750000000000 0.1885250000000000 0.0039500000000000
0.3114750000000000 0.1885250000000000 0.5039500000000000
0.3114750000000000 0.6885250000000001 0.0039500000000000
0.3114750000000000 0.6885250000000001 0.5039500000000000
0.8114749999999999 0.1885250000000000 0.0039500000000000
0.8114749999999999 0.1885250000000000 0.5039500000000000
0.8114749999999999 0.6885250000000001 0.0039500000000000
0.8114749999999999 0.6885250000000001 0.5039500000000000
0.3437500000000001 0.1842550000000000 0.4495700000000000
0.3437500000000000 0.1842550000000000 0.9495699999999999
0.3437500000000001 0.6842550000000001 0.4495700000000000
0.3437500000000000 0.6842550000000001 0.9495699999999999
0.8437500000000000 0.1842550000000000 0.4495700000000000
0.8437500000000000 0.1842550000000000 0.9495699999999999
0.8437500000000000 0.6842550000000001 0.4495700000000000
0.8437500000000000 0.6842550000000001 0.9495699999999999
0.3617000000000001 0.1888500000000000 0.4294500000000000
0.3617000000000000 0.1888500000000000 0.9294499999999999
0.3617000000000000 0.6888500000000000 0.4294500000000000
0.3617000000000000 0.6888500000000000 0.9294499999999999
0.8617000000000000 0.1888500000000000 0.4294500000000000
0.8617000000000000 0.1888500000000000 0.9294499999999999
0.8617000000000000 0.6888500000000000 0.4294500000000000
0.8617000000000000 0.6888500000000000 0.9294499999999999
0.2969500000000000 0.2030500000000000 0.0427500000000000
0.2969500000000000 0.2030499999999999 0.5427500000000000
0.2969500000000000 0.7030500000000000 0.0427500000000000
0.2969500000000000 0.7030500000000000 0.5427500000000000
0.7969499999999999 0.2030500000000000 0.0427500000000000
0.7969499999999999 0.2030499999999999 0.5427500000000000
0.7969499999999999 0.7030500000000000 0.0427500000000000
0.7969499999999999 0.7030500000000000 0.5427500000000000
0.3413900000000000 0.2048650000000000 0.4841600000000000
0.3413900000000000 0.2048650000000000 0.9841599999999999
0.3413900000000000 0.7048650000000000 0.4841600000000000
0.3413900000000000 0.7048650000000000 0.9841599999999999
0.8413900000000001 0.2048650000000000 0.4841600000000000
0.8413900000000001 0.2048650000000000 0.9841599999999999
0.8413900000000001 0.7048650000000000 0.4841600000000000
0.8413900000000001 0.7048650000000000 0.9841599999999999
0.3750000000000000 0.2500000000000000 0.0000000000000000
0.3750000000000000 0.2500000000000000 0.5000000000000000
0.3750000000000000 0.7500000000000000 0.0000000000000000
0.3750000000000000 0.7500000000000000 0.5000000000000000
0.8750000000000000 0.2500000000000000 0.0000000000000000
0.8750000000000000 0.2500000000000000 0.5000000000000000
0.8750000000000000 0.7500000000000000 0.0000000000000000
0.8750000000000000 0.7500000000000000 0.5000000000000000
0.1885250000000000 0.1885250000000000 0.4960500000000000
0.1885250000000000 0.1885250000000000 0.9960499999999999
0.1885250000000000 0.6885250000000001 0.4960500000000000
0.1885250000000000 0.6885250000000001 0.9960499999999999
0.6885250000000001 0.1885250000000000 0.4960500000000000
0.6885250000000001 0.1885250000000000 0.9960499999999999
0.6885250000000001 0.6885250000000001 0.4960500000000000
0.6885250000000001 0.6885250000000001 0.9960499999999999
0.1842550000000000 0.1562500000000000 0.0504300000000000
0.1842550000000000 0.1562500000000000 0.5504299999999999
0.1842550000000000 0.6562500000000000 0.0504300000000000
0.1842550000000000 0.6562500000000000 0.5504299999999999
0.6842550000000001 0.1562500000000000 0.0504300000000000
0.6842550000000001 0.1562500000000000 0.5504299999999999
0.6842550000000001 0.6562500000000000 0.0504300000000000
0.6842550000000001 0.6562500000000000 0.5504299999999999
0.1888500000000000 0.1383000000000000 0.0705500000000000
0.1888500000000000 0.1383000000000000 0.5705500000000000
0.1888500000000000 0.6383000000000000 0.0705500000000000
0.1888500000000000 0.6383000000000000 0.5705500000000000
0.6888500000000000 0.1383000000000000 0.0705500000000000
0.6888500000000000 0.1383000000000000 0.5705500000000000
0.6888500000000000 0.6383000000000000 0.0705500000000000
0.6888500000000000 0.6383000000000000 0.5705500000000000
0.2030499999999999 0.2030499999999999 0.4572500000000000
0.2030499999999999 0.2030499999999999 0.9572499999999999
0.2030499999999999 0.7030500000000000 0.4572500000000000
0.2030499999999999 0.7030500000000000 0.9572499999999999
0.7030500000000000 0.2030499999999999 0.4572500000000000
0.7030500000000000 0.2030499999999999 0.9572499999999999
0.7030500000000000 0.7030500000000000 0.4572500000000000
0.7030500000000000 0.7030500000000000 0.9572499999999999
0.2293500000000000 0.2128500000000000 0.4601000000000000
0.2293500000000000 0.2128500000000000 0.9601000000000000
0.2293500000000000 0.7128500000000000 0.4601000000000000
0.2293500000000000 0.7128500000000000 0.9601000000000000
0.7293499999999999 0.2128500000000000 0.4601000000000000
0.7293499999999998 0.2128500000000000 0.9601000000000000
0.7293499999999999 0.7128500000000000 0.4601000000000000
0.7293499999999998 0.7128500000000000 0.9601000000000000
0.2029000000000000 0.1818000000000000 0.4386000000000000
0.2029000000000000 0.1818000000000000 0.9386000000000000
0.2029000000000000 0.6818000000000000 0.4386000000000000
0.2029000000000000 0.6818000000000000 0.9386000000000000
0.7028999999999999 0.1818000000000000 0.4386000000000000
0.7028999999999999 0.1818000000000000 0.9386000000000000
0.7028999999999999 0.6818000000000000 0.4386000000000000
0.7028999999999999 0.6818000000000000 0.9386000000000000
0.1862000000000000 0.2237499999999999 0.4480500000000000
0.1862000000000000 0.2237499999999999 0.9480500000000002
0.1861999999999999 0.7237499999999998 0.4480500000000000
0.1861999999999999 0.7237499999999998 0.9480500000000002
0.6861999999999999 0.2237499999999999 0.4480500000000000
0.6861999999999999 0.2237499999999999 0.9480500000000002
0.6861999999999999 0.7237499999999998 0.4480500000000000
0.6861999999999999 0.7237499999999998 0.9480500000000002
0.2048650000000000 0.1586100000000000 0.0158400000000000
0.2048650000000000 0.1586100000000000 0.5158400000000000
0.2048650000000000 0.6586100000000000 0.0158400000000000
0.2048650000000000 0.6586100000000000 0.5158400000000000
0.7048650000000000 0.1586100000000000 0.0158400000000000
0.7048650000000000 0.1586100000000000 0.5158400000000000
0.7048650000000000 0.6586100000000000 0.0158400000000000
0.7048650000000000 0.6586100000000000 0.5158400000000000
0.2500000000000000 0.1250000000000000 0.0000000000000000
0.2500000000000000 0.1250000000000000 0.5000000000000000
0.2500000000000000 0.6250000000000000 0.0000000000000000
0.2500000000000000 0.6250000000000000 0.5000000000000000
0.7500000000000000 0.1250000000000000 0.0000000000000000
0.7500000000000000 0.1250000000000000 0.5000000000000000
0.7500000000000000 0.6250000000000000 0.0000000000000000
0.7500000000000000 0.6250000000000000 0.5000000000000000
0.1885250000000000 0.3114750000000000 0.0039500000000000
0.1885250000000000 0.3114750000000000 0.5039500000000000
0.1885250000000000 0.8114749999999999 0.0039500000000000
0.1885250000000000 0.8114749999999999 0.5039500000000000
0.6885250000000001 0.3114750000000000 0.0039500000000000
0.6885250000000001 0.3114750000000000 0.5039500000000000
0.6885250000000001 0.8114749999999999 0.0039500000000000
0.6885250000000001 0.8114749999999999 0.5039500000000000
0.1562500000000000 0.3157450000000001 0.4495700000000000
0.1562500000000000 0.3157450000000000 0.9495699999999999
0.1562500000000000 0.8157449999999999 0.4495700000000000
0.1562500000000000 0.8157449999999999 0.9495699999999999
0.6562500000000000 0.3157450000000001 0.4495700000000000
0.6562499999999999 0.3157450000000000 0.9495699999999999
0.6562500000000000 0.8157449999999999 0.4495700000000000
0.6562499999999999 0.8157449999999999 0.9495699999999999
0.1383000000000000 0.3111500000000000 0.4294500000000000
0.1383000000000000 0.3111500000000000 0.9294499999999999
0.1383000000000000 0.8111500000000000 0.4294500000000000
0.1383000000000000 0.8111500000000000 0.9294499999999999
0.6383000000000000 0.3111500000000000 0.4294500000000000
0.6383000000000000 0.3111500000000000 0.9294499999999999
0.6383000000000000 0.8111500000000000 0.4294500000000000
0.6383000000000000 0.8111500000000000 0.9294499999999999
0.2030499999999999 0.2969500000000000 0.0427500000000000
0.2030499999999999 0.2969500000000000 0.5427500000000000
0.2030499999999999 0.7969499999999999 0.0427500000000000
0.2030499999999999 0.7969499999999999 0.5427500000000000
0.7030500000000000 0.2969500000000000 0.0427500000000000
0.7030500000000000 0.2969500000000000 0.5427500000000000
0.7030500000000000 0.7969499999999999 0.0427500000000000
0.7030500000000000 0.7969499999999999 0.5427500000000000
0.1586100000000000 0.2951350000000000 0.4841600000000000
0.1586100000000000 0.2951350000000000 0.9841599999999999
0.1586100000000000 0.7951349999999999 0.4841600000000000
0.1586100000000000 0.7951349999999999 0.9841599999999999
0.6586100000000000 0.2951350000000000 0.4841600000000000
0.6586100000000000 0.2951350000000000 0.9841599999999999
0.6586100000000000 0.7951349999999999 0.4841600000000000
0.6586100000000000 0.7951349999999999 0.9841599999999999
0.1250000000000000 0.2500000000000000 0.0000000000000000
0.1250000000000000 0.2500000000000000 0.5000000000000000
0.1250000000000000 0.7500000000000000 0.0000000000000000
0.1250000000000000 0.7500000000000000 0.5000000000000000
0.6250000000000000 0.2500000000000000 0.0000000000000000
0.6250000000000000 0.2500000000000000 0.5000000000000000
0.6250000000000000 0.7500000000000000 0.0000000000000000
0.6250000000000000 0.7500000000000000 0.5000000000000000
0.3114750000000000 0.3114750000000000 0.4960500000000000
0.3114750000000000 0.3114750000000000 0.9960499999999999
0.3114750000000000 0.8114749999999999 0.4960500000000000
0.3114750000000000 0.8114749999999999 0.9960499999999999
0.8114749999999999 0.3114750000000000 0.4960500000000000
0.8114749999999999 0.3114750000000000 0.9960499999999999
0.8114749999999999 0.8114749999999999 0.4960500000000000
0.8114749999999999 0.8114749999999999 0.9960499999999999
0.3157450000000000 0.3437500000000000 0.0504300000000000
0.3157450000000000 0.3437500000000000 0.5504299999999999
0.3157450000000000 0.8437500000000000 0.0504300000000000
0.3157450000000000 0.8437500000000000 0.5504299999999999
0.8157449999999999 0.3437500000000000 0.0504300000000000
0.8157449999999999 0.3437500000000000 0.5504299999999999
0.8157449999999999 0.8437500000000000 0.0504300000000000
0.8157449999999999 0.8437500000000000 0.5504299999999999
0.3111500000000000 0.3617000000000000 0.0705500000000000
0.3111500000000000 0.3617000000000000 0.5705500000000000
0.3111500000000000 0.8617000000000000 0.0705500000000000
0.3111500000000000 0.8617000000000000 0.5705500000000000
0.8111500000000000 0.3617000000000000 0.0705500000000000
0.8111500000000000 0.3617000000000000 0.5705500000000000
0.8111500000000001 0.8617000000000000 0.0705500000000000
0.8111500000000001 0.8617000000000000 0.5705500000000000
0.2969500000000000 0.2969500000000000 0.4572500000000000
0.2969500000000000 0.2969500000000000 0.9572499999999999
0.2969500000000000 0.7969499999999999 0.4572500000000000
0.2969500000000000 0.7969499999999999 0.9572499999999999
0.7969499999999999 0.2969500000000000 0.4572500000000000
0.7969499999999999 0.2969500000000000 0.9572499999999999
0.7969499999999999 0.7969499999999999 0.4572500000000000
0.7969499999999999 0.7969499999999999 0.9572499999999999
0.2706499999999998 0.2871500000000000 0.4601000000000000
0.2706499999999998 0.2871500000000000 0.9601000000000000
0.2706499999999998 0.7871499999999999 0.4601000000000000
0.2706499999999998 0.7871499999999999 0.9601000000000000
0.7706499999999998 0.2871500000000000 0.4601000000000000
0.7706499999999998 0.2871500000000000 0.9601000000000000
0.7706499999999998 0.7871499999999999 0.4601000000000000
0.7706499999999998 0.7871499999999999 0.9601000000000000
0.2971000000000000 0.3182000000000000 0.4386000000000000
0.2971000000000000 0.3182000000000000 0.9386000000000000
0.2971000000000000 0.8181999999999999 0.4386000000000000
0.2971000000000000 0.8181999999999999 0.9386000000000000
0.7970999999999998 0.3182000000000000 0.4386000000000000
0.7970999999999998 0.3182000000000000 0.9386000000000000
0.7970999999999998 0.8181999999999999 0.4386000000000000
0.7970999999999998 0.8181999999999999 0.9386000000000000
0.3138000000000000 0.2762500000000000 0.4480500000000000
0.3137999999999999 0.2762499999999999 0.9480500000000002
0.3138000000000000 0.7762500000000000 0.4480500000000000
0.3137999999999999 0.7762500000000000 0.9480500000000002
0.8138000000000000 0.2762500000000000 0.4480500000000000
0.8138000000000000 0.2762499999999999 0.9480500000000002
0.8138000000000000 0.7762500000000000 0.4480500000000000
0.8138000000000000 0.7762500000000000 0.9480500000000002
0.2951350000000000 0.3413900000000000 0.0158400000000000
0.2951350000000000 0.3413900000000000 0.5158400000000000
0.2951350000000000 0.8413900000000001 0.0158400000000000
0.2951350000000000 0.8413900000000001 0.5158400000000000
0.7951349999999999 0.3413900000000000 0.0158400000000000
0.7951349999999999 0.3413900000000000 0.5158400000000000
0.7951349999999999 0.8413900000000001 0.0158400000000000
0.7951349999999999 0.8413900000000001 0.5158400000000000
0.2500000000000000 0.3750000000000000 0.0000000000000000
0.2500000000000000 0.3750000000000000 0.5000000000000000
0.2500000000000000 0.8750000000000000 0.0000000000000000
0.2500000000000000 0.8750000000000000 0.5000000000000000
0.7500000000000000 0.3750000000000000 0.0000000000000000
0.7500000000000000 0.3750000000000000 0.5000000000000000
0.7500000000000001 0.8750000000000000 0.0000000000000000
0.7500000000000001 0.8750000000000000 0.5000000000000000
0.3437500000000000 0.3157450000000000 0.0504300000000000
0.3437500000000000 0.3157450000000000 0.5504299999999999
0.3437500000000000 0.8157449999999999 0.0504300000000000
0.3437500000000000 0.8157449999999999 0.5504299999999999
0.8437500000000000 0.3157450000000000 0.0504300000000000
0.8437500000000000 0.3157450000000000 0.5504299999999999
0.8437500000000000 0.8157449999999999 0.0504300000000000
0.8437500000000000 0.8157449999999999 0.5504299999999999
0.3617000000000000 0.3111500000000000 0.0705500000000000
0.3617000000000000 0.3111500000000000 0.5705500000000000
0.3617000000000000 0.8111500000000000 0.0705500000000000
0.3617000000000000 0.8111500000000000 0.5705500000000000
0.8617000000000000 0.3111500000000000 0.0705500000000000
0.8617000000000000 0.3111500000000000 0.5705500000000000
0.8617000000000000 0.8111500000000000 0.0705500000000000
0.8617000000000000 0.8111500000000000 0.5705500000000000
0.3413900000000000 0.2951350000000000 0.0158400000000000
0.3413900000000000 0.2951350000000000 0.5158400000000000
0.3413900000000000 0.7951349999999999 0.0158400000000000
0.3413900000000000 0.7951349999999999 0.5158400000000000
0.8413900000000001 0.2951350000000000 0.0158400000000000
0.8413900000000001 0.2951350000000000 0.5158400000000000
0.8413900000000001 0.7951349999999999 0.0158400000000000
0.8413900000000001 0.7951349999999999 0.5158400000000000
0.3157450000000001 0.1562500000000000 0.4495700000000000
0.3157450000000000 0.1562500000000000 0.9495699999999999
0.3157450000000001 0.6562500000000000 0.4495700000000000
0.3157450000000000 0.6562499999999999 0.9495699999999999
0.8157449999999999 0.1562500000000000 0.4495700000000000
0.8157449999999999 0.1562500000000000 0.9495699999999999
0.8157449999999999 0.6562500000000000 0.4495700000000000
0.8157449999999999 0.6562499999999999 0.9495699999999999
0.3111500000000000 0.1383000000000000 0.4294500000000000
0.3111500000000000 0.1383000000000000 0.9294499999999999
0.3111500000000000 0.6383000000000000 0.4294500000000000
0.3111500000000000 0.6383000000000000 0.9294499999999999
0.8111500000000000 0.1383000000000000 0.4294500000000000
0.8111500000000000 0.1383000000000000 0.9294499999999999
0.8111500000000000 0.6383000000000000 0.4294500000000000
0.8111500000000000 0.6383000000000000 0.9294499999999999
0.2706499999999998 0.2128500000000000 0.0399000000000000
0.2706499999999998 0.2128500000000000 0.5399000000000000
0.2706499999999998 0.7128500000000000 0.0399000000000000
0.2706499999999998 0.7128500000000000 0.5399000000000000
0.7706499999999998 0.2128500000000000 0.0399000000000000
0.7706499999999998 0.2128500000000000 0.5399000000000000
0.7706499999999998 0.7128500000000000 0.0399000000000000
0.7706499999999998 0.7128500000000000 0.5399000000000000
0.2971000000000000 0.1818000000000000 0.0614000000000000
0.2971000000000000 0.1818000000000000 0.5614000000000000
0.2971000000000000 0.6818000000000000 0.0614000000000000
0.2971000000000000 0.6818000000000000 0.5614000000000000
0.7970999999999998 0.1818000000000000 0.0614000000000000
0.7970999999999998 0.1818000000000000 0.5614000000000000
0.7970999999999998 0.6818000000000000 0.0614000000000000
0.7970999999999998 0.6818000000000000 0.5614000000000000
0.3138000000000000 0.2237499999999999 0.0519500000000000
0.3137999999999999 0.2237499999999999 0.5519499999999999
0.3137999999999999 0.7237499999999998 0.0519500000000000
0.3137999999999999 0.7237499999999998 0.5519499999999999
0.8138000000000000 0.2237499999999999 0.0519500000000000
0.8138000000000000 0.2237499999999999 0.5519499999999999
0.8138000000000000 0.7237499999999998 0.0519500000000000
0.8138000000000000 0.7237499999999998 0.5519499999999999
0.2951350000000000 0.1586100000000000 0.4841600000000000
0.2951350000000000 0.1586100000000000 0.9841599999999999
0.2951350000000000 0.6586100000000000 0.4841600000000000
0.2951350000000000 0.6586100000000000 0.9841599999999999
0.7951349999999999 0.1586100000000000 0.4841600000000000
0.7951349999999999 0.1586100000000000 0.9841599999999999
0.7951349999999999 0.6586100000000000 0.4841600000000000
0.7951349999999999 0.6586100000000000 0.9841599999999999
0.1562500000000000 0.1842550000000000 0.0504300000000000
0.1562500000000000 0.1842550000000000 0.5504299999999999
0.1562500000000000 0.6842550000000001 0.0504300000000000
0.1562500000000000 0.6842550000000001 0.5504299999999999
0.6562500000000000 0.1842550000000000 0.0504300000000000
0.6562500000000000 0.1842550000000000 0.5504299999999999
0.6562500000000000 0.6842550000000001 0.0504300000000000
0.6562500000000000 0.6842550000000001 0.5504299999999999
0.1383000000000000 0.1888500000000000 0.0705500000000000
0.1383000000000000 0.1888500000000000 0.5705500000000000
0.1383000000000000 0.6888500000000000 0.0705500000000000
0.1383000000000000 0.6888500000000000 0.5705500000000000
0.6383000000000000 0.1888500000000000 0.0705500000000000
0.6383000000000000 0.1888500000000000 0.5705500000000000
0.6383000000000000 0.6888500000000000 0.0705500000000000
0.6383000000000000 0.6888500000000000 0.5705500000000000
0.1586100000000000 0.2048650000000000 0.0158400000000000
0.1586100000000000 0.2048650000000000 0.5158400000000000
0.1586100000000000 0.7048650000000000 0.0158400000000000
0.1586100000000000 0.7048650000000000 0.5158400000000000
0.6586100000000000 0.2048650000000000 0.0158400000000000
0.6586100000000000 0.2048650000000000 0.5158400000000000
0.6586100000000000 0.7048650000000000 0.0158400000000000
0.6586100000000000 0.7048650000000000 0.5158400000000000
0.1842550000000000 0.3437500000000001 0.4495700000000000
0.1842550000000000 0.3437500000000000 0.9495699999999999
0.1842550000000000 0.8437500000000000 0.4495700000000000
0.1842550000000000 0.8437500000000000 0.9495699999999999
0.6842550000000001 0.3437500000000001 0.4495700000000000
0.6842550000000001 0.3437500000000000 0.9495699999999999
0.6842550000000001 0.8437500000000000 0.4495700000000000
0.6842550000000001 0.8437500000000000 0.9495699999999999
0.1888500000000000 0.3617000000000001 0.4294500000000000
0.1888500000000000 0.3617000000000000 0.9294499999999999
0.1888500000000000 0.8617000000000000 0.4294500000000000
0.1888500000000000 0.8617000000000000 0.9294499999999999
0.6888500000000000 0.3617000000000001 0.4294500000000000
0.6888500000000000 0.3617000000000000 0.9294499999999999
0.6888500000000001 0.8617000000000000 0.4294500000000000
0.6888500000000000 0.8617000000000000 0.9294499999999999
0.2293500000000000 0.2871500000000000 0.0399000000000000
0.2293500000000000 0.2871500000000000 0.5399000000000000
0.2293500000000000 0.7871499999999999 0.0399000000000000
0.2293500000000000 0.7871499999999999 0.5399000000000000
0.7293499999999999 0.2871500000000000 0.0399000000000000
0.7293499999999999 0.2871500000000000 0.5399000000000000
0.7293499999999999 0.7871499999999999 0.0399000000000000
0.7293499999999999 0.7871499999999999 0.5399000000000000
0.2029000000000000 0.3182000000000000 0.0614000000000000
0.2029000000000000 0.3182000000000000 0.5614000000000000
0.2029000000000000 0.8181999999999999 0.0614000000000000
0.2029000000000000 0.8181999999999999 0.5614000000000000
0.7028999999999999 0.3182000000000000 0.0614000000000000
0.7028999999999999 0.3182000000000000 0.5614000000000000
0.7028999999999999 0.8181999999999999 0.0614000000000000
0.7028999999999999 0.8181999999999999 0.5614000000000000
0.1861999999999999 0.2762500000000000 0.0519500000000000
0.1861999999999999 0.2762499999999999 0.5519499999999999
0.1861999999999999 0.7762500000000000 0.0519500000000000
0.1861999999999999 0.7762500000000000 0.5519499999999999
0.6861999999999999 0.2762500000000000 0.0519500000000000
0.6861999999999999 0.2762499999999999 0.5519499999999999
0.6861999999999999 0.7762500000000000 0.0519500000000000
0.6861999999999999 0.7762500000000000 0.5519499999999999
0.2048650000000000 0.3413900000000000 0.4841600000000000
0.2048650000000000 0.3413900000000000 0.9841599999999999
0.2048650000000000 0.8413900000000001 0.4841600000000000
0.2048650000000000 0.8413900000000001 0.9841599999999999
0.7048650000000000 0.3413900000000000 0.4841600000000000
0.7048650000000000 0.3413900000000000 0.9841599999999999
0.7048650000000000 0.8413900000000001 0.4841600000000000
0.7048650000000000 0.8413900000000001 0.9841599999999999
0.4495700000000000 0.3437500000000000 0.1842550000000000
0.4495700000000000 0.3437500000000000 0.6842550000000001
0.4495700000000000 0.8437500000000000 0.1842550000000000
0.4495700000000000 0.8437500000000000 0.6842550000000001
0.9495699999999999 0.3437500000000000 0.1842550000000000
0.9495699999999999 0.3437500000000000 0.6842550000000001
0.9495699999999999 0.8437500000000000 0.1842550000000000
0.9495699999999999 0.8437500000000000 0.6842550000000001
0.4294500000000000 0.3617000000000000 0.1888500000000000
0.4294500000000000 0.3617000000000000 0.6888500000000000
0.4294500000000000 0.8617000000000000 0.1888500000000000
0.4294500000000000 0.8617000000000000 0.6888500000000000
0.9294499999999999 0.3617000000000000 0.1888500000000000
0.9294499999999999 0.3617000000000000 0.6888500000000000
0.9294500000000000 0.8617000000000000 0.1888500000000000
0.9294500000000000 0.8617000000000000 0.6888500000000000
0.0399000000000000 0.2871500000000000 0.2293500000000000
0.0399000000000000 0.2871500000000000 0.7293499999999999
0.0399000000000000 0.7871499999999999 0.2293500000000000
0.0399000000000000 0.7871499999999999 0.7293499999999999
0.5399000000000000 0.2871500000000000 0.2293500000000000
0.5399000000000000 0.2871500000000000 0.7293499999999999
0.5399000000000000 0.7871499999999999 0.2293500000000000
0.5399000000000000 0.7871499999999999 0.7293499999999999
0.0614000000000000 0.3182000000000000 0.2029000000000000
0.0614000000000000 0.3182000000000000 0.7028999999999999
0.0614000000000000 0.8181999999999999 0.2029000000000000
0.0614000000000000 0.8181999999999999 0.7028999999999999
0.5614000000000000 0.3182000000000000 0.2029000000000000
0.5614000000000000 0.3182000000000000 0.7028999999999999
0.5614000000000000 0.8181999999999999 0.2029000000000000
0.5614000000000000 0.8181999999999999 0.7028999999999999
0.0519500000000000 0.2762500000000000 0.1862000000000000
0.0519500000000000 0.2762499999999999 0.6861999999999999
0.0519500000000000 0.7762500000000000 0.1862000000000000
0.0519500000000000 0.7762500000000000 0.6861999999999999
0.5519499999999999 0.2762500000000000 0.1862000000000000
0.5519499999999999 0.2762499999999999 0.6861999999999999
0.5519499999999999 0.7762500000000000 0.1862000000000000
0.5519499999999999 0.7762500000000000 0.6861999999999999
0.4841600000000000 0.3413900000000000 0.2048650000000000
0.4841599999999999 0.3413900000000000 0.7048650000000000
0.4841599999999999 0.8413900000000001 0.2048650000000000
0.4841599999999999 0.8413900000000001 0.7048650000000000
0.9841599999999999 0.3413900000000000 0.2048650000000000
0.9841599999999999 0.3413900000000000 0.7048650000000000
0.9841599999999999 0.8413900000000001 0.2048650000000000
0.9841599999999999 0.8413900000000001 0.7048650000000000
0.0000000000000000 0.3750000000000000 0.2500000000000000
0.0000000000000000 0.3750000000000000 0.7500000000000000
0.0000000000000000 0.8750000000000000 0.2500000000000000
0.0000000000000000 0.8750000000000000 0.7500000000000000
0.5000000000000000 0.3750000000000000 0.2500000000000000
0.4999999999999999 0.3750000000000000 0.7500000000000000
0.5000000000000001 0.8750000000000000 0.2500000000000000
0.5000000000000001 0.8750000000000000 0.7500000000000000
0.4495700000000000 0.1562500000000000 0.3157450000000000
0.4495700000000000 0.1562500000000000 0.8157449999999999
0.4495700000000000 0.6562500000000000 0.3157450000000000
0.4495700000000000 0.6562500000000000 0.8157449999999999
0.9495699999999999 0.1562500000000000 0.3157450000000000
0.9495699999999999 0.1562500000000000 0.8157449999999999
0.9495699999999999 0.6562500000000000 0.3157450000000000
0.9495699999999999 0.6562500000000000 0.8157449999999999
0.4294500000000000 0.1383000000000000 0.3111500000000000
0.4294500000000000 0.1383000000000000 0.8111500000000000
0.4294500000000000 0.6383000000000000 0.3111500000000000
0.4294500000000000 0.6383000000000000 0.8111500000000000
0.9294499999999999 0.1383000000000000 0.3111500000000000
0.9294499999999999 0.1383000000000000 0.8111500000000000
0.9294499999999999 0.6383000000000000 0.3111500000000000
0.9294499999999999 0.6383000000000000 0.8111500000000000
0.4841600000000000 0.1586100000000000 0.2951350000000000
0.4841599999999999 0.1586100000000000 0.7951349999999999
0.4841599999999999 0.6586100000000000 0.2951350000000000
0.4841599999999999 0.6586100000000000 0.7951349999999999
0.9841599999999999 0.1586100000000000 0.2951350000000000
0.9841599999999999 0.1586100000000000 0.7951349999999999
0.9841599999999999 0.6586100000000000 0.2951350000000000
0.9841599999999999 0.6586100000000000 0.7951349999999999
0.0000000000000000 0.1250000000000000 0.2500000000000000
0.0000000000000000 0.1250000000000000 0.7500000000000000
0.0000000000000000 0.6250000000000000 0.2500000000000000
0.0000000000000000 0.6250000000000000 0.7500000000000000
0.5000000000000000 0.1250000000000000 0.2500000000000000
0.4999999999999999 0.1250000000000000 0.7500000000000000
0.4999999999999999 0.6250000000000000 0.2500000000000000
0.4999999999999999 0.6250000000000000 0.7500000000000000
0.1562500000000000 0.0504300000000000 0.1842550000000000
0.1562500000000000 0.0504300000000000 0.6842550000000001
0.1562500000000000 0.5504299999999999 0.1842550000000000
0.1562500000000000 0.5504299999999999 0.6842550000000001
0.6562500000000000 0.0504300000000000 0.1842550000000000
0.6562500000000000 0.0504300000000000 0.6842550000000001
0.6562500000000000 0.5504299999999999 0.1842550000000000
0.6562500000000000 0.5504299999999999 0.6842550000000001
0.1383000000000000 0.0705500000000000 0.1888500000000000
0.1383000000000000 0.0705500000000000 0.6888500000000000
0.1383000000000000 0.5705500000000000 0.1888500000000000
0.1383000000000000 0.5705500000000000 0.6888500000000000
0.6383000000000000 0.0705500000000000 0.1888500000000000
0.6383000000000000 0.0705500000000000 0.6888500000000000
0.6383000000000000 0.5705500000000000 0.1888500000000000
0.6383000000000000 0.5705500000000000 0.6888500000000000
0.2128500000000000 0.4601000000000000 0.2293500000000000
0.2128500000000000 0.4601000000000000 0.7293499999999999
0.2128500000000000 0.9601000000000000 0.2293500000000000
0.2128500000000000 0.9601000000000000 0.7293499999999999
0.7128500000000000 0.4601000000000000 0.2293500000000000
0.7128500000000000 0.4601000000000000 0.7293499999999999
0.7128500000000000 0.9601000000000000 0.2293500000000000
0.7128500000000000 0.9601000000000000 0.7293499999999999
0.1818000000000000 0.4386000000000000 0.2029000000000000
0.1818000000000000 0.4386000000000000 0.7028999999999999
0.1818000000000000 0.9386000000000000 0.2029000000000000
0.1818000000000000 0.9386000000000000 0.7028999999999999
0.6818000000000000 0.4386000000000000 0.2029000000000000
0.6818000000000000 0.4386000000000000 0.7028999999999999
0.6818000000000000 0.9386000000000000 0.2029000000000000
0.6818000000000000 0.9386000000000000 0.7028999999999999
0.2237499999999999 0.4480500000000000 0.1862000000000000
0.2237499999999999 0.4480500000000000 0.6861999999999999
0.2237499999999999 0.9480500000000002 0.1862000000000000
0.2237499999999999 0.9480500000000002 0.6861999999999999
0.7237499999999998 0.4480500000000000 0.1862000000000000
0.7237499999999998 0.4480500000000000 0.6861999999999999
0.7237499999999998 0.9480500000000002 0.1862000000000000
0.7237499999999998 0.9480500000000002 0.6861999999999999
0.1586100000000000 0.0158400000000000 0.2048650000000000
0.1586100000000000 0.0158400000000000 0.7048650000000000
0.1586100000000000 0.5158400000000000 0.2048650000000000
0.1586100000000000 0.5158400000000000 0.7048650000000000
0.6586100000000000 0.0158400000000000 0.2048650000000000
0.6586100000000000 0.0158400000000000 0.7048650000000000
0.6586100000000000 0.5158400000000000 0.2048650000000000
0.6586100000000000 0.5158400000000000 0.7048650000000000
0.1250000000000000 0.0000000000000000 0.2500000000000000
0.1250000000000000 0.0000000000000000 0.7500000000000000
0.1250000000000000 0.5000000000000000 0.2500000000000000
0.1250000000000000 0.4999999999999999 0.7500000000000000
0.6250000000000000 0.0000000000000000 0.2500000000000000
0.6250000000000000 0.0000000000000000 0.7500000000000000
0.6250000000000000 0.5000000000000000 0.2500000000000000
0.6250000000000000 0.4999999999999999 0.7500000000000000
0.0504300000000000 0.3437500000000000 0.3157450000000000
0.0504300000000000 0.3437500000000000 0.8157449999999999
0.0504300000000000 0.8437500000000000 0.3157450000000000
0.0504300000000000 0.8437500000000000 0.8157449999999999
0.5504299999999999 0.3437500000000000 0.3157450000000000
0.5504299999999999 0.3437500000000000 0.8157449999999999
0.5504299999999999 0.8437500000000000 0.3157450000000000
0.5504299999999999 0.8437500000000000 0.8157449999999999
0.0705500000000000 0.3617000000000000 0.3111500000000000
0.0705500000000000 0.3617000000000000 0.8111500000000000
0.0705500000000000 0.8617000000000000 0.3111500000000000
0.0705500000000000 0.8617000000000000 0.8111500000000000
0.5705500000000000 0.3617000000000000 0.3111500000000000
0.5705500000000000 0.3617000000000000 0.8111500000000000
0.5705500000000001 0.8617000000000000 0.3111500000000000
0.5705500000000001 0.8617000000000000 0.8111500000000000
0.0158400000000000 0.3413900000000000 0.2951350000000000
0.0158400000000000 0.3413900000000000 0.7951349999999999
0.0158400000000000 0.8413900000000001 0.2951350000000000
0.0158400000000000 0.8413900000000001 0.7951349999999999
0.5158400000000000 0.3413900000000000 0.2951350000000000
0.5158400000000000 0.3413900000000000 0.7951349999999999
0.5158400000000000 0.8413900000000001 0.2951350000000000
0.5158400000000000 0.8413900000000001 0.7951349999999999
0.3437500000000001 0.4495700000000000 0.1842550000000000
0.3437500000000001 0.4495700000000000 0.6842550000000001
0.3437500000000000 0.9495699999999999 0.1842550000000000
0.3437500000000000 0.9495699999999999 0.6842550000000001
0.8437500000000000 0.4495700000000000 0.1842550000000000
0.8437500000000000 0.4495700000000000 0.6842550000000001
0.8437500000000000 0.9495699999999999 0.1842550000000000
0.8437500000000000 0.9495699999999999 0.6842550000000001
0.3617000000000001 0.4294500000000000 0.1888500000000000
0.3617000000000000 0.4294500000000000 0.6888500000000000
0.3617000000000000 0.9294499999999999 0.1888500000000000
0.3617000000000000 0.9294499999999999 0.6888500000000000
0.8617000000000000 0.4294500000000000 0.1888500000000000
0.8617000000000000 0.4294500000000000 0.6888500000000000
0.8617000000000000 0.9294499999999999 0.1888500000000000
0.8617000000000000 0.9294499999999999 0.6888500000000000
0.3413900000000000 0.4841600000000000 0.2048650000000000
0.3413900000000000 0.4841599999999999 0.7048650000000000
0.3413900000000000 0.9841599999999999 0.2048650000000000
0.3413900000000000 0.9841599999999999 0.7048650000000000
0.8413900000000001 0.4841600000000000 0.2048650000000000
0.8413900000000001 0.4841599999999999 0.7048650000000000
0.8413900000000001 0.9841599999999999 0.2048650000000000
0.8413900000000001 0.9841599999999999 0.7048650000000000
0.3750000000000000 0.0000000000000000 0.2500000000000000
0.3750000000000000 0.0000000000000000 0.7500000000000000
0.3750000000000000 0.5000000000000000 0.2500000000000000
0.3750000000000000 0.4999999999999999 0.7500000000000000
0.8750000000000000 0.0000000000000000 0.2500000000000000
0.8750000000000000 0.0000000000000000 0.7500000000000000
0.8750000000000000 0.5000000000000000 0.2500000000000000
0.8750000000000000 0.4999999999999999 0.7500000000000000
0.0504300000000000 0.1562500000000000 0.1842550000000000
0.0504300000000000 0.1562500000000000 0.6842550000000001
0.0504300000000000 0.6562500000000000 0.1842550000000000
0.0504300000000000 0.6562500000000000 0.6842550000000001
0.5504299999999999 0.1562500000000000 0.1842550000000000
0.5504299999999999 0.1562500000000000 0.6842550000000001
0.5504299999999999 0.6562500000000000 0.1842550000000000
0.5504299999999999 0.6562500000000000 0.6842550000000001
0.0705500000000000 0.1383000000000000 0.1888500000000000
0.0705500000000000 0.1383000000000000 0.6888500000000000
0.0705500000000000 0.6383000000000000 0.1888500000000000
0.0705500000000000 0.6383000000000000 0.6888500000000000
0.5705500000000000 0.1383000000000000 0.1888500000000000
0.5705500000000000 0.1383000000000000 0.6888500000000000
0.5705500000000000 0.6383000000000000 0.1888500000000000
0.5705500000000000 0.6383000000000000 0.6888500000000000
0.0158400000000000 0.1586100000000000 0.2048650000000000
0.0158400000000000 0.1586100000000000 0.7048650000000000
0.0158400000000000 0.6586100000000000 0.2048650000000000
0.0158400000000000 0.6586100000000000 0.7048650000000000
0.5158400000000000 0.1586100000000000 0.2048650000000000
0.5158400000000000 0.1586100000000000 0.7048650000000000
0.5158400000000000 0.6586100000000000 0.2048650000000000
0.5158400000000000 0.6586100000000000 0.7048650000000000
0.1562500000000000 0.4495700000000000 0.3157450000000000
0.1562500000000000 0.4495700000000000 0.8157449999999999
0.1562500000000000 0.9495699999999999 0.3157450000000000
0.1562500000000000 0.9495699999999999 0.8157449999999999
0.6562500000000000 0.4495700000000000 0.3157450000000000
0.6562500000000000 0.4495700000000000 0.8157449999999999
0.6562499999999999 0.9495699999999999 0.3157450000000000
0.6562499999999999 0.9495699999999999 0.8157449999999999
0.1383000000000000 0.4294500000000000 0.3111500000000000
0.1383000000000000 0.4294500000000000 0.8111500000000000
0.1383000000000000 0.9294499999999999 0.3111500000000000
0.1383000000000000 0.9294499999999999 0.8111500000000000
0.6383000000000000 0.4294500000000000 0.3111500000000000
0.6383000000000000 0.4294500000000000 0.8111500000000000
0.6383000000000000 0.9294499999999999 0.3111500000000000
0.6383000000000000 0.9294499999999999 0.8111500000000000
0.2128500000000000 0.0399000000000000 0.2706499999999998
0.2128500000000000 0.0399000000000000 0.7706499999999998
0.2128500000000000 0.5399000000000000 0.2706499999999998
0.2128500000000000 0.5399000000000000 0.7706499999999998
0.7128500000000000 0.0399000000000000 0.2706499999999998
0.7128500000000000 0.0399000000000000 0.7706499999999998
0.7128500000000000 0.5399000000000000 0.2706499999999998
0.7128500000000000 0.5399000000000000 0.7706499999999998
0.1818000000000000 0.0614000000000000 0.2971000000000000
0.1818000000000000 0.0614000000000000 0.7970999999999998
0.1818000000000000 0.5614000000000000 0.2971000000000000
0.1818000000000000 0.5614000000000000 0.7970999999999998
0.6818000000000000 0.0614000000000000 0.2971000000000000
0.6818000000000000 0.0614000000000000 0.7970999999999998
0.6818000000000000 0.5614000000000000 0.2971000000000000
0.6818000000000000 0.5614000000000000 0.7970999999999998
0.2237499999999999 0.0519500000000000 0.3138000000000000
0.2237499999999999 0.0519500000000000 0.8138000000000000
0.2237499999999999 0.5519499999999999 0.3138000000000000
0.2237499999999999 0.5519499999999999 0.8138000000000000
0.7237499999999998 0.0519500000000000 0.3138000000000000
0.7237499999999998 0.0519500000000000 0.8138000000000000
0.7237499999999998 0.5519499999999999 0.3138000000000000
0.7237499999999998 0.5519499999999999 0.8138000000000000
0.1586100000000000 0.4841600000000000 0.2951350000000000
0.1586100000000000 0.4841599999999999 0.7951349999999999
0.1586100000000000 0.9841599999999999 0.2951350000000000
0.1586100000000000 0.9841599999999999 0.7951349999999999
0.6586100000000000 0.4841600000000000 0.2951350000000000
0.6586100000000000 0.4841599999999999 0.7951349999999999
0.6586100000000000 0.9841599999999999 0.2951350000000000
0.6586100000000000 0.9841599999999999 0.7951349999999999
0.3437500000000000 0.0504300000000000 0.3157450000000000
0.3437500000000000 0.0504300000000000 0.8157449999999999
0.3437500000000000 0.5504299999999999 0.3157450000000000
0.3437500000000000 0.5504299999999999 0.8157449999999999
0.8437500000000000 0.0504300000000000 0.3157450000000000
0.8437500000000000 0.0504300000000000 0.8157449999999999
0.8437500000000000 0.5504299999999999 0.3157450000000000
0.8437500000000000 0.5504299999999999 0.8157449999999999
0.3617000000000000 0.0705500000000000 0.3111500000000000
0.3617000000000000 0.0705500000000000 0.8111500000000000
0.3617000000000000 0.5705500000000000 0.3111500000000000
0.3617000000000000 0.5705500000000000 0.8111500000000000
0.8617000000000000 0.0705500000000000 0.3111500000000000
0.8617000000000000 0.0705500000000000 0.8111500000000000
0.8617000000000000 0.5705500000000000 0.3111500000000000
0.8617000000000000 0.5705500000000000 0.8111500000000000
0.3413900000000000 0.0158400000000000 0.2951350000000000
0.3413900000000000 0.0158400000000000 0.7951349999999999
0.3413900000000000 0.5158400000000000 0.2951350000000000
0.3413900000000000 0.5158400000000000 0.7951349999999999
0.8413900000000001 0.0158400000000000 0.2951350000000000
0.8413900000000001 0.0158400000000000 0.7951349999999999
0.8413900000000001 0.5158400000000000 0.2951350000000000
0.8413900000000001 0.5158400000000000 0.7951349999999999
0.4385250000000000 0.2539500000000000 0.0614750000000000
0.4385250000000000 0.2539500000000000 0.5614749999999999
0.4385250000000000 0.7539500000000000 0.0614750000000000
0.4385250000000000 0.7539500000000000 0.5614749999999999
0.9385250000000001 0.2539500000000000 0.0614750000000000
0.9385250000000001 0.2539500000000000 0.5614749999999999
0.9385250000000001 0.7539500000000000 0.0614750000000000
0.9385250000000001 0.7539500000000000 0.5614749999999999
0.4342550000000000 0.1995700000000000 0.0937500000000000
0.4342550000000000 0.1995699999999999 0.5937500000000000
0.4342550000000000 0.6995700000000000 0.0937500000000000
0.4342550000000000 0.6995700000000000 0.5937500000000000
0.9342550000000001 0.1995700000000000 0.0937500000000000
0.9342550000000001 0.1995699999999999 0.5937500000000000
0.9342550000000001 0.6995700000000000 0.0937500000000000
0.9342550000000001 0.6995700000000000 0.5937500000000000
0.4388499999999999 0.1794500000000000 0.1117000000000000
0.4388499999999999 0.1794500000000000 0.6117000000000000
0.4388499999999999 0.6794499999999999 0.1117000000000000
0.4388499999999999 0.6794499999999999 0.6117000000000000
0.9388500000000000 0.1794500000000000 0.1117000000000000
0.9388500000000000 0.1794500000000000 0.6117000000000000
0.9388500000000000 0.6794499999999999 0.1117000000000000
0.9388500000000000 0.6794499999999999 0.6117000000000000
0.4530500000000000 0.2927499999999998 0.0469500000000000
0.4530500000000000 0.2927499999999998 0.5469499999999999
0.4530500000000000 0.7927499999999998 0.0469500000000000
0.4530500000000000 0.7927499999999998 0.5469499999999999
0.9530500000000000 0.2927499999999998 0.0469500000000000
0.9530500000000000 0.2927499999999998 0.5469499999999999
0.9530500000000000 0.7927499999999998 0.0469500000000000
0.9530500000000000 0.7927499999999998 0.5469499999999999
0.4793500000000000 0.2898999999999998 0.0371500000000000
0.4793499999999999 0.2898999999999998 0.5371500000000000
0.4793499999999999 0.7898999999999998 0.0371500000000000
0.4793499999999999 0.7898999999999998 0.5371500000000000
0.9793499999999999 0.2898999999999998 0.0371500000000000
0.9793499999999999 0.2898999999999998 0.5371500000000000
0.9793499999999999 0.7898999999999998 0.0371500000000000
0.9793499999999999 0.7898999999999998 0.5371500000000000
0.4529000000000000 0.3114000000000000 0.0682000000000000
0.4529000000000000 0.3114000000000000 0.5681999999999999
0.4529000000000000 0.8114000000000000 0.0682000000000000
0.4529000000000000 0.8114000000000000 0.5681999999999999
0.9529000000000001 0.3114000000000000 0.0682000000000000
0.9529000000000001 0.3114000000000000 0.5681999999999999
0.9529000000000001 0.8114000000000000 0.0682000000000000
0.9529000000000001 0.8114000000000000 0.5681999999999999
0.4362000000000000 0.3019500000000000 0.0262500000000000
0.4362000000000000 0.3019500000000000 0.5262500000000000
0.4362000000000000 0.8019499999999999 0.0262500000000000
0.4362000000000000 0.8019499999999999 0.5262500000000000
0.9361999999999999 0.3019500000000000 0.0262500000000000
0.9361999999999999 0.3019500000000000 0.5262500000000000
0.9361999999999999 0.8019499999999999 0.0262500000000000
0.9361999999999999 0.8019499999999999 0.5262500000000000
0.4548650000000000 0.2341600000000000 0.0913900000000000
0.4548649999999999 0.2341600000000000 0.5913900000000000
0.4548649999999999 0.7341600000000000 0.0913900000000000
0.4548649999999999 0.7341600000000000 0.5913900000000000
0.9548650000000001 0.2341600000000000 0.0913900000000000
0.9548650000000001 0.2341600000000000 0.5913900000000000
0.9548650000000001 0.7341600000000000 0.0913900000000000
0.9548650000000001 0.7341600000000000 0.5913900000000000
0.2539500000000001 0.0614750000000000 0.4385250000000000
0.2539500000000000 0.0614750000000000 0.9385250000000001
0.2539500000000001 0.5614749999999999 0.4385250000000000
0.2539500000000000 0.5614749999999999 0.9385250000000001
0.7539500000000000 0.0614750000000000 0.4385250000000000
0.7539500000000000 0.0614750000000000 0.9385250000000001
0.7539500000000000 0.5614749999999999 0.4385250000000000
0.7539500000000000 0.5614749999999999 0.9385250000000001
0.1995699999999999 0.0657450000000000 0.4062499999999998
0.1995699999999999 0.0657450000000000 0.9062499999999999
0.1995699999999999 0.5657449999999999 0.4062499999999998
0.1995699999999999 0.5657450000000001 0.9062499999999999
0.6995700000000000 0.0657450000000000 0.4062499999999998
0.6995700000000001 0.0657450000000000 0.9062499999999999
0.6995700000000000 0.5657449999999999 0.4062499999999998
0.6995700000000001 0.5657450000000001 0.9062499999999999
0.1794500000000000 0.0611500000000000 0.3883000000000000
0.1794500000000000 0.0611500000000000 0.8883000000000000
0.1794500000000000 0.5611500000000000 0.3883000000000000
0.1794500000000000 0.5611500000000001 0.8883000000000000
0.6794499999999999 0.0611500000000000 0.3883000000000000
0.6794500000000000 0.0611500000000000 0.8883000000000000
0.6794499999999999 0.5611500000000000 0.3883000000000000
0.6794500000000000 0.5611500000000001 0.8883000000000000
0.2927499999999999 0.0469500000000000 0.4530500000000000
0.2927499999999998 0.0469500000000000 0.9530500000000000
0.2927499999999999 0.5469499999999999 0.4530500000000000
0.2927499999999998 0.5469499999999999 0.9530500000000000
0.7927499999999998 0.0469500000000000 0.4530500000000000
0.7927499999999998 0.0469500000000000 0.9530500000000000
0.7927499999999998 0.5469499999999999 0.4530500000000000
0.7927499999999998 0.5469499999999999 0.9530500000000000
0.2341600000000000 0.0451350000000000 0.4086100000000000
0.2341600000000000 0.0451350000000000 0.9086099999999999
0.2341600000000000 0.5451350000000000 0.4086100000000000
0.2341600000000000 0.5451350000000000 0.9086099999999999
0.7341600000000000 0.0451350000000000 0.4086100000000000
0.7341600000000000 0.0451350000000000 0.9086099999999999
0.7341600000000000 0.5451350000000000 0.4086100000000000
0.7341600000000000 0.5451350000000000 0.9086099999999999
0.0614750000000000 0.2460500000000000 0.0614750000000000
0.0614750000000000 0.2460500000000000 0.5614749999999999
0.0614750000000000 0.7460500000000000 0.0614750000000000
0.0614750000000000 0.7460500000000000 0.5614749999999999
0.5614749999999999 0.2460500000000000 0.0614750000000000
0.5614749999999999 0.2460500000000000 0.5614749999999999
0.5614749999999999 0.7460500000000000 0.0614750000000000
0.5614749999999999 0.7460500000000000 0.5614749999999999
0.0657450000000000 0.3004300000000000 0.0937500000000000
0.0657450000000000 0.3004300000000000 0.5937500000000000
0.0657450000000000 0.8004299999999999 0.0937500000000000
0.0657450000000000 0.8004299999999999 0.5937500000000000
0.5657449999999999 0.3004300000000000 0.0937500000000000
0.5657449999999999 0.3004300000000000 0.5937500000000000
0.5657449999999999 0.8004299999999999 0.0937500000000000
0.5657449999999999 0.8004299999999999 0.5937500000000000
0.0611500000000000 0.3205499999999999 0.1117000000000000
0.0611500000000000 0.3205499999999999 0.6117000000000000
0.0611500000000000 0.8205499999999999 0.1117000000000000
0.0611500000000000 0.8205499999999999 0.6117000000000000
0.5611500000000000 0.3205499999999999 0.1117000000000000
0.5611500000000000 0.3205499999999999 0.6117000000000000
0.5611500000000000 0.8205499999999999 0.1117000000000000
0.5611500000000000 0.8205499999999999 0.6117000000000000
0.0469500000000000 0.2072500000000000 0.0469500000000000
0.0469500000000000 0.2072500000000000 0.5469499999999999
0.0469500000000000 0.7072499999999999 0.0469500000000000
0.0469500000000000 0.7072499999999999 0.5469499999999999
0.5469499999999999 0.2072500000000000 0.0469500000000000
0.5469499999999999 0.2072500000000000 0.5469499999999999
0.5469499999999999 0.7072499999999999 0.0469500000000000
0.5469499999999999 0.7072499999999999 0.5469499999999999
0.0206500000000000 0.2101000000000000 0.0371500000000000
0.0206500000000000 0.2101000000000000 0.5371500000000000
0.0206500000000000 0.7101000000000000 0.0371500000000000
0.0206500000000000 0.7101000000000000 0.5371500000000000
0.5206500000000001 0.2101000000000000 0.0371500000000000
0.5206500000000001 0.2101000000000000 0.5371500000000000
0.5206500000000001 0.7101000000000000 0.0371500000000000
0.5206500000000001 0.7101000000000000 0.5371500000000000
0.0471000000000000 0.1886000000000000 0.0682000000000000
0.0471000000000000 0.1886000000000000 0.5681999999999999
0.0471000000000000 0.6886000000000000 0.0682000000000000
0.0471000000000000 0.6886000000000000 0.5681999999999999
0.5471000000000000 0.1886000000000000 0.0682000000000000
0.5471000000000000 0.1886000000000000 0.5681999999999999
0.5471000000000000 0.6886000000000000 0.0682000000000000
0.5471000000000000 0.6886000000000000 0.5681999999999999
0.0638000000000000 0.1980500000000000 0.0262500000000000
0.0638000000000000 0.1980500000000000 0.5262500000000000
0.0638000000000000 0.6980500000000001 0.0262500000000000
0.0638000000000000 0.6980500000000001 0.5262500000000000
0.5638000000000000 0.1980500000000000 0.0262500000000000
0.5638000000000000 0.1980500000000000 0.5262500000000000
0.5638000000000000 0.6980500000000001 0.0262500000000000
0.5638000000000000 0.6980500000000001 0.5262500000000000
0.0451350000000000 0.2658400000000000 0.0913900000000000
0.0451350000000000 0.2658400000000000 0.5913900000000000
0.0451350000000000 0.7658400000000001 0.0913900000000000
0.0451350000000000 0.7658400000000001 0.5913900000000000
0.5451350000000000 0.2658400000000000 0.0913900000000000
0.5451350000000000 0.2658400000000000 0.5913900000000000
0.5451350000000000 0.7658400000000001 0.0913900000000000
0.5451350000000000 0.7658400000000001 0.5913900000000000
0.2460500000000000 0.4385250000000001 0.4385250000000000
0.2460500000000000 0.4385250000000000 0.9385250000000001
0.2460500000000000 0.9385250000000001 0.4385250000000000
0.2460500000000000 0.9385250000000001 0.9385250000000001
0.7460500000000000 0.4385250000000001 0.4385250000000000
0.7460500000000000 0.4385250000000000 0.9385250000000001
0.7460500000000000 0.9385250000000001 0.4385250000000000
0.7460500000000000 0.9385250000000001 0.9385250000000001
0.3004300000000000 0.4342550000000000 0.4062499999999998
0.3004300000000000 0.4342550000000000 0.9062499999999999
0.3004300000000000 0.9342550000000001 0.4062499999999998
0.3004300000000000 0.9342550000000002 0.9062499999999999
0.8004299999999999 0.4342550000000000 0.4062499999999998
0.8004300000000000 0.4342550000000000 0.9062499999999999
0.8004299999999999 0.9342550000000001 0.4062499999999998
0.8004300000000000 0.9342550000000002 0.9062499999999999
0.3205499999999999 0.4388499999999999 0.3883000000000000
0.3205499999999999 0.4388499999999999 0.8883000000000000
0.3205499999999999 0.9388500000000000 0.3883000000000000
0.3205499999999999 0.9388500000000000 0.8883000000000000
0.8205499999999999 0.4388499999999999 0.3883000000000000
0.8205500000000000 0.4388499999999999 0.8883000000000000
0.8205499999999999 0.9388500000000000 0.3883000000000000
0.8205500000000000 0.9388500000000000 0.8883000000000000
0.2072500000000000 0.4530500000000000 0.4530500000000000
0.2072500000000000 0.4530500000000000 0.9530500000000000
0.2072500000000000 0.9530500000000000 0.4530500000000000
0.2072500000000000 0.9530499999999998 0.9530500000000000
0.7072499999999999 0.4530500000000000 0.4530500000000000
0.7072499999999999 0.4530500000000000 0.9530500000000000
0.7072499999999999 0.9530500000000000 0.4530500000000000
0.7072499999999999 0.9530499999999998 0.9530500000000000
0.2101000000000000 0.4793499999999999 0.4628499999999998
0.2101000000000000 0.4793500000000001 0.9628499999999999
0.2101000000000000 0.9793499999999999 0.4628499999999998
0.2101000000000000 0.9793499999999998 0.9628499999999999
0.7101000000000000 0.4793499999999999 0.4628499999999998
0.7101000000000000 0.4793500000000001 0.9628499999999999
0.7101000000000000 0.9793499999999999 0.4628499999999998
0.7100999999999998 0.9793499999999998 0.9628499999999999
0.1886000000000000 0.4529000000000001 0.4318000000000000
0.1886000000000000 0.4529000000000000 0.9318000000000000
0.1886000000000000 0.9529000000000001 0.4318000000000000
0.1886000000000000 0.9529000000000000 0.9318000000000000
0.6886000000000000 0.4529000000000001 0.4318000000000000
0.6886000000000000 0.4529000000000000 0.9318000000000000
0.6886000000000000 0.9529000000000001 0.4318000000000000
0.6886000000000000 0.9529000000000000 0.9318000000000000
0.1980500000000000 0.4362000000000000 0.4737499999999999
0.1980500000000000 0.4362000000000000 0.9737499999999998
0.1980500000000000 0.9361999999999999 0.4737499999999999
0.1980500000000000 0.9361999999999999 0.9737499999999998
0.6980500000000001 0.4362000000000000 0.4737499999999999
0.6980500000000001 0.4362000000000000 0.9737499999999998
0.6980500000000001 0.9361999999999999 0.4737499999999999
0.6980500000000001 0.9361999999999999 0.9737499999999998
0.2658400000000000 0.4548650000000000 0.4086100000000000
0.2658400000000000 0.4548649999999999 0.9086099999999999
0.2658400000000000 0.9548650000000001 0.4086100000000000
0.2658400000000000 0.9548650000000000 0.9086099999999999
0.7658400000000001 0.4548650000000000 0.4086100000000000
0.7658400000000001 0.4548649999999999 0.9086099999999999
0.7658400000000001 0.9548650000000001 0.4086100000000000
0.7658400000000001 0.9548650000000000 0.9086099999999999
0.4385250000000001 0.2460500000000000 0.4385250000000000
0.4385250000000000 0.2460500000000000 0.9385250000000001
0.4385250000000001 0.7460500000000000 0.4385250000000000
0.4385250000000000 0.7460500000000000 0.9385250000000001
0.9385250000000001 0.2460500000000000 0.4385250000000000
0.9385250000000001 0.2460500000000000 0.9385250000000001
0.9385250000000001 0.7460500000000000 0.4385250000000000
0.9385250000000001 0.7460500000000000 0.9385250000000001
0.4342550000000000 0.3004300000000000 0.4062499999999998
0.4342550000000000 0.3004300000000000 0.9062499999999999
0.4342550000000000 0.8004299999999999 0.4062499999999998
0.4342550000000000 0.8004300000000000 0.9062499999999999
0.9342550000000001 0.3004300000000000 0.4062499999999998
0.9342550000000002 0.3004300000000000 0.9062499999999999
0.9342550000000001 0.8004299999999999 0.4062499999999998
0.9342550000000002 0.8004300000000000 0.9062499999999999
0.4388499999999999 0.3205499999999999 0.3883000000000000
0.4388499999999999 0.3205499999999999 0.8883000000000000
0.4388499999999999 0.8205499999999999 0.3883000000000000
0.4388499999999999 0.8205500000000000 0.8883000000000000
0.9388500000000000 0.3205499999999999 0.3883000000000000
0.9388500000000000 0.3205499999999999 0.8883000000000000
0.9388500000000000 0.8205499999999999 0.3883000000000000
0.9388500000000000 0.8205500000000000 0.8883000000000000
0.4548650000000000 0.2658400000000000 0.4086100000000000
0.4548649999999999 0.2658400000000000 0.9086099999999999
0.4548649999999999 0.7658400000000001 0.4086100000000000
0.4548649999999999 0.7658400000000001 0.9086099999999999
0.9548650000000001 0.2658400000000000 0.4086100000000000
0.9548650000000000 0.2658400000000000 0.9086099999999999
0.9548650000000001 0.7658400000000001 0.4086100000000000
0.9548650000000000 0.7658400000000001 0.9086099999999999
0.2460500000000000 0.0614750000000000 0.0614750000000000
0.2460500000000000 0.0614750000000000 0.5614749999999999
0.2460500000000000 0.5614749999999999 0.0614750000000000
0.2460500000000000 0.5614749999999999 0.5614749999999999
0.7460500000000000 0.0614750000000000 0.0614750000000000
0.7460500000000000 0.0614750000000000 0.5614749999999999
0.7460500000000000 0.5614749999999999 0.0614750000000000
0.7460500000000000 0.5614749999999999 0.5614749999999999
0.3004300000000000 0.0657450000000000 0.0937500000000000
0.3004300000000000 0.0657450000000000 0.5937500000000000
0.3004300000000000 0.5657449999999999 0.0937500000000000
0.3004300000000000 0.5657449999999999 0.5937500000000000
0.8004299999999999 0.0657450000000000 0.0937500000000000
0.8004299999999999 0.0657450000000000 0.5937500000000000
0.8004299999999999 0.5657449999999999 0.0937500000000000
0.8004299999999999 0.5657449999999999 0.5937500000000000
0.3205499999999999 0.0611500000000000 0.1117000000000000
0.3205499999999999 0.0611500000000000 0.6117000000000000
0.3205499999999999 0.5611500000000000 0.1117000000000000
0.3205499999999999 0.5611500000000000 0.6117000000000000
0.8205499999999999 0.0611500000000000 0.1117000000000000
0.8205499999999999 0.0611500000000000 0.6117000000000000
0.8205499999999999 0.5611500000000000 0.1117000000000000
0.8205499999999999 0.5611500000000000 0.6117000000000000
0.2658400000000000 0.0451350000000000 0.0913900000000000
0.2658400000000000 0.0451350000000000 0.5913900000000000
0.2658400000000000 0.5451350000000000 0.0913900000000000
0.2658400000000000 0.5451350000000000 0.5913900000000000
0.7658400000000001 0.0451350000000000 0.0913900000000000
0.7658400000000001 0.0451350000000000 0.5913900000000000
0.7658400000000001 0.5451350000000000 0.0913900000000000
0.7658400000000001 0.5451350000000000 0.5913900000000000
0.0614750000000000 0.2539500000000001 0.4385250000000000
0.0614750000000000 0.2539500000000000 0.9385250000000001
0.0614750000000000 0.7539500000000000 0.4385250000000000
0.0614750000000000 0.7539500000000000 0.9385250000000001
0.5614749999999999 0.2539500000000001 0.4385250000000000
0.5614749999999999 0.2539500000000000 0.9385250000000001
0.5614749999999999 0.7539500000000000 0.4385250000000000
0.5614749999999999 0.7539500000000000 0.9385250000000001
0.0657450000000000 0.1995699999999999 0.4062499999999998
0.0657450000000000 0.1995699999999999 0.9062499999999999
0.0657450000000000 0.6995700000000000 0.4062499999999998
0.0657450000000000 0.6995700000000001 0.9062499999999999
0.5657449999999999 0.1995699999999999 0.4062499999999998
0.5657450000000001 0.1995699999999999 0.9062499999999999
0.5657449999999999 0.6995700000000000 0.4062499999999998
0.5657450000000001 0.6995700000000001 0.9062499999999999
0.0611500000000000 0.1794500000000000 0.3883000000000000
0.0611500000000000 0.1794500000000000 0.8883000000000000
0.0611500000000000 0.6794499999999999 0.3883000000000000
0.0611500000000000 0.6794500000000000 0.8883000000000000
0.5611500000000000 0.1794500000000000 0.3883000000000000
0.5611500000000001 0.1794500000000000 0.8883000000000000
0.5611500000000000 0.6794499999999999 0.3883000000000000
0.5611500000000001 0.6794500000000000 0.8883000000000000
0.0469500000000000 0.2927499999999999 0.4530500000000000
0.0469500000000000 0.2927499999999998 0.9530500000000000
0.0469500000000000 0.7927499999999998 0.4530500000000000
0.0469500000000000 0.7927499999999998 0.9530500000000000
0.5469499999999999 0.2927499999999999 0.4530500000000000
0.5469499999999999 0.2927499999999998 0.9530500000000000
0.5469499999999999 0.7927499999999998 0.4530500000000000
0.5469499999999999 0.7927499999999998 0.9530500000000000
0.0451350000000000 0.2341600000000000 0.4086100000000000
0.0451350000000000 0.2341600000000000 0.9086099999999999
0.0451350000000000 0.7341600000000000 0.4086100000000000
0.0451350000000000 0.7341600000000000 0.9086099999999999
0.5451350000000000 0.2341600000000000 0.4086100000000000
0.5451350000000000 0.2341600000000000 0.9086099999999999
0.5451350000000000 0.7341600000000000 0.4086100000000000
0.5451350000000000 0.7341600000000000 0.9086099999999999
0.2539500000000001 0.4385250000000000 0.0614750000000000
0.2539500000000001 0.4385250000000000 0.5614749999999999
0.2539500000000000 0.9385250000000001 0.0614750000000000
0.2539500000000000 0.9385250000000001 0.5614749999999999
0.7539500000000000 0.4385250000000000 0.0614750000000000
0.7539500000000000 0.4385250000000000 0.5614749999999999
0.7539500000000000 0.9385250000000001 0.0614750000000000
0.7539500000000000 0.9385250000000001 0.5614749999999999
0.1995699999999999 0.4342550000000000 0.0937500000000000
0.1995699999999999 0.4342550000000000 0.5937500000000000
0.1995699999999999 0.9342550000000001 0.0937500000000000
0.1995699999999999 0.9342550000000001 0.5937500000000000
0.6995700000000000 0.4342550000000000 0.0937500000000000
0.6995700000000000 0.4342550000000000 0.5937500000000000
0.6995700000000000 0.9342550000000001 0.0937500000000000
0.6995700000000000 0.9342550000000001 0.5937500000000000
0.1794500000000000 0.4388499999999999 0.1117000000000000
0.1794500000000000 0.4388499999999999 0.6117000000000000
0.1794500000000000 0.9388500000000000 0.1117000000000000
0.1794500000000000 0.9388500000000000 0.6117000000000000
0.6794499999999999 0.4388499999999999 0.1117000000000000
0.6794499999999999 0.4388499999999999 0.6117000000000000
0.6794499999999999 0.9388500000000000 0.1117000000000000
0.6794499999999999 0.9388500000000000 0.6117000000000000
0.2927499999999999 0.4530500000000000 0.0469500000000000
0.2927499999999999 0.4530500000000000 0.5469499999999999
0.2927499999999998 0.9530500000000000 0.0469500000000000
0.2927499999999998 0.9530500000000000 0.5469499999999999
0.7927499999999998 0.4530500000000000 0.0469500000000000
0.7927499999999998 0.4530500000000000 0.5469499999999999
0.7927499999999998 0.9530500000000000 0.0469500000000000
0.7927499999999998 0.9530500000000000 0.5469499999999999
0.2341600000000000 0.4548650000000000 0.0913900000000000
0.2341600000000000 0.4548649999999999 0.5913900000000000
0.2341600000000000 0.9548650000000001 0.0913900000000000
0.2341600000000000 0.9548650000000001 0.5913900000000000
0.7341600000000000 0.4548650000000000 0.0913900000000000
0.7341600000000000 0.4548649999999999 0.5913900000000000
0.7341600000000000 0.9548650000000001 0.0913900000000000
0.7341600000000000 0.9548650000000001 0.5913900000000000
0.0614750000000000 0.4385250000000000 0.2539500000000000
0.0614750000000000 0.4385250000000000 0.7539500000000000
0.0614750000000000 0.9385250000000001 0.2539500000000000
0.0614750000000000 0.9385250000000001 0.7539500000000000
0.5614749999999999 0.4385250000000000 0.2539500000000000
0.5614749999999999 0.4385250000000000 0.7539500000000000
0.5614749999999999 0.9385250000000001 0.2539500000000000
0.5614749999999999 0.9385250000000001 0.7539500000000000
0.0937500000000000 0.4342550000000000 0.1995700000000000
0.0937500000000000 0.4342550000000000 0.6995700000000000
0.0937500000000000 0.9342550000000001 0.1995700000000000
0.0937500000000000 0.9342550000000001 0.6995700000000000
0.5937500000000000 0.4342550000000000 0.1995700000000000
0.5937500000000000 0.4342550000000000 0.6995700000000000
0.5937500000000000 0.9342550000000001 0.1995700000000000
0.5937500000000000 0.9342550000000001 0.6995700000000000
0.1117000000000000 0.4388499999999999 0.1794500000000000
0.1117000000000000 0.4388499999999999 0.6794499999999999
0.1117000000000000 0.9388500000000000 0.1794500000000000
0.1117000000000000 0.9388500000000000 0.6794499999999999
0.6117000000000000 0.4388499999999999 0.1794500000000000
0.6117000000000000 0.4388499999999999 0.6794499999999999
0.6117000000000000 0.9388500000000000 0.1794500000000000
0.6117000000000000 0.9388500000000000 0.6794499999999999
0.0913900000000000 0.4548650000000000 0.2341600000000000
0.0913900000000000 0.4548649999999999 0.7341600000000000
0.0913900000000000 0.9548650000000001 0.2341600000000000
0.0913900000000000 0.9548650000000001 0.7341600000000000
0.5913900000000000 0.4548650000000000 0.2341600000000000
0.5913900000000000 0.4548649999999999 0.7341600000000000
0.5913900000000000 0.9548650000000001 0.2341600000000000
0.5913900000000000 0.9548650000000001 0.7341600000000000
0.4385250000000001 0.4385250000000000 0.2460500000000000
0.4385250000000001 0.4385250000000000 0.7460500000000000
0.4385250000000000 0.9385250000000001 0.2460500000000000
0.4385250000000000 0.9385250000000001 0.7460500000000000
0.9385250000000001 0.4385250000000000 0.2460500000000000
0.9385250000000001 0.4385250000000000 0.7460500000000000
0.9385250000000001 0.9385250000000001 0.2460500000000000
0.9385250000000001 0.9385250000000001 0.7460500000000000
0.4342550000000000 0.4062499999999998 0.3004300000000000
0.4342550000000000 0.4062499999999998 0.8004299999999999
0.4342550000000000 0.9062499999999999 0.3004300000000000
0.4342550000000000 0.9062499999999999 0.8004299999999999
0.9342550000000001 0.4062499999999998 0.3004300000000000
0.9342550000000001 0.4062499999999998 0.8004299999999999
0.9342550000000002 0.9062499999999999 0.3004300000000000
0.9342550000000002 0.9062499999999999 0.8004299999999999
0.4388499999999999 0.3883000000000000 0.3205499999999999
0.4388499999999999 0.3883000000000000 0.8205499999999999
0.4388499999999999 0.8883000000000000 0.3205499999999999
0.4388499999999999 0.8883000000000000 0.8205499999999999
0.9388500000000000 0.3883000000000000 0.3205499999999999
0.9388500000000000 0.3883000000000000 0.8205499999999999
0.9388500000000000 0.8883000000000000 0.3205499999999999
0.9388500000000000 0.8883000000000000 0.8205499999999999
0.4548650000000000 0.4086100000000000 0.2658400000000000
0.4548649999999999 0.4086100000000000 0.7658400000000001
0.4548649999999999 0.9086099999999999 0.2658400000000000
0.4548649999999999 0.9086099999999999 0.7658400000000001
0.9548650000000001 0.4086100000000000 0.2658400000000000
0.9548650000000001 0.4086100000000000 0.7658400000000001
0.9548650000000000 0.9086099999999999 0.2658400000000000
0.9548650000000000 0.9086099999999999 0.7658400000000001
0.4385250000000000 0.0614750000000000 0.2539500000000000
0.4385250000000000 0.0614750000000000 0.7539500000000000
0.4385250000000000 0.5614749999999999 0.2539500000000000
0.4385250000000000 0.5614749999999999 0.7539500000000000
0.9385250000000001 0.0614750000000000 0.2539500000000000
0.9385250000000001 0.0614750000000000 0.7539500000000000
0.9385250000000001 0.5614749999999999 0.2539500000000000
0.9385250000000001 0.5614749999999999 0.7539500000000000
0.4062499999999998 0.0657450000000000 0.1995700000000000
0.4062499999999998 0.0657450000000000 0.6995700000000000
0.4062499999999998 0.5657449999999999 0.1995700000000000
0.4062499999999998 0.5657449999999999 0.6995700000000000
0.9062499999999999 0.0657450000000000 0.1995700000000000
0.9062499999999999 0.0657450000000000 0.6995700000000000
0.9062499999999999 0.5657449999999999 0.1995700000000000
0.9062499999999999 0.5657449999999999 0.6995700000000000
0.3883000000000000 0.0611500000000000 0.1794500000000000
0.3883000000000000 0.0611500000000000 0.6794499999999999
0.3883000000000000 0.5611500000000000 0.1794500000000000
0.3883000000000000 0.5611500000000000 0.6794499999999999
0.8883000000000000 0.0611500000000000 0.1794500000000000
0.8883000000000000 0.0611500000000000 0.6794499999999999
0.8883000000000000 0.5611500000000000 0.1794500000000000
0.8883000000000000 0.5611500000000000 0.6794499999999999
0.4530500000000000 0.0469500000000000 0.2927499999999998
0.4530500000000000 0.0469500000000000 0.7927499999999998
0.4530500000000000 0.5469499999999999 0.2927499999999998
0.4530500000000000 0.5469499999999999 0.7927499999999998
0.9530500000000000 0.0469500000000000 0.2927499999999998
0.9530500000000000 0.0469500000000000 0.7927499999999998
0.9530500000000000 0.5469499999999999 0.2927499999999998
0.9530500000000000 0.5469499999999999 0.7927499999999998
0.4086100000000000 0.0451350000000000 0.2341600000000000
0.4086100000000000 0.0451350000000000 0.7341600000000000
0.4086100000000000 0.5451350000000000 0.2341600000000000
0.4086100000000000 0.5451350000000000 0.7341600000000000
0.9086099999999999 0.0451350000000000 0.2341600000000000
0.9086099999999999 0.0451350000000000 0.7341600000000000
0.9086099999999999 0.5451350000000000 0.2341600000000000
0.9086099999999999 0.5451350000000000 0.7341600000000000
0.0614750000000000 0.0614750000000000 0.2460500000000000
0.0614750000000000 0.0614750000000000 0.7460500000000000
0.0614750000000000 0.5614749999999999 0.2460500000000000
0.0614750000000000 0.5614749999999999 0.7460500000000000
0.5614749999999999 0.0614750000000000 0.2460500000000000
0.5614749999999999 0.0614750000000000 0.7460500000000000
0.5614749999999999 0.5614749999999999 0.2460500000000000
0.5614749999999999 0.5614749999999999 0.7460500000000000
0.0657450000000000 0.0937500000000000 0.3004300000000000
0.0657450000000000 0.0937500000000000 0.8004299999999999
0.0657450000000000 0.5937500000000000 0.3004300000000000
0.0657450000000000 0.5937500000000000 0.8004299999999999
0.5657449999999999 0.0937500000000000 0.3004300000000000
0.5657449999999999 0.0937500000000000 0.8004299999999999
0.5657449999999999 0.5937500000000000 0.3004300000000000
0.5657449999999999 0.5937500000000000 0.8004299999999999
0.0611500000000000 0.1117000000000000 0.3205499999999999
0.0611500000000000 0.1117000000000000 0.8205499999999999
0.0611500000000000 0.6117000000000000 0.3205499999999999
0.0611500000000000 0.6117000000000000 0.8205499999999999
0.5611500000000000 0.1117000000000000 0.3205499999999999
0.5611500000000000 0.1117000000000000 0.8205499999999999
0.5611500000000000 0.6117000000000000 0.3205499999999999
0.5611500000000000 0.6117000000000000 0.8205499999999999
0.0469500000000000 0.0469500000000000 0.2072500000000000
0.0469500000000000 0.0469500000000000 0.7072499999999999
0.0469500000000000 0.5469499999999999 0.2072500000000000
0.0469500000000000 0.5469499999999999 0.7072499999999999
0.5469499999999999 0.0469500000000000 0.2072500000000000
0.5469499999999999 0.0469500000000000 0.7072499999999999
0.5469499999999999 0.5469499999999999 0.2072500000000000
0.5469499999999999 0.5469499999999999 0.7072499999999999
0.0206500000000000 0.0371500000000000 0.2101000000000000
0.0206500000000000 0.0371500000000000 0.7101000000000000
0.0206500000000000 0.5371500000000000 0.2101000000000000
0.0206500000000000 0.5371500000000000 0.7101000000000000
0.5206500000000001 0.0371500000000000 0.2101000000000000
0.5206500000000001 0.0371500000000000 0.7101000000000000
0.5206500000000001 0.5371500000000000 0.2101000000000000
0.5206500000000001 0.5371500000000000 0.7101000000000000
0.0471000000000000 0.0682000000000000 0.1886000000000000
0.0471000000000000 0.0682000000000000 0.6886000000000000
0.0471000000000000 0.5681999999999999 0.1886000000000000
0.0471000000000000 0.5681999999999999 0.6886000000000000
0.5471000000000000 0.0682000000000000 0.1886000000000000
0.5471000000000000 0.0682000000000000 0.6886000000000000
0.5471000000000000 0.5681999999999999 0.1886000000000000
0.5471000000000000 0.5681999999999999 0.6886000000000000
0.0638000000000000 0.0262500000000000 0.1980500000000000
0.0638000000000000 0.0262500000000000 0.6980500000000001
0.0638000000000000 0.5262500000000000 0.1980500000000000
0.0638000000000000 0.5262500000000000 0.6980500000000001
0.5638000000000000 0.0262500000000000 0.1980500000000000
0.5638000000000000 0.0262500000000000 0.6980500000000001
0.5638000000000000 0.5262500000000000 0.1980500000000000
0.5638000000000000 0.5262500000000000 0.6980500000000001
0.0451350000000000 0.0913900000000000 0.2658400000000000
0.0451350000000000 0.0913900000000000 0.7658400000000001
0.0451350000000000 0.5913900000000000 0.2658400000000000
0.0451350000000000 0.5913900000000000 0.7658400000000001
0.5451350000000000 0.0913900000000000 0.2658400000000000
0.5451350000000000 0.0913900000000000 0.7658400000000001
0.5451350000000000 0.5913900000000000 0.2658400000000000
0.5451350000000000 0.5913900000000000 0.7658400000000001
0.0937500000000000 0.0657450000000000 0.3004300000000000
0.0937500000000000 0.0657450000000000 0.8004299999999999
0.0937500000000000 0.5657449999999999 0.3004300000000000
0.0937500000000000 0.5657449999999999 0.8004299999999999
0.5937500000000000 0.0657450000000000 0.3004300000000000
0.5937500000000000 0.0657450000000000 0.8004299999999999
0.5937500000000000 0.5657449999999999 0.3004300000000000
0.5937500000000000 0.5657449999999999 0.8004299999999999
0.1117000000000000 0.0611500000000000 0.3205499999999999
0.1117000000000000 0.0611500000000000 0.8205499999999999
0.1117000000000000 0.5611500000000000 0.3205499999999999
0.1117000000000000 0.5611500000000000 0.8205499999999999
0.6117000000000000 0.0611500000000000 0.3205499999999999
0.6117000000000000 0.0611500000000000 0.8205499999999999
0.6117000000000000 0.5611500000000000 0.3205499999999999
0.6117000000000000 0.5611500000000000 0.8205499999999999
0.0913900000000000 0.0451350000000000 0.2658400000000000
0.0913900000000000 0.0451350000000000 0.7658400000000001
0.0913900000000000 0.5451350000000000 0.2658400000000000
0.0913900000000000 0.5451350000000000 0.7658400000000001
0.5913900000000000 0.0451350000000000 0.2658400000000000
0.5913900000000000 0.0451350000000000 0.7658400000000001
0.5913900000000000 0.5451350000000000 0.2658400000000000
0.5913900000000000 0.5451350000000000 0.7658400000000001
0.0657450000000000 0.4062499999999998 0.1995700000000000
0.0657450000000000 0.4062499999999998 0.6995700000000000
0.0657450000000000 0.9062499999999999 0.1995700000000000
0.0657450000000000 0.9062499999999999 0.6995700000000000
0.5657449999999999 0.4062499999999998 0.1995700000000000
0.5657449999999999 0.4062499999999998 0.6995700000000000
0.5657450000000001 0.9062499999999999 0.1995700000000000
0.5657450000000001 0.9062499999999999 0.6995700000000000
0.0611500000000000 0.3883000000000000 0.1794500000000000
0.0611500000000000 0.3883000000000000 0.6794499999999999
0.0611500000000000 0.8883000000000000 0.1794500000000000
0.0611500000000000 0.8883000000000000 0.6794499999999999
0.5611500000000000 0.3883000000000000 0.1794500000000000
0.5611500000000000 0.3883000000000000 0.6794499999999999
0.5611500000000001 0.8883000000000000 0.1794500000000000
0.5611500000000001 0.8883000000000000 0.6794499999999999
0.0451350000000000 0.4086100000000000 0.2341600000000000
0.0451350000000000 0.4086100000000000 0.7341600000000000
0.0451350000000000 0.9086099999999999 0.2341600000000000
0.0451350000000000 0.9086099999999999 0.7341600000000000
0.5451350000000000 0.4086100000000000 0.2341600000000000
0.5451350000000000 0.4086100000000000 0.7341600000000000
0.5451350000000000 0.9086099999999999 0.2341600000000000
0.5451350000000000 0.9086099999999999 0.7341600000000000
0.4062499999999999 0.4342550000000000 0.3004300000000000
0.4062499999999999 0.4342550000000000 0.8004299999999999
0.4062499999999998 0.9342550000000001 0.3004300000000000
0.4062499999999998 0.9342550000000001 0.8004299999999999
0.9062499999999999 0.4342550000000000 0.3004300000000000
0.9062499999999999 0.4342550000000000 0.8004299999999999
0.9062499999999998 0.9342550000000001 0.3004300000000000
0.9062499999999998 0.9342550000000001 0.8004299999999999
0.3883000000000000 0.4388499999999999 0.3205499999999999
0.3883000000000000 0.4388499999999999 0.8205499999999999
0.3883000000000000 0.9388500000000000 0.3205499999999999
0.3883000000000000 0.9388500000000000 0.8205499999999999
0.8883000000000000 0.4388499999999999 0.3205499999999999
0.8883000000000000 0.4388499999999999 0.8205499999999999
0.8883000000000000 0.9388500000000000 0.3205499999999999
0.8883000000000000 0.9388500000000000 0.8205499999999999
0.4086100000000000 0.4548650000000000 0.2658400000000000
0.4086100000000000 0.4548649999999999 0.7658400000000001
0.4086100000000000 0.9548650000000001 0.2658400000000000
0.4086100000000000 0.9548650000000001 0.7658400000000001
0.9086099999999999 0.4548650000000000 0.2658400000000000
0.9086099999999999 0.4548649999999999 0.7658400000000001
0.9086099999999999 0.9548650000000001 0.2658400000000000
0.9086099999999999 0.9548650000000001 0.7658400000000001
0.4342550000000000 0.0937500000000000 0.1995700000000000
0.4342550000000000 0.0937500000000000 0.6995700000000000
0.4342550000000000 0.5937500000000000 0.1995700000000000
0.4342550000000000 0.5937500000000000 0.6995700000000000
0.9342550000000001 0.0937500000000000 0.1995700000000000
0.9342550000000001 0.0937500000000000 0.6995700000000000
0.9342550000000001 0.5937500000000000 0.1995700000000000
0.9342550000000001 0.5937500000000000 0.6995700000000000
0.4388499999999999 0.1117000000000000 0.1794500000000000
0.4388499999999999 0.1117000000000000 0.6794499999999999
0.4388499999999999 0.6117000000000000 0.1794500000000000
0.4388499999999999 0.6117000000000000 0.6794499999999999
0.9388500000000000 0.1117000000000000 0.1794500000000000
0.9388500000000000 0.1117000000000000 0.6794499999999999
0.9388500000000000 0.6117000000000000 0.1794500000000000
0.9388500000000000 0.6117000000000000 0.6794499999999999
0.4793500000000000 0.0371500000000000 0.2898999999999998
0.4793499999999999 0.0371500000000000 0.7898999999999998
0.4793499999999999 0.5371500000000000 0.2898999999999998
0.4793499999999999 0.5371500000000000 0.7898999999999998
0.9793499999999999 0.0371500000000000 0.2898999999999998
0.9793499999999999 0.0371500000000000 0.7898999999999998
0.9793499999999999 0.5371500000000000 0.2898999999999998
0.9793499999999999 0.5371500000000000 0.7898999999999998
0.4529000000000000 0.0682000000000000 0.3114000000000000
0.4529000000000000 0.0682000000000000 0.8114000000000000
0.4529000000000000 0.5681999999999999 0.3114000000000000
0.4529000000000000 0.5681999999999999 0.8114000000000000
0.9529000000000001 0.0682000000000000 0.3114000000000000
0.9529000000000001 0.0682000000000000 0.8114000000000000
0.9529000000000001 0.5681999999999999 0.3114000000000000
0.9529000000000001 0.5681999999999999 0.8114000000000000
0.4362000000000000 0.0262500000000000 0.3019500000000000
0.4362000000000000 0.0262500000000000 0.8019499999999999
0.4362000000000000 0.5262500000000000 0.3019500000000000
0.4362000000000000 0.5262500000000000 0.8019499999999999
0.9361999999999999 0.0262500000000000 0.3019500000000000
0.9361999999999999 0.0262500000000000 0.8019499999999999
0.9361999999999999 0.5262500000000000 0.3019500000000000
0.9361999999999999 0.5262500000000000 0.8019499999999999
0.4548650000000000 0.0913900000000000 0.2341600000000000
0.4548649999999999 0.0913900000000000 0.7341600000000000
0.4548649999999999 0.5913900000000000 0.2341600000000000
0.4548649999999999 0.5913900000000000 0.7341600000000000
0.9548650000000001 0.0913900000000000 0.2341600000000000
0.9548650000000001 0.0913900000000000 0.7341600000000000
0.9548650000000001 0.5913900000000000 0.2341600000000000
0.9548650000000001 0.5913900000000000 0.7341600000000000
0.1995699999999999 0.0937500000000000 0.4342550000000000
0.1995699999999999 0.0937500000000000 0.9342550000000001
0.1995699999999999 0.5937500000000000 0.4342550000000000
0.1995699999999999 0.5937500000000000 0.9342550000000001
0.6995700000000000 0.0937500000000000 0.4342550000000000
0.6995700000000000 0.0937500000000000 0.9342550000000001
0.6995700000000000 0.5937500000000000 0.4342550000000000
0.6995700000000000 0.5937500000000000 0.9342550000000001
0.1794500000000000 0.1117000000000000 0.4388499999999999
0.1794500000000000 0.1117000000000000 0.9388500000000000
0.1794500000000000 0.6117000000000000 0.4388499999999999
0.1794500000000000 0.6117000000000000 0.9388500000000000
0.6794499999999999 0.1117000000000000 0.4388499999999999
0.6794499999999999 0.1117000000000000 0.9388500000000000
0.6794499999999999 0.6117000000000000 0.4388499999999999
0.6794499999999999 0.6117000000000000 0.9388500000000000
0.2898999999999998 0.0371500000000000 0.4793500000000000
0.2898999999999998 0.0371500000000000 0.9793499999999999
0.2898999999999998 0.5371500000000000 0.4793500000000000
0.2898999999999998 0.5371499999999999 0.9793499999999999
0.7898999999999998 0.0371500000000000 0.4793500000000000
0.7898999999999998 0.0371500000000000 0.9793499999999999
0.7898999999999998 0.5371500000000000 0.4793500000000000
0.7898999999999998 0.5371499999999999 0.9793499999999999
0.3114000000000001 0.0682000000000000 0.4529000000000000
0.3114000000000000 0.0682000000000000 0.9529000000000001
0.3114000000000001 0.5681999999999999 0.4529000000000000
0.3114000000000000 0.5681999999999999 0.9529000000000001
0.8114000000000000 0.0682000000000000 0.4529000000000000
0.8114000000000000 0.0682000000000000 0.9529000000000001
0.8114000000000000 0.5681999999999999 0.4529000000000000
0.8114000000000000 0.5681999999999999 0.9529000000000001
0.3019500000000001 0.0262500000000000 0.4362000000000000
0.3019500000000000 0.0262500000000000 0.9361999999999999
0.3019500000000001 0.5262500000000000 0.4362000000000000
0.3019500000000000 0.5262500000000000 0.9361999999999999
0.8019499999999999 0.0262500000000000 0.4362000000000000
0.8019499999999999 0.0262500000000000 0.9361999999999999
0.8019499999999999 0.5262500000000000 0.4362000000000000
0.8019499999999999 0.5262500000000000 0.9361999999999999
0.2341600000000000 0.0913900000000000 0.4548650000000000
0.2341600000000000 0.0913900000000000 0.9548650000000001
0.2341600000000000 0.5913900000000000 0.4548650000000000
0.2341600000000000 0.5913900000000000 0.9548650000000001
0.7341600000000000 0.0913900000000000 0.4548650000000000
0.7341600000000000 0.0913900000000000 0.9548650000000001
0.7341600000000000 0.5913900000000000 0.4548650000000000
0.7341600000000000 0.5913900000000000 0.9548650000000001
0.1995699999999999 0.4062499999999998 0.0657450000000000
0.1995699999999999 0.4062499999999998 0.5657449999999999
0.1995699999999999 0.9062499999999999 0.0657450000000000
0.1995699999999999 0.9062499999999999 0.5657449999999999
0.6995700000000000 0.4062499999999998 0.0657450000000000
0.6995700000000000 0.4062499999999998 0.5657449999999999
0.6995700000000001 0.9062499999999999 0.0657450000000000
0.6995700000000001 0.9062499999999999 0.5657449999999999
0.1794500000000000 0.3883000000000000 0.0611500000000000
0.1794500000000000 0.3883000000000000 0.5611500000000000
0.1794500000000000 0.8883000000000000 0.0611500000000000
0.1794500000000000 0.8883000000000000 0.5611500000000000
0.6794499999999999 0.3883000000000000 0.0611500000000000
0.6794499999999999 0.3883000000000000 0.5611500000000000
0.6794500000000000 0.8883000000000000 0.0611500000000000
0.6794500000000000 0.8883000000000000 0.5611500000000000
0.2898999999999998 0.4628499999999998 0.0206500000000000
0.2898999999999998 0.4628499999999998 0.5206500000000001
0.2898999999999998 0.9628499999999999 0.0206500000000000
0.2898999999999998 0.9628499999999999 0.5206500000000001
0.7898999999999998 0.4628499999999998 0.0206500000000000
0.7898999999999998 0.4628499999999998 0.5206500000000001
0.7898999999999998 0.9628499999999999 0.0206500000000000
0.7898999999999998 0.9628499999999999 0.5206500000000001
0.3114000000000001 0.4318000000000000 0.0471000000000000
0.3114000000000001 0.4318000000000000 0.5471000000000000
0.3114000000000000 0.9318000000000000 0.0471000000000000
0.3114000000000000 0.9318000000000000 0.5471000000000000
0.8114000000000000 0.4318000000000000 0.0471000000000000
0.8114000000000000 0.4318000000000000 0.5471000000000000
0.8114000000000000 0.9318000000000000 0.0471000000000000
0.8114000000000000 0.9318000000000000 0.5471000000000000
0.3019500000000000 0.4737499999999999 0.0638000000000000
0.3019500000000000 0.4737499999999999 0.5638000000000000
0.3019500000000000 0.9737499999999998 0.0638000000000000
0.3019500000000000 0.9737499999999998 0.5638000000000000
0.8019499999999999 0.4737499999999999 0.0638000000000000
0.8019499999999999 0.4737499999999999 0.5638000000000000
0.8019499999999999 0.9737499999999998 0.0638000000000000
0.8019499999999999 0.9737499999999998 0.5638000000000000
0.2341600000000000 0.4086100000000000 0.0451350000000000
0.2341600000000000 0.4086100000000000 0.5451350000000000
0.2341600000000000 0.9086099999999999 0.0451350000000000
0.2341600000000000 0.9086099999999999 0.5451350000000000
0.7341600000000000 0.4086100000000000 0.0451350000000000
0.7341600000000000 0.4086100000000000 0.5451350000000000
0.7341600000000000 0.9086099999999999 0.0451350000000000
0.7341600000000000 0.9086099999999999 0.5451350000000000
0.4062499999999999 0.3004300000000000 0.4342550000000000
0.4062499999999998 0.3004300000000000 0.9342550000000001
0.4062499999999999 0.8004299999999999 0.4342550000000000
0.4062499999999998 0.8004299999999999 0.9342550000000001
0.9062499999999999 0.3004300000000000 0.4342550000000000
0.9062499999999998 0.3004300000000000 0.9342550000000001
0.9062499999999999 0.8004299999999999 0.4342550000000000
0.9062499999999998 0.8004299999999999 0.9342550000000001
0.3883000000000000 0.3205499999999999 0.4388499999999999
0.3883000000000000 0.3205499999999999 0.9388500000000000
0.3883000000000000 0.8205499999999999 0.4388499999999999
0.3883000000000000 0.8205499999999999 0.9388500000000000
0.8883000000000000 0.3205499999999999 0.4388499999999999
0.8883000000000000 0.3205499999999999 0.9388500000000000
0.8883000000000000 0.8205499999999999 0.4388499999999999
0.8883000000000000 0.8205499999999999 0.9388500000000000
0.4086100000000000 0.2658400000000000 0.4548650000000000
0.4086100000000000 0.2658400000000000 0.9548650000000001
0.4086100000000000 0.7658400000000001 0.4548650000000000
0.4086100000000000 0.7658400000000001 0.9548650000000001
0.9086099999999999 0.2658400000000000 0.4548650000000000
0.9086099999999999 0.2658400000000000 0.9548650000000001
0.9086099999999999 0.7658400000000001 0.4548650000000000
0.9086099999999999 0.7658400000000001 0.9548650000000001
0.3004300000000000 0.0937500000000000 0.0657450000000000
0.3004300000000000 0.0937500000000000 0.5657449999999999
0.3004300000000000 0.5937500000000000 0.0657450000000000
0.3004300000000000 0.5937500000000000 0.5657449999999999
0.8004299999999999 0.0937500000000000 0.0657450000000000
0.8004299999999999 0.0937500000000000 0.5657449999999999
0.8004299999999999 0.5937500000000000 0.0657450000000000
0.8004299999999999 0.5937500000000000 0.5657449999999999
0.3205499999999999 0.1117000000000000 0.0611500000000000
0.3205499999999999 0.1117000000000000 0.5611500000000000
0.3205499999999999 0.6117000000000000 0.0611500000000000
0.3205499999999999 0.6117000000000000 0.5611500000000000
0.8205499999999999 0.1117000000000000 0.0611500000000000
0.8205499999999999 0.1117000000000000 0.5611500000000000
0.8205499999999999 0.6117000000000000 0.0611500000000000
0.8205499999999999 0.6117000000000000 0.5611500000000000
0.2658400000000000 0.0913900000000000 0.0451350000000000
0.2658400000000000 0.0913900000000000 0.5451350000000000
0.2658400000000000 0.5913900000000000 0.0451350000000000
0.2658400000000000 0.5913900000000000 0.5451350000000000
0.7658400000000001 0.0913900000000000 0.0451350000000000
0.7658400000000001 0.0913900000000000 0.5451350000000000
0.7658400000000001 0.5913900000000000 0.0451350000000000
0.7658400000000001 0.5913900000000000 0.5451350000000000
0.0937500000000000 0.1995699999999999 0.4342550000000000
0.0937500000000000 0.1995699999999999 0.9342550000000001
0.0937500000000000 0.6995700000000000 0.4342550000000000
0.0937500000000000 0.6995700000000000 0.9342550000000001
0.5937500000000000 0.1995699999999999 0.4342550000000000
0.5937500000000000 0.1995699999999999 0.9342550000000001
0.5937500000000000 0.6995700000000000 0.4342550000000000
0.5937500000000000 0.6995700000000000 0.9342550000000001
0.1117000000000000 0.1794500000000000 0.4388499999999999
0.1117000000000000 0.1794500000000000 0.9388500000000000
0.1117000000000000 0.6794499999999999 0.4388499999999999
0.1117000000000000 0.6794499999999999 0.9388500000000000
0.6117000000000000 0.1794500000000000 0.4388499999999999
0.6117000000000000 0.1794500000000000 0.9388500000000000
0.6117000000000000 0.6794499999999999 0.4388499999999999
0.6117000000000000 0.6794499999999999 0.9388500000000000
0.0371500000000000 0.2898999999999998 0.4793500000000000
0.0371500000000000 0.2898999999999998 0.9793499999999999
0.0371500000000000 0.7898999999999998 0.4793500000000000
0.0371500000000000 0.7898999999999998 0.9793499999999999
0.5371500000000000 0.2898999999999998 0.4793500000000000
0.5371499999999999 0.2898999999999998 0.9793499999999999
0.5371500000000000 0.7898999999999998 0.4793500000000000
0.5371499999999999 0.7898999999999998 0.9793499999999999
0.0682000000000000 0.3114000000000001 0.4529000000000000
0.0682000000000000 0.3114000000000000 0.9529000000000001
0.0682000000000000 0.8114000000000000 0.4529000000000000
0.0682000000000000 0.8114000000000000 0.9529000000000001
0.5681999999999999 0.3114000000000001 0.4529000000000000
0.5681999999999999 0.3114000000000000 0.9529000000000001
0.5681999999999999 0.8114000000000000 0.4529000000000000
0.5681999999999999 0.8114000000000000 0.9529000000000001
0.0262500000000000 0.3019500000000001 0.4362000000000000
0.0262500000000000 0.3019500000000000 0.9361999999999999
0.0262500000000000 0.8019499999999999 0.4362000000000000
0.0262500000000000 0.8019499999999999 0.9361999999999999
0.5262500000000000 0.3019500000000001 0.4362000000000000
0.5262500000000000 0.3019500000000000 0.9361999999999999
0.5262500000000000 0.8019499999999999 0.4362000000000000
0.5262500000000000 0.8019499999999999 0.9361999999999999
0.0913900000000000 0.2341600000000000 0.4548650000000000
0.0913900000000000 0.2341600000000000 0.9548650000000001
0.0913900000000000 0.7341600000000000 0.4548650000000000
0.0913900000000000 0.7341600000000000 0.9548650000000001
0.5913900000000000 0.2341600000000000 0.4548650000000000
0.5913900000000000 0.2341600000000000 0.9548650000000001
0.5913900000000000 0.7341600000000000 0.4548650000000000
0.5913900000000000 0.7341600000000000 0.9548650000000001
0.3004300000000000 0.4062499999999999 0.4342550000000000
0.3004300000000000 0.4062499999999998 0.9342550000000001
0.3004300000000000 0.9062499999999999 0.4342550000000000
0.3004300000000000 0.9062499999999998 0.9342550000000001
0.8004299999999999 0.4062499999999999 0.4342550000000000
0.8004299999999999 0.4062499999999998 0.9342550000000001
0.8004300000000000 0.9062499999999999 0.4342550000000000
0.8004300000000000 0.9062499999999998 0.9342550000000001
0.3205499999999999 0.3883000000000000 0.4388499999999999
0.3205499999999999 0.3883000000000000 0.9388500000000000
0.3205499999999999 0.8883000000000000 0.4388499999999999
0.3205499999999999 0.8883000000000000 0.9388500000000000
0.8205499999999999 0.3883000000000000 0.4388499999999999
0.8205499999999999 0.3883000000000000 0.9388500000000000
0.8205500000000000 0.8883000000000000 0.4388499999999999
0.8205500000000000 0.8883000000000000 0.9388500000000000
0.2658400000000000 0.4086100000000000 0.4548650000000000
0.2658400000000000 0.4086100000000000 0.9548650000000001
0.2658400000000000 0.9086099999999999 0.4548650000000000
0.2658400000000000 0.9086099999999999 0.9548650000000001
0.7658400000000001 0.4086100000000000 0.4548650000000000
0.7658400000000001 0.4086100000000000 0.9548650000000001
0.7658400000000001 0.9086099999999999 0.4548650000000000
0.7658400000000001 0.9086099999999999 0.9548650000000001
0.4062499999999998 0.1995700000000000 0.0657450000000000
0.4062499999999998 0.1995699999999999 0.5657449999999999
0.4062499999999998 0.6995700000000000 0.0657450000000000
0.4062499999999998 0.6995700000000000 0.5657449999999999
0.9062499999999999 0.1995700000000000 0.0657450000000000
0.9062499999999999 0.1995699999999999 0.5657449999999999
0.9062499999999999 0.6995700000000000 0.0657450000000000
0.9062499999999999 0.6995700000000000 0.5657449999999999
0.3883000000000000 0.1794500000000000 0.0611500000000000
0.3883000000000000 0.1794500000000000 0.5611500000000000
0.3883000000000000 0.6794499999999999 0.0611500000000000
0.3883000000000000 0.6794499999999999 0.5611500000000000
0.8883000000000000 0.1794500000000000 0.0611500000000000
0.8883000000000000 0.1794500000000000 0.5611500000000000
0.8883000000000000 0.6794499999999999 0.0611500000000000
0.8883000000000000 0.6794499999999999 0.5611500000000000
0.4086100000000000 0.2341600000000000 0.0451350000000000
0.4086100000000000 0.2341600000000000 0.5451350000000000
0.4086100000000000 0.7341600000000000 0.0451350000000000
0.4086100000000000 0.7341600000000000 0.5451350000000000
0.9086099999999999 0.2341600000000000 0.0451350000000000
0.9086099999999999 0.2341600000000000 0.5451350000000000
0.9086099999999999 0.7341600000000000 0.0451350000000000
0.9086099999999999 0.7341600000000000 0.5451350000000000
0.0937500000000000 0.3004300000000000 0.0657450000000000
0.0937500000000000 0.3004300000000000 0.5657449999999999
0.0937500000000000 0.8004299999999999 0.0657450000000000
0.0937500000000000 0.8004299999999999 0.5657449999999999
0.5937500000000000 0.3004300000000000 0.0657450000000000
0.5937500000000000 0.3004300000000000 0.5657449999999999
0.5937500000000000 0.8004299999999999 0.0657450000000000
0.5937500000000000 0.8004299999999999 0.5657449999999999
0.1117000000000000 0.3205499999999999 0.0611500000000000
0.1117000000000000 0.3205499999999999 0.5611500000000000
0.1117000000000000 0.8205499999999999 0.0611500000000000
0.1117000000000000 0.8205499999999999 0.5611500000000000
0.6117000000000000 0.3205499999999999 0.0611500000000000
0.6117000000000000 0.3205499999999999 0.5611500000000000
0.6117000000000000 0.8205499999999999 0.0611500000000000
0.6117000000000000 0.8205499999999999 0.5611500000000000
0.0913900000000000 0.2658400000000000 0.0451350000000000
0.0913900000000000 0.2658400000000000 0.5451350000000000
0.0913900000000000 0.7658400000000001 0.0451350000000000
0.0913900000000000 0.7658400000000001 0.5451350000000000
0.5913900000000000 0.2658400000000000 0.0451350000000000
0.5913900000000000 0.2658400000000000 0.5451350000000000
0.5913900000000000 0.7658400000000001 0.0451350000000000
0.5913900000000000 0.7658400000000001 0.5451350000000000
0.2000070787614674 0.0482637767142945 0.0486735016940302
0.2000070787614674 0.0482637767142945 0.5486735016940302
0.2000070787614674 0.5482637767142944 0.0486735016940302
0.2000070787614674 0.5482637767142944 0.5486735016940302
0.7000070787614673 0.0482637767142945 0.0486735016940302
0.7000070787614673 0.0482637767142945 0.5486735016940302
0.7000070787614673 0.5482637767142944 0.0486735016940302
0.7000070787614673 0.5482637767142944 0.5486735016940302
0.4517366994474518 0.2000070809062823 0.4513260207012371
0.4517366994474517 0.2000070809062823 0.9513260207012372
0.4517366994474518 0.7000070809062823 0.4513260207012371
0.4517366994474517 0.7000070809062823 0.9513260207012372
0.9517366994474515 0.2000070809062823 0.4513260207012371
0.9517366994474514 0.2000070809062823 0.9513260207012372
0.9517366994474515 0.7000070809062823 0.4513260207012371
0.9517366994474514 0.7000070809062823 0.9513260207012372
0.4517362232857055 0.4513264983059699 0.2000070787614676
0.4517362232857055 0.4513264983059699 0.7000070787614676
0.4517362232857054 0.9513264983059699 0.2000070787614676
0.4517362232857054 0.9513264983059699 0.7000070787614676
0.9517362232857053 0.4513264983059699 0.2000070787614676
0.9517362232857053 0.4513264983059699 0.7000070787614676
0.9517362232857052 0.9513264983059699 0.2000070787614676
0.9517362232857052 0.9513264983059699 0.7000070787614676
0.0486739792987630 0.4517366994474519 0.2999929190937179
0.0486739792987630 0.4517366994474519 0.7999929190937178
0.0486739792987631 0.9517366994474518 0.2999929190937179
0.0486739792987631 0.9517366994474518 0.7999929190937178
0.5486739792987630 0.4517366994474519 0.2999929190937179
0.5486739792987630 0.4517366994474519 0.7999929190937178
0.5486739792987630 0.9517366994474518 0.2999929190937179
0.5486739792987630 0.9517366994474518 0.7999929190937178
0.3142213297206437 0.2076242036242232 0.3158925847449593
0.3142213297206437 0.2076242036242232 0.8158925847449593
0.3142213297206437 0.7076242036242233 0.3158925847449593
0.3142213297206437 0.7076242036242233 0.8158925847449593
0.8142213297206438 0.2076242036242232 0.3158925847449593
0.8142213297206438 0.2076242036242232 0.8158925847449593
0.8142213297206438 0.7076242036242233 0.3158925847449593
0.8142213297206438 0.7076242036242233 0.8158925847449593
0.2076242336214952 0.3142217564295062 0.3158924690943106
0.2076242336214952 0.3142217564295062 0.8158924690943106
0.2076242336214952 0.8142217564295062 0.3158924690943106
0.2076242336214952 0.8142217564295062 0.8158924690943106
0.7076242336214953 0.3142217564295062 0.3158924690943106
0.7076242336214953 0.3142217564295062 0.8158924690943106
0.7076242336214953 0.8142217564295062 0.3158924690943106
0.7076242336214953 0.8142217564295062 0.8158924690943106
