# mIm050_nIm050__open
1.000000
 34.1420000000000030   0.0000000000000000         0.0000000000
  0.0000000000000021  34.1420000000000030         0.0000000000
  0.0000000000000021   0.0000000000000021        34.1420000000
C C C C C C C C C C C C C C C C C C C C C C C C C C C C C C C C C C C C C C C C C C C C C C C C C C C C C C C C C C C C C C C C C C C C C C C C C C C C C C C C C C N N N N N N N N N N N N N N N N N N N N N N N N N N N N N N N N N N N N N N N N N N N N N N N N Zn Zn Zn Zn Zn Zn Zn Zn Zn Zn Zn Zn H H H H H H H H H H H H H H H H H H H H H H H H H H H H H H H H H H H H H H H H H H H H H H H H H H H H H H H H H H H H H H H H H H H H H H H H H H H H H H O N O O N O O N O O N O O N O O N O O N O O N O O N O O N O O N O O N O O N O O N O 
8 8 8 8 8 8 8 8 8 8 8 8 8 8 8 8 8 8 8 8 8 8 8 8 8 8 8 8 8 8 8 8 8 8 8 8 8 8 8 8 8 8 8 8 8 8 8 8 8 8 8 8 8 8 8 8 8 8 8 8 8 8 8 8 8 8 8 8 8 8 8 8 8 8 8 8 8 8 8 8 8 8 8 8 8 8 8 8 8 8 8 8 8 8 8 8 8 8 8 8 8 8 8 8 8 8 8 8 8 8 8 8 8 8 8 8 8 8 8 8 8 8 8 8 8 8 8 8 8 8 8 8 8 8 8 8 8 8 8 8 8 8 8 8 8 8 8 8 8 8 8 8 8 8 8 8 8 8 8 8 8 8 8 8 8 8 8 8 8 8 8 8 8 8 8 8 8 8 8 8 8 8 8 8 8 8 8 8 8 8 8 8 8 8 8 8 8 8 8 8 8 8 8 8 8 8 8 8 8 8 8 8 8 8 8 8 8 8 8 8 8 8 8 8 8 8 8 8 8 8 8 8 8 8 8 8 8 8 8 8 8 8 8 8 8 8 8 8 8 8 8 8 8 8 8 8 8 8 8 8 8 8 
Direct
0.1823500000000000 0.0055000000000000 0.3176500000000000
0.1823500000000000 0.0055000000000000 0.8176500000000000
0.1823500000000000 0.5054999999999999 0.3176500000000000
0.1823500000000000 0.5054999999999999 0.8176500000000000
0.6823500000000000 0.0055000000000000 0.3176500000000000
0.6823500000000000 0.0055000000000000 0.8176500000000000
0.6823500000000000 0.5054999999999999 0.3176500000000000
0.6823500000000000 0.5054999999999999 0.8176500000000000
0.4323500000000000 0.2555000000000000 0.0676500000000000
0.4323500000000000 0.2555000000000000 0.5676500000000000
0.4323500000000000 0.7555000000000002 0.0676500000000000
0.4323500000000000 0.7555000000000002 0.5676500000000000
0.9323500000000001 0.2555000000000000 0.0676500000000000
0.9323500000000001 0.2555000000000000 0.5676500000000000
0.9323500000000001 0.7555000000000002 0.0676500000000000
0.9323500000000001 0.7555000000000002 0.5676500000000000
0.0055000000000000 0.3176500000000000 0.1823500000000000
0.0055000000000000 0.3176500000000000 0.6823500000000000
0.0055000000000000 0.8176500000000000 0.1823500000000000
0.0055000000000000 0.8176500000000000 0.6823500000000000
0.5054999999999999 0.3176500000000000 0.1823500000000000
0.5054999999999999 0.3176500000000000 0.6823500000000000
0.5054999999999999 0.8176500000000000 0.1823500000000000
0.5054999999999999 0.8176500000000000 0.6823500000000000
0.2555000000000001 0.0676500000000000 0.4323500000000000
0.2555000000000000 0.0676500000000000 0.9323500000000001
0.2555000000000001 0.5676500000000000 0.4323500000000000
0.2555000000000000 0.5676500000000000 0.9323500000000001
0.7555000000000002 0.0676500000000000 0.4323500000000000
0.7555000000000001 0.0676500000000000 0.9323500000000001
0.7555000000000002 0.5676500000000000 0.4323500000000000
0.7555000000000001 0.5676500000000000 0.9323500000000001
0.3176500000000000 0.1823500000000000 0.0055000000000000
0.3176500000000000 0.1823500000000000 0.5054999999999999
0.3176500000000000 0.6823500000000000 0.0055000000000000
0.3176500000000000 0.6823500000000000 0.5054999999999999
0.8176500000000000 0.1823500000000000 0.0055000000000000
0.8176500000000000 0.1823500000000000 0.5054999999999999
0.8176500000000000 0.6823500000000000 0.0055000000000000
0.8176500000000000 0.6823500000000000 0.5054999999999999
0.0676500000000000 0.4323500000000000 0.2555000000000000
0.0676500000000000 0.4323500000000000 0.7555000000000002
0.0676500000000000 0.9323500000000001 0.2555000000000000
0.0676500000000000 0.9323500000000001 0.7555000000000002
0.5676500000000000 0.4323500000000000 0.2555000000000000
0.5676500000000000 0.4323500000000000 0.7555000000000002
0.5676500000000000 0.9323500000000001 0.2555000000000000
0.5676500000000000 0.9323500000000001 0.7555000000000002
0.3176500000000000 0.4945000000000000 0.3176500000000000
0.3176500000000000 0.4944999999999999 0.8176500000000000
0.3176500000000000 0.9945000000000001 0.3176500000000000
0.3176500000000000 0.9945000000000001 0.8176500000000000
0.8176500000000000 0.4945000000000000 0.3176500000000000
0.8176500000000000 0.4944999999999999 0.8176500000000000
0.8176500000000000 0.9945000000000001 0.3176500000000000
0.8176500000000000 0.9945000000000001 0.8176500000000000
0.0676500000000000 0.2445000000000000 0.0676500000000000
0.0676500000000000 0.2445000000000001 0.5676500000000000
0.0676500000000000 0.7445000000000001 0.0676500000000000
0.0676500000000000 0.7445000000000001 0.5676500000000000
0.5676500000000000 0.2445000000000000 0.0676500000000000
0.5676500000000000 0.2445000000000001 0.5676500000000000
0.5676500000000000 0.7445000000000001 0.0676500000000000
0.5676500000000000 0.7445000000000001 0.5676500000000000
0.1823500000000000 0.1823500000000000 0.4945000000000000
0.1823500000000000 0.1823500000000000 0.9945000000000001
0.1823500000000000 0.6823500000000000 0.4945000000000000
0.1823500000000000 0.6823500000000000 0.9945000000000001
0.6823500000000000 0.1823500000000000 0.4945000000000000
0.6823500000000000 0.1823500000000000 0.9945000000000001
0.6823500000000000 0.6823500000000000 0.4945000000000000
0.6823500000000000 0.6823500000000000 0.9945000000000001
0.4323500000000001 0.4323500000000000 0.2445000000000000
0.4323500000000001 0.4323500000000000 0.7445000000000001
0.4323500000000000 0.9323500000000001 0.2445000000000000
0.4323500000000000 0.9323500000000001 0.7445000000000001
0.9323500000000001 0.4323500000000000 0.2445000000000000
0.9323500000000001 0.4323500000000000 0.7445000000000001
0.9323500000000001 0.9323500000000001 0.2445000000000000
0.9323500000000001 0.9323500000000001 0.7445000000000001
0.3176500000000000 0.0055000000000000 0.1823500000000000
0.3176500000000000 0.0055000000000000 0.6823500000000000
0.3176500000000000 0.5054999999999999 0.1823500000000000
0.3176500000000000 0.5054999999999999 0.6823500000000000
0.8176500000000000 0.0055000000000000 0.1823500000000000
0.8176500000000000 0.0055000000000000 0.6823500000000000
0.8176500000000000 0.5054999999999999 0.1823500000000000
0.8176500000000000 0.5054999999999999 0.6823500000000000
0.0676500000000000 0.2555000000000001 0.4323500000000000
0.0676500000000000 0.2555000000000000 0.9323500000000001
0.0676500000000000 0.7555000000000002 0.4323500000000000
0.0676500000000000 0.7555000000000001 0.9323500000000001
0.5676500000000000 0.2555000000000001 0.4323500000000000
0.5676500000000000 0.2555000000000000 0.9323500000000001
0.5676500000000000 0.7555000000000002 0.4323500000000000
0.5676500000000000 0.7555000000000001 0.9323500000000001
0.4945000000000000 0.1823500000000000 0.1823500000000000
0.4944999999999999 0.1823500000000000 0.6823500000000000
0.4944999999999999 0.6823500000000000 0.1823500000000000
0.4944999999999999 0.6823500000000000 0.6823500000000000
0.9945000000000001 0.1823500000000000 0.1823500000000000
0.9945000000000001 0.1823500000000000 0.6823500000000000
0.9945000000000001 0.6823500000000000 0.1823500000000000
0.9945000000000001 0.6823500000000000 0.6823500000000000
0.2445000000000001 0.4323500000000001 0.4323500000000000
0.2445000000000001 0.4323500000000000 0.9323500000000001
0.2445000000000001 0.9323500000000001 0.4323500000000000
0.2445000000000000 0.9323500000000001 0.9323500000000001
0.7445000000000001 0.4323500000000001 0.4323500000000000
0.7445000000000001 0.4323500000000000 0.9323500000000001
0.7445000000000001 0.9323500000000001 0.4323500000000000
0.7445000000000001 0.9323500000000001 0.9323500000000001
0.1823500000000000 0.3176500000000000 0.0055000000000000
0.1823500000000000 0.3176500000000000 0.5054999999999999
0.1823500000000000 0.8176500000000000 0.0055000000000000
0.1823500000000000 0.8176500000000000 0.5054999999999999
0.6823500000000000 0.3176500000000000 0.0055000000000000
0.6823500000000000 0.3176500000000000 0.5054999999999999
0.6823500000000000 0.8176500000000000 0.0055000000000000
0.6823500000000000 0.8176500000000000 0.5054999999999999
0.4323500000000000 0.0676500000000000 0.2555000000000000
0.4323500000000000 0.0676500000000000 0.7555000000000002
0.4323500000000000 0.5676500000000000 0.2555000000000000
0.4323500000000000 0.5676500000000000 0.7555000000000002
0.9323500000000001 0.0676500000000000 0.2555000000000000
0.9323500000000001 0.0676500000000000 0.7555000000000002
0.9323500000000001 0.5676500000000000 0.2555000000000000
0.9323500000000001 0.5676500000000000 0.7555000000000002
0.3176500000000000 0.3176500000000000 0.4945000000000000
0.3176500000000000 0.3176500000000000 0.9945000000000001
0.3176500000000000 0.8176500000000000 0.4945000000000000
0.3176500000000000 0.8176500000000000 0.9945000000000001
0.8176500000000000 0.3176500000000000 0.4945000000000000
0.8176500000000000 0.3176500000000000 0.9945000000000001
0.8176500000000000 0.8176500000000000 0.4945000000000000
0.8176500000000000 0.8176500000000000 0.9945000000000001
0.0676500000000000 0.0676500000000000 0.2445000000000000
0.0676500000000000 0.0676500000000000 0.7445000000000001
0.0676500000000000 0.5676500000000000 0.2445000000000000
0.0676500000000000 0.5676500000000000 0.7445000000000001
0.5676500000000000 0.0676500000000000 0.2445000000000000
0.5676500000000000 0.0676500000000000 0.7445000000000001
0.5676500000000000 0.5676500000000000 0.2445000000000000
0.5676500000000000 0.5676500000000000 0.7445000000000001
0.4945000000000000 0.3176500000000000 0.3176500000000000
0.4944999999999999 0.3176500000000000 0.8176500000000000
0.4944999999999999 0.8176500000000000 0.3176500000000000
0.4944999999999999 0.8176500000000000 0.8176500000000000
0.9945000000000001 0.3176500000000000 0.3176500000000000
0.9945000000000001 0.3176500000000000 0.8176500000000000
0.9945000000000001 0.8176500000000000 0.3176500000000000
0.9945000000000001 0.8176500000000000 0.8176500000000000
0.2445000000000000 0.0676500000000000 0.0676500000000000
0.2445000000000001 0.0676500000000000 0.5676500000000000
0.2445000000000001 0.5676500000000000 0.0676500000000000
0.2445000000000001 0.5676500000000000 0.5676500000000000
0.7445000000000001 0.0676500000000000 0.0676500000000000
0.7445000000000001 0.0676500000000000 0.5676500000000000
0.7445000000000001 0.5676500000000000 0.0676500000000000
0.7445000000000001 0.5676500000000000 0.5676500000000000
0.0055000000000000 0.1823500000000000 0.3176500000000000
0.0055000000000000 0.1823500000000000 0.8176500000000000
0.0055000000000000 0.6823500000000000 0.3176500000000000
0.0055000000000000 0.6823500000000000 0.8176500000000000
0.5054999999999999 0.1823500000000000 0.3176500000000000
0.5054999999999999 0.1823500000000000 0.8176500000000000
0.5054999999999999 0.6823500000000000 0.3176500000000000
0.5054999999999999 0.6823500000000000 0.8176500000000000
0.2555000000000001 0.4323500000000000 0.0676500000000000
0.2555000000000001 0.4323500000000000 0.5676500000000000
0.2555000000000000 0.9323500000000001 0.0676500000000000
0.2555000000000000 0.9323500000000001 0.5676500000000000
0.7555000000000002 0.4323500000000000 0.0676500000000000
0.7555000000000002 0.4323500000000000 0.5676500000000000
0.7555000000000001 0.9323500000000001 0.0676500000000000
0.7555000000000001 0.9323500000000001 0.5676500000000000
0.1823500000000000 0.4945000000000000 0.1823500000000000
0.1823500000000000 0.4944999999999999 0.6823500000000000
0.1823500000000000 0.9945000000000001 0.1823500000000000
0.1823500000000000 0.9945000000000001 0.6823500000000000
0.6823500000000000 0.4945000000000000 0.1823500000000000
0.6823500000000000 0.4944999999999999 0.6823500000000000
0.6823500000000000 0.9945000000000001 0.1823500000000000
0.6823500000000000 0.9945000000000001 0.6823500000000000
0.4323500000000001 0.2445000000000001 0.4323500000000000
0.4323500000000000 0.2445000000000000 0.9323500000000001
0.4323500000000001 0.7445000000000001 0.4323500000000000
0.4323500000000000 0.7445000000000001 0.9323500000000001
0.9323500000000001 0.2445000000000001 0.4323500000000000
0.9323500000000001 0.2445000000000000 0.9323500000000001
0.9323500000000001 0.7445000000000001 0.4323500000000000
0.9323500000000001 0.7445000000000001 0.9323500000000001
0.1972000000000000 0.4457500000000000 0.3303500000000000
0.1972000000000000 0.4457500000000000 0.8303500000000000
0.1972000000000000 0.9457500000000000 0.3303500000000000
0.1972000000000000 0.9457500000000000 0.8303500000000000
0.6972000000000000 0.4457500000000000 0.3303500000000000
0.6972000000000000 0.4457500000000000 0.8303500000000000
0.6972000000000000 0.9457500000000000 0.3303500000000000
0.6972000000000000 0.9457500000000000 0.8303500000000000
0.4472000000000001 0.1957500000000000 0.0803499999999999
0.4472000000000001 0.1957500000000000 0.5803499999999999
0.4472000000000001 0.6957500000000001 0.0803499999999999
0.4472000000000001 0.6957500000000001 0.5803499999999999
0.9472000000000000 0.1957500000000000 0.0803499999999999
0.9472000000000000 0.1957500000000000 0.5803499999999999
0.9472000000000000 0.6957500000000001 0.0803499999999999
0.9472000000000000 0.6957500000000001 0.5803499999999999
0.4457500000000000 0.3303500000000000 0.1972000000000000
0.4457500000000000 0.3303500000000000 0.6972000000000000
0.4457500000000000 0.8303500000000000 0.1972000000000000
0.4457500000000000 0.8303500000000000 0.6972000000000000
0.9457500000000000 0.3303500000000000 0.1972000000000000
0.9457500000000000 0.3303500000000000 0.6972000000000000
0.9457500000000000 0.8303500000000000 0.1972000000000000
0.9457500000000000 0.8303500000000000 0.6972000000000000
0.1957500000000000 0.0803499999999999 0.4472000000000001
0.1957500000000000 0.0803499999999999 0.9472000000000000
0.1957500000000000 0.5803499999999999 0.4472000000000001
0.1957500000000000 0.5803499999999999 0.9472000000000000
0.6957500000000001 0.0803499999999999 0.4472000000000001
0.6957500000000000 0.0803499999999999 0.9472000000000000
0.6957500000000001 0.5803499999999999 0.4472000000000001
0.6957500000000000 0.5803499999999999 0.9472000000000000
0.3303500000000000 0.1972000000000000 0.4457500000000000
0.3303500000000000 0.1972000000000000 0.9457500000000000
0.3303500000000000 0.6972000000000000 0.4457500000000000
0.3303500000000000 0.6972000000000000 0.9457500000000000
0.8303500000000000 0.1972000000000000 0.4457500000000000
0.8303500000000000 0.1972000000000000 0.9457500000000000
0.8303500000000000 0.6972000000000000 0.4457500000000000
0.8303500000000000 0.6972000000000000 0.9457500000000000
0.0803499999999999 0.4472000000000001 0.1957500000000000
0.0803499999999999 0.4472000000000001 0.6957500000000001
0.0803499999999999 0.9472000000000000 0.1957500000000000
0.0803499999999999 0.9472000000000000 0.6957500000000001
0.5803499999999999 0.4472000000000001 0.1957500000000000
0.5803499999999999 0.4472000000000001 0.6957500000000001
0.5803499999999999 0.9472000000000000 0.1957500000000000
0.5803499999999999 0.9472000000000000 0.6957500000000001
0.4457500000000000 0.3028000000000000 0.1696500000000000
0.4457500000000000 0.3028000000000000 0.6696500000000001
0.4457500000000000 0.8028000000000001 0.1696500000000000
0.4457500000000000 0.8028000000000001 0.6696500000000001
0.9457500000000000 0.3028000000000000 0.1696500000000000
0.9457500000000000 0.3028000000000000 0.6696500000000001
0.9457500000000000 0.8028000000000001 0.1696500000000000
0.9457500000000000 0.8028000000000001 0.6696500000000001
0.1957500000000000 0.0528000000000000 0.4196500000000000
0.1957500000000000 0.0528000000000000 0.9196500000000001
0.1957500000000000 0.5528000000000000 0.4196500000000000
0.1957500000000000 0.5528000000000000 0.9196500000000001
0.6957500000000001 0.0528000000000000 0.4196500000000000
0.6957500000000000 0.0528000000000000 0.9196500000000001
0.6957500000000001 0.5528000000000000 0.4196500000000000
0.6957500000000000 0.5528000000000000 0.9196500000000001
0.3303500000000000 0.0542500000000000 0.3028000000000000
0.3303500000000000 0.0542500000000000 0.8028000000000001
0.3303500000000000 0.5542500000000000 0.3028000000000000
0.3303500000000000 0.5542500000000000 0.8028000000000001
0.8303500000000000 0.0542500000000000 0.3028000000000000
0.8303500000000000 0.0542500000000000 0.8028000000000001
0.8303500000000000 0.5542500000000000 0.3028000000000000
0.8303500000000000 0.5542500000000000 0.8028000000000001
0.0803499999999999 0.3042500000000002 0.0528000000000000
0.0803499999999999 0.3042500000000002 0.5528000000000000
0.0803499999999999 0.8042500000000001 0.0528000000000000
0.0803499999999999 0.8042500000000001 0.5528000000000000
0.5803499999999999 0.3042500000000002 0.0528000000000000
0.5803499999999999 0.3042500000000002 0.5528000000000000
0.5803499999999999 0.8042500000000001 0.0528000000000000
0.5803499999999999 0.8042500000000001 0.5528000000000000
0.1972000000000000 0.1696500000000000 0.0542500000000000
0.1972000000000000 0.1696500000000000 0.5542500000000000
0.1972000000000000 0.6696500000000001 0.0542500000000000
0.1972000000000000 0.6696500000000001 0.5542500000000000
0.6972000000000000 0.1696500000000000 0.0542500000000000
0.6972000000000000 0.1696500000000000 0.5542500000000000
0.6972000000000000 0.6696500000000001 0.0542500000000000
0.6972000000000000 0.6696500000000001 0.5542500000000000
0.4472000000000001 0.4196500000000000 0.3042500000000002
0.4472000000000001 0.4196500000000000 0.8042500000000001
0.4472000000000001 0.9196500000000001 0.3042500000000002
0.4472000000000001 0.9196500000000001 0.8042500000000001
0.9472000000000000 0.4196500000000000 0.3042500000000002
0.9472000000000000 0.4196500000000000 0.8042500000000001
0.9471999999999999 0.9196500000000001 0.3042500000000002
0.9471999999999999 0.9196500000000001 0.8042500000000001
0.3028000000000000 0.0542500000000000 0.3303500000000000
0.3028000000000000 0.0542500000000000 0.8303500000000000
0.3028000000000000 0.5542500000000000 0.3303500000000000
0.3028000000000000 0.5542500000000000 0.8303500000000000
0.8028000000000001 0.0542500000000000 0.3303500000000000
0.8028000000000001 0.0542500000000000 0.8303500000000000
0.8028000000000001 0.5542500000000000 0.3303500000000000
0.8028000000000001 0.5542500000000000 0.8303500000000000
0.0528000000000000 0.3042500000000002 0.0803499999999999
0.0528000000000000 0.3042500000000002 0.5803499999999999
0.0528000000000000 0.8042500000000001 0.0803499999999999
0.0528000000000000 0.8042500000000001 0.5803499999999999
0.5528000000000000 0.3042500000000002 0.0803499999999999
0.5528000000000000 0.3042500000000002 0.5803499999999999
0.5528000000000000 0.8042500000000001 0.0803499999999999
0.5528000000000000 0.8042500000000001 0.5803499999999999
0.1696500000000000 0.1972000000000000 0.0542500000000000
0.1696500000000000 0.1972000000000000 0.5542500000000000
0.1696500000000000 0.6972000000000000 0.0542500000000000
0.1696500000000000 0.6972000000000000 0.5542500000000000
0.6696500000000001 0.1972000000000000 0.0542500000000000
0.6696500000000001 0.1972000000000000 0.5542500000000000
0.6696500000000001 0.6972000000000000 0.0542500000000000
0.6696500000000001 0.6972000000000000 0.5542500000000000
0.4196500000000001 0.4472000000000001 0.3042500000000002
0.4196500000000001 0.4472000000000001 0.8042500000000001
0.4196500000000000 0.9472000000000000 0.3042500000000002
0.4196500000000000 0.9472000000000000 0.8042500000000001
0.9196500000000001 0.4472000000000001 0.3042500000000002
0.9196500000000001 0.4472000000000001 0.8042500000000001
0.9196500000000001 0.9472000000000000 0.3042500000000002
0.9196500000000001 0.9472000000000000 0.8042500000000001
0.3028000000000001 0.4457500000000000 0.1696500000000000
0.3028000000000001 0.4457500000000000 0.6696500000000001
0.3028000000000000 0.9457500000000000 0.1696500000000000
0.3028000000000000 0.9457500000000000 0.6696500000000001
0.8028000000000001 0.4457500000000000 0.1696500000000000
0.8028000000000001 0.4457500000000000 0.6696500000000001
0.8028000000000001 0.9457500000000000 0.1696500000000000
0.8028000000000001 0.9457500000000000 0.6696500000000001
0.0528000000000000 0.1957500000000000 0.4196500000000000
0.0528000000000000 0.1957500000000000 0.9196500000000001
0.0528000000000000 0.6957500000000001 0.4196500000000000
0.0528000000000000 0.6957500000000000 0.9196500000000001
0.5528000000000000 0.1957500000000000 0.4196500000000000
0.5528000000000000 0.1957500000000000 0.9196500000000001
0.5528000000000000 0.6957500000000001 0.4196500000000000
0.5528000000000000 0.6957500000000000 0.9196500000000001
0.0542500000000000 0.1696500000000000 0.1972000000000000
0.0542500000000000 0.1696500000000000 0.6972000000000000
0.0542500000000000 0.6696500000000001 0.1972000000000000
0.0542500000000000 0.6696500000000001 0.6972000000000000
0.5542500000000000 0.1696500000000000 0.1972000000000000
0.5542500000000000 0.1696500000000000 0.6972000000000000
0.5542500000000000 0.6696500000000001 0.1972000000000000
0.5542500000000000 0.6696500000000001 0.6972000000000000
0.3042500000000002 0.4196500000000001 0.4472000000000001
0.3042500000000002 0.4196500000000000 0.9472000000000000
0.3042500000000002 0.9196500000000001 0.4472000000000001
0.3042500000000002 0.9196500000000001 0.9472000000000000
0.8042500000000001 0.4196500000000001 0.4472000000000001
0.8042500000000001 0.4196500000000000 0.9472000000000000
0.8042500000000001 0.9196500000000001 0.4472000000000001
0.8042500000000001 0.9196500000000001 0.9472000000000000
0.1696500000000000 0.3028000000000001 0.4457500000000000
0.1696500000000000 0.3028000000000000 0.9457500000000000
0.1696500000000000 0.8028000000000001 0.4457500000000000
0.1696500000000000 0.8028000000000001 0.9457500000000000
0.6696500000000001 0.3028000000000001 0.4457500000000000
0.6696500000000001 0.3028000000000000 0.9457500000000000
0.6696500000000001 0.8028000000000001 0.4457500000000000
0.6696500000000001 0.8028000000000001 0.9457500000000000
0.4196500000000000 0.0528000000000000 0.1957500000000000
0.4196500000000000 0.0528000000000000 0.6957500000000001
0.4196500000000000 0.5528000000000000 0.1957500000000000
0.4196500000000000 0.5528000000000000 0.6957500000000001
0.9196500000000001 0.0528000000000000 0.1957500000000000
0.9196500000000001 0.0528000000000000 0.6957500000000001
0.9196500000000001 0.5528000000000000 0.1957500000000000
0.9196500000000001 0.5528000000000000 0.6957500000000001
0.0542500000000000 0.1972000000000000 0.1696500000000000
0.0542500000000000 0.1972000000000000 0.6696500000000001
0.0542500000000000 0.6972000000000000 0.1696500000000000
0.0542500000000000 0.6972000000000000 0.6696500000000001
0.5542500000000000 0.1972000000000000 0.1696500000000000
0.5542500000000000 0.1972000000000000 0.6696500000000001
0.5542500000000000 0.6972000000000000 0.1696500000000000
0.5542500000000000 0.6972000000000000 0.6696500000000001
0.3042500000000002 0.4472000000000001 0.4196500000000000
0.3042500000000002 0.4472000000000001 0.9196500000000001
0.3042500000000002 0.9472000000000000 0.4196500000000000
0.3042500000000002 0.9471999999999999 0.9196500000000001
0.8042500000000001 0.4472000000000001 0.4196500000000000
0.8042500000000001 0.4472000000000001 0.9196500000000001
0.8042500000000001 0.9472000000000000 0.4196500000000000
0.8042500000000001 0.9471999999999999 0.9196500000000001
0.1696500000000000 0.4457500000000000 0.3028000000000000
0.1696500000000000 0.4457500000000000 0.8028000000000001
0.1696500000000000 0.9457500000000000 0.3028000000000000
0.1696500000000000 0.9457500000000000 0.8028000000000001
0.6696500000000001 0.4457500000000000 0.3028000000000000
0.6696500000000001 0.4457500000000000 0.8028000000000001
0.6696500000000001 0.9457500000000000 0.3028000000000000
0.6696500000000001 0.9457500000000000 0.8028000000000001
0.4196500000000000 0.1957500000000000 0.0528000000000000
0.4196500000000000 0.1957500000000000 0.5528000000000000
0.4196500000000000 0.6957500000000001 0.0528000000000000
0.4196500000000000 0.6957500000000001 0.5528000000000000
0.9196500000000001 0.1957500000000000 0.0528000000000000
0.9196500000000001 0.1957500000000000 0.5528000000000000
0.9196500000000001 0.6957500000000001 0.0528000000000000
0.9196500000000001 0.6957500000000001 0.5528000000000000
0.3028000000000000 0.3303500000000000 0.0542500000000000
0.3028000000000000 0.3303500000000000 0.5542500000000000
0.3028000000000000 0.8303500000000000 0.0542500000000000
0.3028000000000000 0.8303500000000000 0.5542500000000000
0.8028000000000001 0.3303500000000000 0.0542500000000000
0.8028000000000001 0.3303500000000000 0.5542500000000000
0.8028000000000001 0.8303500000000000 0.0542500000000000
0.8028000000000001 0.8303500000000000 0.5542500000000000
0.0528000000000000 0.0803499999999999 0.3042500000000002
0.0528000000000000 0.0803499999999999 0.8042500000000001
0.0528000000000000 0.5803499999999999 0.3042500000000002
0.0528000000000000 0.5803499999999999 0.8042500000000001
0.5528000000000000 0.0803499999999999 0.3042500000000002
0.5528000000000000 0.0803499999999999 0.8042500000000001
0.5528000000000000 0.5803499999999999 0.3042500000000002
0.5528000000000000 0.5803499999999999 0.8042500000000001
0.0542500000000000 0.3303500000000000 0.3028000000000000
0.0542500000000000 0.3303500000000000 0.8028000000000001
0.0542500000000000 0.8303500000000000 0.3028000000000000
0.0542500000000000 0.8303500000000000 0.8028000000000001
0.5542500000000000 0.3303500000000000 0.3028000000000000
0.5542500000000000 0.3303500000000000 0.8028000000000001
0.5542500000000000 0.8303500000000000 0.3028000000000000
0.5542500000000000 0.8303500000000000 0.8028000000000001
0.3042500000000002 0.0803499999999999 0.0528000000000000
0.3042500000000002 0.0803499999999999 0.5528000000000000
0.3042500000000002 0.5803499999999999 0.0528000000000000
0.3042500000000002 0.5803499999999999 0.5528000000000000
0.8042500000000001 0.0803499999999999 0.0528000000000000
0.8042500000000001 0.0803499999999999 0.5528000000000000
0.8042500000000001 0.5803499999999999 0.0528000000000000
0.8042500000000001 0.5803499999999999 0.5528000000000000
0.3303500000000000 0.4457500000000000 0.1972000000000000
0.3303500000000000 0.4457500000000000 0.6972000000000000
0.3303500000000000 0.9457500000000000 0.1972000000000000
0.3303500000000000 0.9457500000000000 0.6972000000000000
0.8303500000000000 0.4457500000000000 0.1972000000000000
0.8303500000000000 0.4457500000000000 0.6972000000000000
0.8303500000000000 0.9457500000000000 0.1972000000000000
0.8303500000000000 0.9457500000000000 0.6972000000000000
0.0803499999999999 0.1957500000000000 0.4472000000000001
0.0803499999999999 0.1957500000000000 0.9472000000000000
0.0803499999999999 0.6957500000000001 0.4472000000000001
0.0803499999999999 0.6957500000000000 0.9472000000000000
0.5803499999999999 0.1957500000000000 0.4472000000000001
0.5803499999999999 0.1957500000000000 0.9472000000000000
0.5803499999999999 0.6957500000000001 0.4472000000000001
0.5803499999999999 0.6957500000000000 0.9472000000000000
0.1972000000000000 0.3303500000000000 0.4457500000000000
0.1972000000000000 0.3303500000000000 0.9457500000000000
0.1972000000000000 0.8303500000000000 0.4457500000000000
0.1972000000000000 0.8303500000000000 0.9457500000000000
0.6972000000000000 0.3303500000000000 0.4457500000000000
0.6972000000000000 0.3303500000000000 0.9457500000000000
0.6972000000000000 0.8303500000000000 0.4457500000000000
0.6972000000000000 0.8303500000000000 0.9457500000000000
0.4472000000000001 0.0803499999999999 0.1957500000000000
0.4472000000000001 0.0803499999999999 0.6957500000000001
0.4472000000000001 0.5803499999999999 0.1957500000000000
0.4472000000000001 0.5803499999999999 0.6957500000000001
0.9472000000000000 0.0803499999999999 0.1957500000000000
0.9472000000000000 0.0803499999999999 0.6957500000000001
0.9472000000000000 0.5803499999999999 0.1957500000000000
0.9472000000000000 0.5803499999999999 0.6957500000000001
0.4457500000000000 0.1972000000000000 0.3303500000000000
0.4457500000000000 0.1972000000000000 0.8303500000000000
0.4457500000000000 0.6972000000000000 0.3303500000000000
0.4457500000000000 0.6972000000000000 0.8303500000000000
0.9457500000000000 0.1972000000000000 0.3303500000000000
0.9457500000000000 0.1972000000000000 0.8303500000000000
0.9457500000000000 0.6972000000000000 0.3303500000000000
0.9457500000000000 0.6972000000000000 0.8303500000000000
0.1957500000000000 0.4472000000000001 0.0803499999999999
0.1957500000000000 0.4472000000000001 0.5803499999999999
0.1957500000000000 0.9472000000000000 0.0803499999999999
0.1957500000000000 0.9472000000000000 0.5803499999999999
0.6957500000000001 0.4472000000000001 0.0803499999999999
0.6957500000000001 0.4472000000000001 0.5803499999999999
0.6957500000000000 0.9472000000000000 0.0803499999999999
0.6957500000000000 0.9472000000000000 0.5803499999999999
0.4457500000000000 0.1696500000000000 0.3028000000000000
0.4457500000000000 0.1696500000000000 0.8028000000000001
0.4457500000000000 0.6696500000000001 0.3028000000000000
0.4457500000000000 0.6696500000000001 0.8028000000000001
0.9457500000000000 0.1696500000000000 0.3028000000000000
0.9457500000000000 0.1696500000000000 0.8028000000000001
0.9457500000000000 0.6696500000000001 0.3028000000000000
0.9457500000000000 0.6696500000000001 0.8028000000000001
0.1957500000000000 0.4196500000000000 0.0528000000000000
0.1957500000000000 0.4196500000000000 0.5528000000000000
0.1957500000000000 0.9196500000000001 0.0528000000000000
0.1957500000000000 0.9196500000000001 0.5528000000000000
0.6957500000000001 0.4196500000000000 0.0528000000000000
0.6957500000000001 0.4196500000000000 0.5528000000000000
0.6957500000000000 0.9196500000000001 0.0528000000000000
0.6957500000000000 0.9196500000000001 0.5528000000000000
0.0542500000000000 0.3028000000000000 0.3303500000000000
0.0542500000000000 0.3028000000000000 0.8303500000000000
0.0542500000000000 0.8028000000000001 0.3303500000000000
0.0542500000000000 0.8028000000000001 0.8303500000000000
0.5542500000000000 0.3028000000000000 0.3303500000000000
0.5542500000000000 0.3028000000000000 0.8303500000000000
0.5542500000000000 0.8028000000000001 0.3303500000000000
0.5542500000000000 0.8028000000000001 0.8303500000000000
0.3042500000000002 0.0528000000000000 0.0803499999999999
0.3042500000000002 0.0528000000000000 0.5803499999999999
0.3042500000000002 0.5528000000000000 0.0803499999999999
0.3042500000000002 0.5528000000000000 0.5803499999999999
0.8042500000000001 0.0528000000000000 0.0803499999999999
0.8042500000000001 0.0528000000000000 0.5803499999999999
0.8042500000000001 0.5528000000000000 0.0803499999999999
0.8042500000000001 0.5528000000000000 0.5803499999999999
0.1696500000000000 0.0542500000000000 0.1972000000000000
0.1696500000000000 0.0542500000000000 0.6972000000000000
0.1696500000000000 0.5542500000000000 0.1972000000000000
0.1696500000000000 0.5542500000000000 0.6972000000000000
0.6696500000000001 0.0542500000000000 0.1972000000000000
0.6696500000000001 0.0542500000000000 0.6972000000000000
0.6696500000000001 0.5542500000000000 0.1972000000000000
0.6696500000000001 0.5542500000000000 0.6972000000000000
0.4196500000000001 0.3042500000000002 0.4472000000000001
0.4196500000000000 0.3042500000000002 0.9472000000000000
0.4196500000000001 0.8042500000000001 0.4472000000000001
0.4196500000000000 0.8042500000000001 0.9472000000000000
0.9196500000000001 0.3042500000000002 0.4472000000000001
0.9196500000000001 0.3042500000000002 0.9472000000000000
0.9196500000000001 0.8042500000000001 0.4472000000000001
0.9196500000000001 0.8042500000000001 0.9472000000000000
0.3028000000000001 0.1696500000000000 0.4457500000000000
0.3028000000000000 0.1696500000000000 0.9457500000000000
0.3028000000000001 0.6696500000000001 0.4457500000000000
0.3028000000000000 0.6696500000000001 0.9457500000000000
0.8028000000000001 0.1696500000000000 0.4457500000000000
0.8028000000000001 0.1696500000000000 0.9457500000000000
0.8028000000000001 0.6696500000000001 0.4457500000000000
0.8028000000000001 0.6696500000000001 0.9457500000000000
0.0528000000000000 0.4196500000000000 0.1957500000000000
0.0528000000000000 0.4196500000000000 0.6957500000000001
0.0528000000000000 0.9196500000000001 0.1957500000000000
0.0528000000000000 0.9196500000000001 0.6957500000000001
0.5528000000000000 0.4196500000000000 0.1957500000000000
0.5528000000000000 0.4196500000000000 0.6957500000000001
0.5528000000000000 0.9196500000000001 0.1957500000000000
0.5528000000000000 0.9196500000000001 0.6957500000000001
0.1972000000000000 0.0542500000000000 0.1696500000000000
0.1972000000000000 0.0542500000000000 0.6696500000000001
0.1972000000000000 0.5542500000000000 0.1696500000000000
0.1972000000000000 0.5542500000000000 0.6696500000000001
0.6972000000000000 0.0542500000000000 0.1696500000000000
0.6972000000000000 0.0542500000000000 0.6696500000000001
0.6972000000000000 0.5542500000000000 0.1696500000000000
0.6972000000000000 0.5542500000000000 0.6696500000000001
0.4472000000000001 0.3042500000000002 0.4196500000000000
0.4472000000000001 0.3042500000000002 0.9196500000000001
0.4472000000000001 0.8042500000000001 0.4196500000000000
0.4472000000000001 0.8042500000000001 0.9196500000000001
0.9472000000000000 0.3042500000000002 0.4196500000000000
0.9471999999999999 0.3042500000000002 0.9196500000000001
0.9472000000000000 0.8042500000000001 0.4196500000000000
0.9471999999999999 0.8042500000000001 0.9196500000000001
0.3303500000000000 0.3028000000000000 0.0542500000000000
0.3303500000000000 0.3028000000000000 0.5542500000000000
0.3303500000000000 0.8028000000000001 0.0542500000000000
0.3303500000000000 0.8028000000000001 0.5542500000000000
0.8303500000000000 0.3028000000000000 0.0542500000000000
0.8303500000000000 0.3028000000000000 0.5542500000000000
0.8303500000000000 0.8028000000000001 0.0542500000000000
0.8303500000000000 0.8028000000000001 0.5542500000000000
0.0803499999999999 0.0528000000000000 0.3042500000000002
0.0803499999999999 0.0528000000000000 0.8042500000000001
0.0803499999999999 0.5528000000000000 0.3042500000000002
0.0803499999999999 0.5528000000000000 0.8042500000000001
0.5803499999999999 0.0528000000000000 0.3042500000000002
0.5803499999999999 0.0528000000000000 0.8042500000000001
0.5803499999999999 0.5528000000000000 0.3042500000000002
0.5803499999999999 0.5528000000000000 0.8042500000000001
0.1833000000000000 0.0494500000000000 0.3167000000000000
0.1833000000000000 0.0494500000000000 0.8167000000000000
0.1833000000000000 0.5494500000000000 0.3167000000000000
0.1833000000000000 0.5494500000000000 0.8167000000000000
0.6833000000000001 0.0494500000000000 0.3167000000000000
0.6833000000000001 0.0494500000000000 0.8167000000000000
0.6833000000000001 0.5494500000000000 0.3167000000000000
0.6833000000000001 0.5494500000000000 0.8167000000000000
0.3167000000000001 0.4505500000000000 0.3167000000000000
0.3167000000000001 0.4505500000000000 0.8167000000000000
0.3167000000000000 0.9505500000000001 0.3167000000000000
0.3167000000000000 0.9505500000000001 0.8167000000000000
0.8167000000000000 0.4505500000000000 0.3167000000000000
0.8167000000000000 0.4505500000000000 0.8167000000000000
0.8167000000000000 0.9505500000000001 0.3167000000000000
0.8167000000000000 0.9505500000000001 0.8167000000000000
0.0667000000000000 0.2005500000000000 0.0667000000000000
0.0667000000000000 0.2005500000000000 0.5667000000000000
0.0667000000000000 0.7005500000000000 0.0667000000000000
0.0667000000000000 0.7005500000000000 0.5667000000000000
0.5667000000000000 0.2005500000000000 0.0667000000000000
0.5667000000000000 0.2005500000000000 0.5667000000000000
0.5667000000000000 0.7005500000000000 0.0667000000000000
0.5667000000000000 0.7005500000000000 0.5667000000000000
0.1833000000000000 0.1833000000000000 0.4505500000000000
0.1833000000000000 0.1833000000000000 0.9505500000000001
0.1833000000000000 0.6833000000000001 0.4505500000000000
0.1833000000000000 0.6833000000000001 0.9505500000000001
0.6833000000000001 0.1833000000000000 0.4505500000000000
0.6833000000000001 0.1833000000000000 0.9505500000000001
0.6833000000000001 0.6833000000000001 0.4505500000000000
0.6833000000000001 0.6833000000000001 0.9505500000000001
0.4333000000000001 0.4333000000000000 0.2005500000000000
0.4333000000000001 0.4333000000000000 0.7005500000000000
0.4333000000000000 0.9333000000000000 0.2005500000000000
0.4333000000000000 0.9333000000000000 0.7005500000000000
0.9333000000000000 0.4333000000000000 0.2005500000000000
0.9333000000000000 0.4333000000000000 0.7005500000000000
0.9333000000000000 0.9333000000000000 0.2005500000000000
0.9333000000000000 0.9333000000000000 0.7005500000000000
0.3167000000000000 0.0494500000000000 0.1833000000000000
0.3167000000000000 0.0494500000000000 0.6833000000000001
0.3167000000000000 0.5494500000000000 0.1833000000000000
0.3167000000000000 0.5494500000000000 0.6833000000000001
0.8167000000000000 0.0494500000000000 0.1833000000000000
0.8167000000000000 0.0494500000000000 0.6833000000000001
0.8167000000000000 0.5494500000000000 0.1833000000000000
0.8167000000000000 0.5494500000000000 0.6833000000000001
0.1833000000000000 0.3167000000000000 0.0494500000000000
0.1833000000000000 0.3167000000000000 0.5494500000000000
0.1833000000000000 0.8167000000000000 0.0494500000000000
0.1833000000000000 0.8167000000000000 0.5494500000000000
0.6833000000000001 0.3167000000000000 0.0494500000000000
0.6833000000000001 0.3167000000000000 0.5494500000000000
0.6833000000000001 0.8167000000000000 0.0494500000000000
0.6833000000000001 0.8167000000000000 0.5494500000000000
0.3167000000000001 0.3167000000000001 0.4505500000000000
0.3167000000000000 0.3167000000000000 0.9505500000000001
0.3167000000000001 0.8167000000000000 0.4505500000000000
0.3167000000000000 0.8167000000000000 0.9505500000000001
0.8167000000000000 0.3167000000000001 0.4505500000000000
0.8167000000000000 0.3167000000000000 0.9505500000000001
0.8167000000000000 0.8167000000000000 0.4505500000000000
0.8167000000000000 0.8167000000000000 0.9505500000000001
0.1833000000000000 0.4505500000000000 0.1833000000000000
0.1833000000000000 0.4505500000000000 0.6833000000000001
0.1833000000000000 0.9505500000000001 0.1833000000000000
0.1833000000000000 0.9505500000000001 0.6833000000000001
0.6833000000000001 0.4505500000000000 0.1833000000000000
0.6833000000000001 0.4505500000000000 0.6833000000000001
0.6833000000000001 0.9505500000000001 0.1833000000000000
0.6833000000000001 0.9505500000000001 0.6833000000000001
0.4333000000000000 0.2005500000000000 0.4333000000000000
0.4333000000000000 0.2005500000000000 0.9333000000000000
0.4333000000000000 0.7005500000000000 0.4333000000000000
0.4333000000000000 0.7005500000000000 0.9333000000000000
0.9333000000000000 0.2005500000000000 0.4333000000000000
0.9333000000000000 0.2005500000000000 0.9333000000000000
0.9333000000000000 0.7005500000000000 0.4333000000000000
0.9333000000000000 0.7005500000000000 0.9333000000000000
0.2054500000000000 0.4840500000000000 0.3408000000000000
0.2054500000000000 0.4840499999999999 0.8408000000000000
0.2054500000000000 0.9840500000000001 0.3408000000000000
0.2054500000000000 0.9840500000000001 0.8408000000000000
0.7054500000000001 0.4840500000000000 0.3408000000000000
0.7054500000000001 0.4840499999999999 0.8408000000000000
0.7054500000000000 0.9840500000000001 0.3408000000000000
0.7054500000000000 0.9840500000000001 0.8408000000000000
0.4554500000000000 0.2340500000000000 0.0908000000000000
0.4554500000000000 0.2340500000000000 0.5908000000000001
0.4554500000000000 0.7340500000000001 0.0908000000000000
0.4554500000000000 0.7340500000000001 0.5908000000000001
0.9554500000000000 0.2340500000000000 0.0908000000000000
0.9554500000000000 0.2340500000000000 0.5908000000000001
0.9554500000000000 0.7340500000000001 0.0908000000000000
0.9554500000000000 0.7340500000000001 0.5908000000000001
0.4840500000000000 0.3408000000000000 0.2054500000000000
0.4840499999999999 0.3408000000000000 0.7054500000000001
0.4840499999999999 0.8408000000000000 0.2054500000000000
0.4840499999999999 0.8408000000000000 0.7054500000000001
0.9840500000000001 0.3408000000000000 0.2054500000000000
0.9840500000000001 0.3408000000000000 0.7054500000000001
0.9840500000000001 0.8408000000000000 0.2054500000000000
0.9840500000000001 0.8408000000000000 0.7054500000000001
0.2340500000000000 0.0908000000000000 0.4554500000000000
0.2340500000000000 0.0908000000000000 0.9554500000000000
0.2340500000000000 0.5908000000000001 0.4554500000000000
0.2340500000000000 0.5908000000000000 0.9554500000000000
0.7340500000000001 0.0908000000000000 0.4554500000000000
0.7340500000000001 0.0908000000000000 0.9554500000000000
0.7340500000000001 0.5908000000000001 0.4554500000000000
0.7340500000000001 0.5908000000000000 0.9554500000000000
0.3408000000000000 0.2054500000000000 0.4840500000000000
0.3408000000000000 0.2054500000000000 0.9840500000000001
0.3408000000000000 0.7054500000000001 0.4840500000000000
0.3408000000000000 0.7054500000000000 0.9840500000000001
0.8408000000000000 0.2054500000000000 0.4840500000000000
0.8408000000000000 0.2054500000000000 0.9840500000000001
0.8408000000000000 0.7054500000000001 0.4840500000000000
0.8408000000000000 0.7054500000000000 0.9840500000000001
0.0908000000000000 0.4554500000000000 0.2340500000000000
0.0908000000000000 0.4554500000000000 0.7340500000000001
0.0908000000000000 0.9554500000000000 0.2340500000000000
0.0908000000000000 0.9554500000000000 0.7340500000000001
0.5908000000000001 0.4554500000000000 0.2340500000000000
0.5908000000000001 0.4554500000000000 0.7340500000000001
0.5908000000000000 0.9554500000000000 0.2340500000000000
0.5908000000000000 0.9554500000000000 0.7340500000000001
0.4840500000000000 0.2945500000000002 0.1592000000000000
0.4840499999999999 0.2945500000000001 0.6592000000000000
0.4840499999999999 0.7945500000000001 0.1592000000000000
0.4840499999999999 0.7945500000000001 0.6592000000000000
0.9840500000000001 0.2945500000000002 0.1592000000000000
0.9840500000000001 0.2945500000000001 0.6592000000000000
0.9840500000000001 0.7945500000000001 0.1592000000000000
0.9840500000000001 0.7945500000000001 0.6592000000000000
0.2340500000000000 0.0445500000000000 0.4092000000000002
0.2340500000000000 0.0445500000000000 0.9092000000000002
0.2340500000000000 0.5445500000000000 0.4092000000000002
0.2340500000000000 0.5445500000000000 0.9092000000000002
0.7340500000000001 0.0445500000000000 0.4092000000000002
0.7340500000000001 0.0445500000000000 0.9092000000000002
0.7340500000000001 0.5445500000000000 0.4092000000000002
0.7340500000000001 0.5445500000000000 0.9092000000000002
0.3408000000000000 0.0159500000000000 0.2945500000000002
0.3408000000000000 0.0159500000000000 0.7945500000000001
0.3408000000000000 0.5159500000000000 0.2945500000000002
0.3408000000000000 0.5159500000000000 0.7945500000000001
0.8408000000000000 0.0159500000000000 0.2945500000000002
0.8408000000000000 0.0159500000000000 0.7945500000000001
0.8408000000000000 0.5159500000000000 0.2945500000000002
0.8408000000000000 0.5159500000000000 0.7945500000000001
0.0908000000000000 0.2659500000000000 0.0445500000000000
0.0908000000000000 0.2659500000000000 0.5445500000000000
0.0908000000000000 0.7659500000000000 0.0445500000000000
0.0908000000000000 0.7659500000000000 0.5445500000000000
0.5908000000000001 0.2659500000000000 0.0445500000000000
0.5908000000000001 0.2659500000000000 0.5445500000000000
0.5908000000000001 0.7659500000000000 0.0445500000000000
0.5908000000000001 0.7659500000000000 0.5445500000000000
0.2054500000000000 0.1592000000000000 0.0159500000000000
0.2054500000000000 0.1592000000000000 0.5159500000000000
0.2054500000000000 0.6592000000000000 0.0159500000000000
0.2054500000000000 0.6592000000000000 0.5159500000000000
0.7054500000000001 0.1592000000000000 0.0159500000000000
0.7054500000000001 0.1592000000000000 0.5159500000000000
0.7054500000000001 0.6592000000000000 0.0159500000000000
0.7054500000000001 0.6592000000000000 0.5159500000000000
0.4554500000000000 0.4092000000000002 0.2659500000000000
0.4554500000000000 0.4092000000000002 0.7659500000000000
0.4554500000000000 0.9092000000000002 0.2659500000000000
0.4554500000000000 0.9092000000000002 0.7659500000000000
0.9554500000000000 0.4092000000000002 0.2659500000000000
0.9554500000000000 0.4092000000000002 0.7659500000000000
0.9554499999999999 0.9092000000000002 0.2659500000000000
0.9554499999999999 0.9092000000000002 0.7659500000000000
0.2945500000000002 0.0159500000000000 0.3408000000000000
0.2945500000000001 0.0159500000000000 0.8408000000000000
0.2945500000000001 0.5159500000000000 0.3408000000000000
0.2945500000000001 0.5159500000000000 0.8408000000000000
0.7945500000000001 0.0159500000000000 0.3408000000000000
0.7945500000000001 0.0159500000000000 0.8408000000000000
0.7945500000000001 0.5159500000000000 0.3408000000000000
0.7945500000000001 0.5159500000000000 0.8408000000000000
0.0445500000000000 0.2659500000000000 0.0908000000000000
0.0445500000000000 0.2659500000000000 0.5908000000000001
0.0445500000000000 0.7659500000000000 0.0908000000000000
0.0445500000000000 0.7659500000000000 0.5908000000000001
0.5445500000000000 0.2659500000000000 0.0908000000000000
0.5445500000000000 0.2659500000000000 0.5908000000000001
0.5445500000000000 0.7659500000000000 0.0908000000000000
0.5445500000000000 0.7659500000000000 0.5908000000000001
0.1592000000000000 0.2054500000000000 0.0159500000000000
0.1592000000000000 0.2054500000000000 0.5159500000000000
0.1592000000000000 0.7054500000000001 0.0159500000000000
0.1592000000000000 0.7054500000000001 0.5159500000000000
0.6592000000000000 0.2054500000000000 0.0159500000000000
0.6592000000000000 0.2054500000000000 0.5159500000000000
0.6592000000000000 0.7054500000000001 0.0159500000000000
0.6592000000000000 0.7054500000000001 0.5159500000000000
0.4092000000000002 0.4554500000000000 0.2659500000000000
0.4092000000000002 0.4554500000000000 0.7659500000000000
0.4092000000000002 0.9554500000000000 0.2659500000000000
0.4092000000000002 0.9554500000000000 0.7659500000000000
0.9092000000000002 0.4554500000000000 0.2659500000000000
0.9092000000000002 0.4554500000000000 0.7659500000000000
0.9092000000000002 0.9554500000000000 0.2659500000000000
0.9092000000000002 0.9554500000000000 0.7659500000000000
0.2945500000000001 0.4840500000000000 0.1592000000000000
0.2945500000000001 0.4840499999999999 0.6592000000000000
0.2945500000000001 0.9840500000000001 0.1592000000000000
0.2945500000000001 0.9840500000000001 0.6592000000000000
0.7945500000000001 0.4840500000000000 0.1592000000000000
0.7945500000000001 0.4840499999999999 0.6592000000000000
0.7945500000000001 0.9840500000000001 0.1592000000000000
0.7945500000000001 0.9840500000000001 0.6592000000000000
0.0445500000000000 0.2340500000000000 0.4092000000000002
0.0445500000000000 0.2340500000000000 0.9092000000000002
0.0445500000000000 0.7340500000000001 0.4092000000000002
0.0445500000000000 0.7340500000000001 0.9092000000000002
0.5445500000000000 0.2340500000000000 0.4092000000000002
0.5445500000000000 0.2340500000000000 0.9092000000000002
0.5445500000000000 0.7340500000000001 0.4092000000000002
0.5445500000000000 0.7340500000000001 0.9092000000000002
0.0159500000000000 0.1592000000000000 0.2054500000000000
0.0159500000000000 0.1592000000000000 0.7054500000000001
0.0159500000000000 0.6592000000000000 0.2054500000000000
0.0159500000000000 0.6592000000000000 0.7054500000000001
0.5159500000000000 0.1592000000000000 0.2054500000000000
0.5159500000000000 0.1592000000000000 0.7054500000000001
0.5159500000000000 0.6592000000000000 0.2054500000000000
0.5159500000000000 0.6592000000000000 0.7054500000000001
0.2659500000000000 0.4092000000000002 0.4554500000000000
0.2659500000000000 0.4092000000000002 0.9554500000000000
0.2659500000000000 0.9092000000000002 0.4554500000000000
0.2659500000000000 0.9092000000000002 0.9554500000000000
0.7659500000000000 0.4092000000000002 0.4554500000000000
0.7659500000000000 0.4092000000000002 0.9554500000000000
0.7659500000000000 0.9092000000000002 0.4554500000000000
0.7659500000000000 0.9092000000000002 0.9554500000000000
0.1592000000000000 0.2945500000000001 0.4840500000000000
0.1592000000000000 0.2945500000000001 0.9840500000000001
0.1592000000000000 0.7945500000000001 0.4840500000000000
0.1592000000000000 0.7945500000000001 0.9840500000000001
0.6592000000000000 0.2945500000000001 0.4840500000000000
0.6592000000000000 0.2945500000000001 0.9840500000000001
0.6592000000000000 0.7945500000000001 0.4840500000000000
0.6592000000000000 0.7945500000000001 0.9840500000000001
0.4092000000000002 0.0445500000000000 0.2340500000000000
0.4092000000000002 0.0445500000000000 0.7340500000000001
0.4092000000000002 0.5445500000000000 0.2340500000000000
0.4092000000000002 0.5445500000000000 0.7340500000000001
0.9092000000000002 0.0445500000000000 0.2340500000000000
0.9092000000000002 0.0445500000000000 0.7340500000000001
0.9092000000000002 0.5445500000000000 0.2340500000000000
0.9092000000000002 0.5445500000000000 0.7340500000000001
0.0159500000000000 0.2054500000000000 0.1592000000000000
0.0159500000000000 0.2054500000000000 0.6592000000000000
0.0159500000000000 0.7054500000000001 0.1592000000000000
0.0159500000000000 0.7054500000000001 0.6592000000000000
0.5159500000000000 0.2054500000000000 0.1592000000000000
0.5159500000000000 0.2054500000000000 0.6592000000000000
0.5159500000000000 0.7054500000000001 0.1592000000000000
0.5159500000000000 0.7054500000000001 0.6592000000000000
0.2659500000000000 0.4554500000000000 0.4092000000000002
0.2659500000000000 0.4554500000000000 0.9092000000000002
0.2659500000000000 0.9554500000000000 0.4092000000000002
0.2659500000000000 0.9554499999999999 0.9092000000000002
0.7659500000000000 0.4554500000000000 0.4092000000000002
0.7659500000000000 0.4554500000000000 0.9092000000000002
0.7659500000000000 0.9554500000000000 0.4092000000000002
0.7659500000000000 0.9554499999999999 0.9092000000000002
0.1592000000000000 0.4840500000000000 0.2945500000000002
0.1592000000000000 0.4840499999999999 0.7945500000000001
0.1592000000000000 0.9840500000000001 0.2945500000000002
0.1592000000000000 0.9840500000000001 0.7945500000000001
0.6592000000000000 0.4840500000000000 0.2945500000000002
0.6592000000000000 0.4840499999999999 0.7945500000000001
0.6592000000000000 0.9840500000000001 0.2945500000000002
0.6592000000000000 0.9840500000000001 0.7945500000000001
0.4092000000000002 0.2340500000000000 0.0445500000000000
0.4092000000000002 0.2340500000000000 0.5445500000000000
0.4092000000000002 0.7340500000000001 0.0445500000000000
0.4092000000000002 0.7340500000000001 0.5445500000000000
0.9092000000000002 0.2340500000000000 0.0445500000000000
0.9092000000000002 0.2340500000000000 0.5445500000000000
0.9092000000000002 0.7340500000000001 0.0445500000000000
0.9092000000000002 0.7340500000000001 0.5445500000000000
0.2945500000000002 0.3408000000000000 0.0159500000000000
0.2945500000000001 0.3408000000000000 0.5159500000000000
0.2945500000000001 0.8408000000000000 0.0159500000000000
0.2945500000000001 0.8408000000000000 0.5159500000000000
0.7945500000000001 0.3408000000000000 0.0159500000000000
0.7945500000000001 0.3408000000000000 0.5159500000000000
0.7945500000000001 0.8408000000000000 0.0159500000000000
0.7945500000000001 0.8408000000000000 0.5159500000000000
0.0445500000000000 0.0908000000000000 0.2659500000000000
0.0445500000000000 0.0908000000000000 0.7659500000000000
0.0445500000000000 0.5908000000000001 0.2659500000000000
0.0445500000000000 0.5908000000000001 0.7659500000000000
0.5445500000000000 0.0908000000000000 0.2659500000000000
0.5445500000000000 0.0908000000000000 0.7659500000000000
0.5445500000000000 0.5908000000000001 0.2659500000000000
0.5445500000000000 0.5908000000000001 0.7659500000000000
0.0159500000000000 0.3408000000000000 0.2945500000000002
0.0159500000000000 0.3408000000000000 0.7945500000000001
0.0159500000000000 0.8408000000000000 0.2945500000000002
0.0159500000000000 0.8408000000000000 0.7945500000000001
0.5159500000000000 0.3408000000000000 0.2945500000000002
0.5159500000000000 0.3408000000000000 0.7945500000000001
0.5159500000000000 0.8408000000000000 0.2945500000000002
0.5159500000000000 0.8408000000000000 0.7945500000000001
0.2659500000000000 0.0908000000000000 0.0445500000000000
0.2659500000000000 0.0908000000000000 0.5445500000000000
0.2659500000000000 0.5908000000000001 0.0445500000000000
0.2659500000000000 0.5908000000000001 0.5445500000000000
0.7659500000000000 0.0908000000000000 0.0445500000000000
0.7659500000000000 0.0908000000000000 0.5445500000000000
0.7659500000000000 0.5908000000000001 0.0445500000000000
0.7659500000000000 0.5908000000000001 0.5445500000000000
0.3408000000000000 0.4840500000000000 0.2054500000000000
0.3408000000000000 0.4840499999999999 0.7054500000000001
0.3408000000000000 0.9840500000000001 0.2054500000000000
0.3408000000000000 0.9840500000000001 0.7054500000000001
0.8408000000000000 0.4840500000000000 0.2054500000000000
0.8408000000000000 0.4840499999999999 0.7054500000000001
0.8408000000000000 0.9840500000000001 0.2054500000000000
0.8408000000000000 0.9840500000000001 0.7054500000000001
0.0908000000000000 0.2340500000000000 0.4554500000000000
0.0908000000000000 0.2340500000000000 0.9554500000000000
0.0908000000000000 0.7340500000000001 0.4554500000000000
0.0908000000000000 0.7340500000000001 0.9554500000000000
0.5908000000000001 0.2340500000000000 0.4554500000000000
0.5908000000000000 0.2340500000000000 0.9554500000000000
0.5908000000000001 0.7340500000000001 0.4554500000000000
0.5908000000000000 0.7340500000000001 0.9554500000000000
0.2054500000000000 0.3408000000000000 0.4840500000000000
0.2054500000000000 0.3408000000000000 0.9840500000000001
0.2054500000000000 0.8408000000000000 0.4840500000000000
0.2054500000000000 0.8408000000000000 0.9840500000000001
0.7054500000000001 0.3408000000000000 0.4840500000000000
0.7054500000000000 0.3408000000000000 0.9840500000000001
0.7054500000000001 0.8408000000000000 0.4840500000000000
0.7054500000000000 0.8408000000000000 0.9840500000000001
0.4554500000000000 0.0908000000000000 0.2340500000000000
0.4554500000000000 0.0908000000000000 0.7340500000000001
0.4554500000000000 0.5908000000000001 0.2340500000000000
0.4554500000000000 0.5908000000000001 0.7340500000000001
0.9554500000000000 0.0908000000000000 0.2340500000000000
0.9554500000000000 0.0908000000000000 0.7340500000000001
0.9554500000000000 0.5908000000000001 0.2340500000000000
0.9554500000000000 0.5908000000000001 0.7340500000000001
0.4840500000000000 0.2054500000000000 0.3408000000000000
0.4840499999999999 0.2054500000000000 0.8408000000000000
0.4840499999999999 0.7054500000000001 0.3408000000000000
0.4840499999999999 0.7054500000000001 0.8408000000000000
0.9840500000000001 0.2054500000000000 0.3408000000000000
0.9840500000000001 0.2054500000000000 0.8408000000000000
0.9840500000000001 0.7054500000000001 0.3408000000000000
0.9840500000000001 0.7054500000000001 0.8408000000000000
0.2340500000000000 0.4554500000000000 0.0908000000000000
0.2340500000000000 0.4554500000000000 0.5908000000000001
0.2340500000000000 0.9554500000000000 0.0908000000000000
0.2340500000000000 0.9554500000000000 0.5908000000000001
0.7340500000000001 0.4554500000000000 0.0908000000000000
0.7340500000000001 0.4554500000000000 0.5908000000000001
0.7340500000000001 0.9554500000000000 0.0908000000000000
0.7340500000000001 0.9554500000000000 0.5908000000000001
0.4840500000000000 0.1592000000000000 0.2945500000000002
0.4840499999999999 0.1592000000000000 0.7945500000000001
0.4840499999999999 0.6592000000000000 0.2945500000000002
0.4840499999999999 0.6592000000000000 0.7945500000000001
0.9840500000000001 0.1592000000000000 0.2945500000000002
0.9840500000000001 0.1592000000000000 0.7945500000000001
0.9840500000000001 0.6592000000000000 0.2945500000000002
0.9840500000000001 0.6592000000000000 0.7945500000000001
0.2340500000000000 0.4092000000000002 0.0445500000000000
0.2340500000000000 0.4092000000000002 0.5445500000000000
0.2340500000000000 0.9092000000000002 0.0445500000000000
0.2340500000000000 0.9092000000000002 0.5445500000000000
0.7340500000000001 0.4092000000000002 0.0445500000000000
0.7340500000000001 0.4092000000000002 0.5445500000000000
0.7340500000000001 0.9092000000000002 0.0445500000000000
0.7340500000000001 0.9092000000000002 0.5445500000000000
0.0159500000000000 0.2945500000000002 0.3408000000000000
0.0159500000000000 0.2945500000000001 0.8408000000000000
0.0159500000000000 0.7945500000000001 0.3408000000000000
0.0159500000000000 0.7945500000000001 0.8408000000000000
0.5159500000000000 0.2945500000000002 0.3408000000000000
0.5159500000000000 0.2945500000000001 0.8408000000000000
0.5159500000000000 0.7945500000000001 0.3408000000000000
0.5159500000000000 0.7945500000000001 0.8408000000000000
0.2659500000000000 0.0445500000000000 0.0908000000000000
0.2659500000000000 0.0445500000000000 0.5908000000000001
0.2659500000000000 0.5445500000000000 0.0908000000000000
0.2659500000000000 0.5445500000000000 0.5908000000000001
0.7659500000000000 0.0445500000000000 0.0908000000000000
0.7659500000000000 0.0445500000000000 0.5908000000000001
0.7659500000000000 0.5445500000000000 0.0908000000000000
0.7659500000000000 0.5445500000000000 0.5908000000000001
0.1592000000000000 0.0159500000000000 0.2054500000000000
0.1592000000000000 0.0159500000000000 0.7054500000000001
0.1592000000000000 0.5159500000000000 0.2054500000000000
0.1592000000000000 0.5159500000000000 0.7054500000000001
0.6592000000000000 0.0159500000000000 0.2054500000000000
0.6592000000000000 0.0159500000000000 0.7054500000000001
0.6592000000000000 0.5159500000000000 0.2054500000000000
0.6592000000000000 0.5159500000000000 0.7054500000000001
0.4092000000000002 0.2659500000000000 0.4554500000000000
0.4092000000000002 0.2659500000000000 0.9554500000000000
0.4092000000000002 0.7659500000000000 0.4554500000000000
0.4092000000000002 0.7659500000000000 0.9554500000000000
0.9092000000000002 0.2659500000000000 0.4554500000000000
0.9092000000000002 0.2659500000000000 0.9554500000000000
0.9092000000000002 0.7659500000000000 0.4554500000000000
0.9092000000000002 0.7659500000000000 0.9554500000000000
0.2945500000000001 0.1592000000000000 0.4840500000000000
0.2945500000000001 0.1592000000000000 0.9840500000000001
0.2945500000000001 0.6592000000000000 0.4840500000000000
0.2945500000000001 0.6592000000000000 0.9840500000000001
0.7945500000000001 0.1592000000000000 0.4840500000000000
0.7945500000000001 0.1592000000000000 0.9840500000000001
0.7945500000000001 0.6592000000000000 0.4840500000000000
0.7945500000000001 0.6592000000000000 0.9840500000000001
0.0445500000000000 0.4092000000000002 0.2340500000000000
0.0445500000000000 0.4092000000000002 0.7340500000000001
0.0445500000000000 0.9092000000000002 0.2340500000000000
0.0445500000000000 0.9092000000000002 0.7340500000000001
0.5445500000000000 0.4092000000000002 0.2340500000000000
0.5445500000000000 0.4092000000000002 0.7340500000000001
0.5445500000000000 0.9092000000000002 0.2340500000000000
0.5445500000000000 0.9092000000000002 0.7340500000000001
0.2054500000000000 0.0159500000000000 0.1592000000000000
0.2054500000000000 0.0159500000000000 0.6592000000000000
0.2054500000000000 0.5159500000000000 0.1592000000000000
0.2054500000000000 0.5159500000000000 0.6592000000000000
0.7054500000000001 0.0159500000000000 0.1592000000000000
0.7054500000000001 0.0159500000000000 0.6592000000000000
0.7054500000000001 0.5159500000000000 0.1592000000000000
0.7054500000000001 0.5159500000000000 0.6592000000000000
0.4554500000000000 0.2659500000000000 0.4092000000000002
0.4554500000000000 0.2659500000000000 0.9092000000000002
0.4554500000000000 0.7659500000000000 0.4092000000000002
0.4554500000000000 0.7659500000000000 0.9092000000000002
0.9554500000000000 0.2659500000000000 0.4092000000000002
0.9554499999999999 0.2659500000000000 0.9092000000000002
0.9554500000000000 0.7659500000000000 0.4092000000000002
0.9554499999999999 0.7659500000000000 0.9092000000000002
0.3408000000000000 0.2945500000000002 0.0159500000000000
0.3408000000000000 0.2945500000000001 0.5159500000000000
0.3408000000000000 0.7945500000000001 0.0159500000000000
0.3408000000000000 0.7945500000000001 0.5159500000000000
0.8408000000000000 0.2945500000000002 0.0159500000000000
0.8408000000000000 0.2945500000000001 0.5159500000000000
0.8408000000000000 0.7945500000000001 0.0159500000000000
0.8408000000000000 0.7945500000000001 0.5159500000000000
0.0908000000000000 0.0445500000000000 0.2659500000000000
0.0908000000000000 0.0445500000000000 0.7659500000000000
0.0908000000000000 0.5445500000000000 0.2659500000000000
0.0908000000000000 0.5445500000000000 0.7659500000000000
0.5908000000000001 0.0445500000000000 0.2659500000000000
0.5908000000000001 0.0445500000000000 0.7659500000000000
0.5908000000000001 0.5445500000000000 0.2659500000000000
0.5908000000000001 0.5445500000000000 0.7659500000000000
0.2500000000000000 0.0000000000000000 0.3750000000000003
0.2500000000000000 0.0000000000000000 0.8750000000000002
0.2500000000000000 0.5000000000000000 0.3750000000000003
0.2500000000000000 0.5000000000000001 0.8750000000000002
0.7500000000000001 0.0000000000000000 0.3750000000000003
0.7500000000000002 0.0000000000000000 0.8750000000000002
0.7500000000000001 0.5000000000000000 0.3750000000000003
0.7500000000000002 0.5000000000000001 0.8750000000000002
0.0000000000000000 0.2500000000000000 0.1250000000000000
0.0000000000000000 0.2500000000000000 0.6250000000000000
0.0000000000000000 0.7500000000000001 0.1250000000000000
0.0000000000000000 0.7500000000000001 0.6250000000000000
0.5000000000000000 0.2500000000000000 0.1250000000000000
0.4999999999999999 0.2500000000000000 0.6250000000000000
0.4999999999999999 0.7500000000000001 0.1250000000000000
0.4999999999999999 0.7500000000000001 0.6250000000000000
0.0000000000000000 0.3750000000000003 0.2500000000000000
0.0000000000000000 0.3750000000000002 0.7500000000000001
0.0000000000000000 0.8750000000000002 0.2500000000000000
0.0000000000000000 0.8750000000000002 0.7500000000000001
0.5000000000000000 0.3750000000000003 0.2500000000000000
0.4999999999999999 0.3750000000000002 0.7500000000000001
0.5000000000000001 0.8750000000000002 0.2500000000000000
0.5000000000000001 0.8750000000000002 0.7500000000000001
0.2500000000000000 0.1250000000000000 0.0000000000000000
0.2500000000000000 0.1250000000000000 0.5000000000000000
0.2500000000000000 0.6250000000000000 0.0000000000000000
0.2500000000000000 0.6250000000000000 0.5000000000000000
0.7500000000000001 0.1250000000000000 0.0000000000000000
0.7500000000000001 0.1250000000000000 0.5000000000000000
0.7500000000000001 0.6250000000000000 0.0000000000000000
0.7500000000000001 0.6250000000000000 0.5000000000000000
0.3750000000000003 0.2500000000000000 0.0000000000000000
0.3750000000000002 0.2500000000000000 0.5000000000000000
0.3750000000000002 0.7500000000000001 0.0000000000000000
0.3750000000000002 0.7500000000000001 0.5000000000000000
0.8750000000000002 0.2500000000000000 0.0000000000000000
0.8750000000000002 0.2500000000000000 0.5000000000000000
0.8750000000000002 0.7500000000000001 0.0000000000000000
0.8750000000000002 0.7500000000000001 0.5000000000000000
0.1250000000000000 0.0000000000000000 0.2500000000000000
0.1250000000000000 0.0000000000000000 0.7500000000000001
0.1250000000000000 0.5000000000000000 0.2500000000000000
0.1250000000000000 0.4999999999999999 0.7500000000000001
0.6250000000000000 0.0000000000000000 0.2500000000000000
0.6250000000000000 0.0000000000000000 0.7500000000000001
0.6250000000000000 0.5000000000000000 0.2500000000000000
0.6250000000000000 0.4999999999999999 0.7500000000000001
0.3750000000000003 0.0000000000000000 0.2500000000000000
0.3750000000000002 0.0000000000000000 0.7500000000000001
0.3750000000000002 0.5000000000000000 0.2500000000000000
0.3750000000000002 0.4999999999999999 0.7500000000000001
0.8750000000000002 0.0000000000000000 0.2500000000000000
0.8750000000000002 0.0000000000000000 0.7500000000000001
0.8750000000000002 0.5000000000000000 0.2500000000000000
0.8750000000000002 0.4999999999999999 0.7500000000000001
0.1250000000000000 0.2500000000000000 0.0000000000000000
0.1250000000000000 0.2500000000000000 0.5000000000000000
0.1250000000000000 0.7500000000000001 0.0000000000000000
0.1250000000000000 0.7500000000000001 0.5000000000000000
0.6250000000000000 0.2500000000000000 0.0000000000000000
0.6250000000000000 0.2500000000000000 0.5000000000000000
0.6250000000000000 0.7500000000000001 0.0000000000000000
0.6250000000000000 0.7500000000000001 0.5000000000000000
0.2500000000000000 0.0000000000000000 0.1250000000000000
0.2500000000000000 0.0000000000000000 0.6250000000000000
0.2500000000000000 0.5000000000000000 0.1250000000000000
0.2500000000000000 0.4999999999999999 0.6250000000000000
0.7500000000000001 0.0000000000000000 0.1250000000000000
0.7500000000000001 0.0000000000000000 0.6250000000000000
0.7500000000000001 0.5000000000000000 0.1250000000000000
0.7500000000000001 0.4999999999999999 0.6250000000000000
0.0000000000000000 0.2500000000000000 0.3749999999999999
0.0000000000000000 0.2500000000000000 0.8750000000000001
0.0000000000000000 0.7500000000000001 0.3749999999999999
0.0000000000000000 0.7500000000000002 0.8750000000000001
0.5000000000000000 0.2500000000000000 0.3749999999999999
0.5000000000000001 0.2500000000000000 0.8750000000000001
0.4999999999999999 0.7500000000000001 0.3749999999999999
0.5000000000000001 0.7500000000000002 0.8750000000000001
0.0000000000000000 0.1250000000000000 0.2500000000000000
0.0000000000000000 0.1250000000000000 0.7500000000000001
0.0000000000000000 0.6250000000000000 0.2500000000000000
0.0000000000000000 0.6250000000000000 0.7500000000000001
0.5000000000000000 0.1250000000000000 0.2500000000000000
0.4999999999999999 0.1250000000000000 0.7500000000000001
0.4999999999999999 0.6250000000000000 0.2500000000000000
0.4999999999999999 0.6250000000000000 0.7500000000000001
0.2500000000000000 0.3749999999999999 0.0000000000000000
0.2500000000000000 0.3749999999999999 0.5000000000000000
0.2500000000000000 0.8750000000000001 0.0000000000000000
0.2500000000000000 0.8750000000000001 0.5000000000000000
0.7500000000000001 0.3749999999999999 0.0000000000000000
0.7500000000000001 0.3749999999999999 0.5000000000000000
0.7500000000000002 0.8750000000000001 0.0000000000000000
0.7500000000000002 0.8750000000000001 0.5000000000000000
0.2090500000000000 0.4236000000000000 0.3408500000000000
0.2090500000000000 0.4236000000000000 0.8408500000000000
0.2090500000000000 0.9236000000000000 0.3408500000000000
0.2090500000000000 0.9236000000000000 0.8408500000000000
0.7090500000000001 0.4236000000000000 0.3408500000000000
0.7090500000000001 0.4236000000000000 0.8408500000000000
0.7090500000000001 0.9236000000000000 0.3408500000000000
0.7090500000000001 0.9236000000000000 0.8408500000000000
0.4590500000000001 0.1736000000000001 0.0908500000000000
0.4590500000000001 0.1736000000000001 0.5908500000000000
0.4590500000000001 0.6736000000000002 0.0908500000000000
0.4590500000000001 0.6736000000000002 0.5908500000000000
0.9590500000000002 0.1736000000000001 0.0908500000000000
0.9590500000000002 0.1736000000000001 0.5908500000000000
0.9590500000000002 0.6736000000000002 0.0908500000000000
0.9590500000000002 0.6736000000000002 0.5908500000000000
0.4236000000000000 0.3408500000000000 0.2090500000000000
0.4236000000000000 0.3408500000000000 0.7090500000000001
0.4236000000000000 0.8408500000000000 0.2090500000000000
0.4236000000000000 0.8408500000000000 0.7090500000000001
0.9236000000000000 0.3408500000000000 0.2090500000000000
0.9236000000000000 0.3408500000000000 0.7090500000000001
0.9236000000000000 0.8408500000000000 0.2090500000000000
0.9236000000000000 0.8408500000000000 0.7090500000000001
0.1736000000000001 0.0908500000000000 0.4590500000000001
0.1736000000000001 0.0908500000000000 0.9590500000000002
0.1736000000000001 0.5908500000000000 0.4590500000000001
0.1736000000000001 0.5908500000000000 0.9590500000000002
0.6736000000000002 0.0908500000000000 0.4590500000000001
0.6736000000000002 0.0908500000000000 0.9590500000000002
0.6736000000000002 0.5908500000000000 0.4590500000000001
0.6736000000000002 0.5908500000000000 0.9590500000000002
0.3408500000000000 0.2090500000000000 0.4236000000000000
0.3408500000000000 0.2090500000000000 0.9236000000000000
0.3408500000000000 0.7090500000000001 0.4236000000000000
0.3408500000000000 0.7090500000000001 0.9236000000000000
0.8408500000000000 0.2090500000000000 0.4236000000000000
0.8408500000000000 0.2090500000000000 0.9236000000000000
0.8408500000000000 0.7090500000000001 0.4236000000000000
0.8408500000000000 0.7090500000000001 0.9236000000000000
0.0908500000000000 0.4590500000000001 0.1736000000000001
0.0908500000000000 0.4590500000000001 0.6736000000000002
0.0908500000000000 0.9590500000000002 0.1736000000000001
0.0908500000000000 0.9590500000000002 0.6736000000000002
0.5908500000000000 0.4590500000000001 0.1736000000000001
0.5908500000000000 0.4590500000000001 0.6736000000000002
0.5908500000000000 0.9590500000000002 0.1736000000000001
0.5908500000000000 0.9590500000000002 0.6736000000000002
0.4236000000000000 0.2909499999999999 0.1591500000000000
0.4236000000000000 0.2909499999999999 0.6591500000000000
0.4236000000000000 0.7909499999999999 0.1591500000000000
0.4236000000000000 0.7909499999999999 0.6591500000000000
0.9236000000000000 0.2909499999999999 0.1591500000000000
0.9236000000000000 0.2909499999999999 0.6591500000000000
0.9236000000000000 0.7909499999999999 0.1591500000000000
0.9236000000000000 0.7909499999999999 0.6591500000000000
0.1736000000000001 0.0409500000000000 0.4091500000000000
0.1736000000000001 0.0409500000000000 0.9091500000000001
0.1736000000000001 0.5409500000000000 0.4091500000000000
0.1736000000000001 0.5409500000000000 0.9091500000000001
0.6736000000000002 0.0409500000000000 0.4091500000000000
0.6736000000000002 0.0409500000000000 0.9091500000000001
0.6736000000000002 0.5409500000000000 0.4091500000000000
0.6736000000000002 0.5409500000000000 0.9091500000000001
0.3408500000000000 0.0764000000000000 0.2909499999999999
0.3408500000000000 0.0764000000000000 0.7909499999999999
0.3408500000000000 0.5764000000000000 0.2909499999999999
0.3408500000000000 0.5764000000000000 0.7909499999999999
0.8408500000000000 0.0764000000000000 0.2909499999999999
0.8408500000000000 0.0764000000000000 0.7909499999999999
0.8408500000000000 0.5764000000000000 0.2909499999999999
0.8408500000000000 0.5764000000000000 0.7909499999999999
0.0908500000000000 0.3264000000000000 0.0409500000000000
0.0908500000000000 0.3264000000000000 0.5409500000000000
0.0908500000000000 0.8264000000000000 0.0409500000000000
0.0908500000000000 0.8264000000000000 0.5409500000000000
0.5908500000000000 0.3264000000000000 0.0409500000000000
0.5908500000000000 0.3264000000000000 0.5409500000000000
0.5908500000000000 0.8264000000000000 0.0409500000000000
0.5908500000000000 0.8264000000000000 0.5409500000000000
0.2090500000000000 0.1591500000000000 0.0764000000000000
0.2090500000000000 0.1591500000000000 0.5764000000000000
0.2090500000000001 0.6591500000000000 0.0764000000000000
0.2090500000000001 0.6591500000000000 0.5764000000000000
0.7090500000000001 0.1591500000000000 0.0764000000000000
0.7090500000000001 0.1591500000000000 0.5764000000000000
0.7090500000000001 0.6591500000000000 0.0764000000000000
0.7090500000000001 0.6591500000000000 0.5764000000000000
0.4590500000000001 0.4091500000000000 0.3264000000000000
0.4590500000000001 0.4091500000000000 0.8264000000000000
0.4590500000000001 0.9091500000000001 0.3264000000000000
0.4590500000000001 0.9091500000000001 0.8264000000000000
0.9590500000000002 0.4091500000000000 0.3264000000000000
0.9590500000000002 0.4091500000000000 0.8264000000000000
0.9590500000000001 0.9091500000000001 0.3264000000000000
0.9590500000000001 0.9091500000000001 0.8264000000000000
0.2909499999999999 0.0764000000000000 0.3408500000000000
0.2909499999999999 0.0764000000000000 0.8408500000000000
0.2909499999999999 0.5764000000000000 0.3408500000000000
0.2909499999999999 0.5764000000000000 0.8408500000000000
0.7909499999999999 0.0764000000000000 0.3408500000000000
0.7909499999999999 0.0764000000000000 0.8408500000000000
0.7909499999999999 0.5764000000000000 0.3408500000000000
0.7909499999999999 0.5764000000000000 0.8408500000000000
0.0409500000000000 0.3264000000000000 0.0908500000000000
0.0409500000000000 0.3264000000000000 0.5908500000000000
0.0409500000000000 0.8264000000000000 0.0908500000000000
0.0409500000000000 0.8264000000000000 0.5908500000000000
0.5409500000000000 0.3264000000000000 0.0908500000000000
0.5409500000000000 0.3264000000000000 0.5908500000000000
0.5409500000000000 0.8264000000000000 0.0908500000000000
0.5409500000000000 0.8264000000000000 0.5908500000000000
0.1591500000000000 0.2090500000000000 0.0764000000000000
0.1591500000000000 0.2090500000000000 0.5764000000000000
0.1591500000000000 0.7090500000000001 0.0764000000000000
0.1591500000000000 0.7090500000000001 0.5764000000000000
0.6591500000000000 0.2090500000000000 0.0764000000000000
0.6591500000000000 0.2090500000000000 0.5764000000000000
0.6591500000000000 0.7090500000000001 0.0764000000000000
0.6591500000000000 0.7090500000000001 0.5764000000000000
0.4091500000000000 0.4590500000000001 0.3264000000000000
0.4091500000000000 0.4590500000000001 0.8264000000000000
0.4091500000000000 0.9590500000000002 0.3264000000000000
0.4091500000000000 0.9590500000000002 0.8264000000000000
0.9091500000000001 0.4590500000000001 0.3264000000000000
0.9091500000000001 0.4590500000000001 0.8264000000000000
0.9091500000000001 0.9590500000000002 0.3264000000000000
0.9091500000000001 0.9590500000000002 0.8264000000000000
0.2909499999999999 0.4236000000000000 0.1591500000000000
0.2909499999999999 0.4236000000000000 0.6591500000000000
0.2909499999999999 0.9236000000000000 0.1591500000000000
0.2909499999999999 0.9236000000000000 0.6591500000000000
0.7909499999999999 0.4236000000000000 0.1591500000000000
0.7909499999999999 0.4236000000000000 0.6591500000000000
0.7909499999999999 0.9236000000000000 0.1591500000000000
0.7909499999999999 0.9236000000000000 0.6591500000000000
0.0409500000000000 0.1736000000000001 0.4091500000000000
0.0409500000000000 0.1736000000000001 0.9091500000000001
0.0409500000000000 0.6736000000000002 0.4091500000000000
0.0409500000000000 0.6736000000000002 0.9091500000000001
0.5409500000000000 0.1736000000000001 0.4091500000000000
0.5409500000000000 0.1736000000000001 0.9091500000000001
0.5409500000000000 0.6736000000000002 0.4091500000000000
0.5409500000000000 0.6736000000000002 0.9091500000000001
0.0764000000000000 0.1591500000000000 0.2090500000000000
0.0764000000000000 0.1591500000000000 0.7090500000000001
0.0764000000000000 0.6591500000000000 0.2090500000000000
0.0764000000000000 0.6591500000000000 0.7090500000000001
0.5764000000000000 0.1591500000000000 0.2090500000000000
0.5764000000000000 0.1591500000000000 0.7090500000000001
0.5764000000000000 0.6591500000000000 0.2090500000000000
0.5764000000000000 0.6591500000000000 0.7090500000000001
0.3264000000000000 0.4091500000000000 0.4590500000000001
0.3264000000000000 0.4091500000000000 0.9590500000000002
0.3264000000000000 0.9091500000000001 0.4590500000000001
0.3264000000000000 0.9091500000000001 0.9590500000000002
0.8264000000000000 0.4091500000000000 0.4590500000000001
0.8264000000000000 0.4091500000000000 0.9590500000000002
0.8264000000000000 0.9091500000000001 0.4590500000000001
0.8264000000000000 0.9091500000000001 0.9590500000000002
0.1591500000000000 0.2909499999999999 0.4236000000000000
0.1591500000000000 0.2909499999999999 0.9236000000000000
0.1591500000000000 0.7909499999999999 0.4236000000000000
0.1591500000000000 0.7909499999999999 0.9236000000000000
0.6591500000000000 0.2909499999999999 0.4236000000000000
0.6591500000000000 0.2909499999999999 0.9236000000000000
0.6591500000000000 0.7909499999999999 0.4236000000000000
0.6591500000000000 0.7909499999999999 0.9236000000000000
0.4091500000000000 0.0409500000000000 0.1736000000000001
0.4091500000000000 0.0409500000000000 0.6736000000000002
0.4091500000000000 0.5409500000000000 0.1736000000000001
0.4091500000000000 0.5409500000000000 0.6736000000000002
0.9091500000000001 0.0409500000000000 0.1736000000000001
0.9091500000000001 0.0409500000000000 0.6736000000000002
0.9091500000000001 0.5409500000000000 0.1736000000000001
0.9091500000000001 0.5409500000000000 0.6736000000000002
0.0764000000000000 0.2090500000000000 0.1591500000000000
0.0764000000000000 0.2090500000000001 0.6591500000000000
0.0764000000000000 0.7090500000000001 0.1591500000000000
0.0764000000000000 0.7090500000000001 0.6591500000000000
0.5764000000000000 0.2090500000000000 0.1591500000000000
0.5764000000000000 0.2090500000000001 0.6591500000000000
0.5764000000000000 0.7090500000000001 0.1591500000000000
0.5764000000000000 0.7090500000000001 0.6591500000000000
0.3264000000000000 0.4590500000000001 0.4091500000000000
0.3264000000000000 0.4590500000000001 0.9091500000000001
0.3264000000000000 0.9590500000000002 0.4091500000000000
0.3264000000000000 0.9590500000000001 0.9091500000000001
0.8264000000000000 0.4590500000000001 0.4091500000000000
0.8264000000000000 0.4590500000000001 0.9091500000000001
0.8264000000000000 0.9590500000000002 0.4091500000000000
0.8264000000000000 0.9590500000000001 0.9091500000000001
0.1591500000000000 0.4236000000000000 0.2909499999999999
0.1591500000000000 0.4236000000000000 0.7909499999999999
0.1591500000000000 0.9236000000000000 0.2909499999999999
0.1591500000000000 0.9236000000000000 0.7909499999999999
0.6591500000000000 0.4236000000000000 0.2909499999999999
0.6591500000000000 0.4236000000000000 0.7909499999999999
0.6591500000000000 0.9236000000000000 0.2909499999999999
0.6591500000000000 0.9236000000000000 0.7909499999999999
0.4091500000000000 0.1736000000000001 0.0409500000000000
0.4091500000000000 0.1736000000000001 0.5409500000000000
0.4091500000000000 0.6736000000000002 0.0409500000000000
0.4091500000000000 0.6736000000000002 0.5409500000000000
0.9091500000000001 0.1736000000000001 0.0409500000000000
0.9091500000000001 0.1736000000000001 0.5409500000000000
0.9091500000000001 0.6736000000000002 0.0409500000000000
0.9091500000000001 0.6736000000000002 0.5409500000000000
0.2909499999999999 0.3408500000000000 0.0764000000000000
0.2909499999999999 0.3408500000000000 0.5764000000000000
0.2909499999999999 0.8408500000000000 0.0764000000000000
0.2909499999999999 0.8408500000000000 0.5764000000000000
0.7909499999999999 0.3408500000000000 0.0764000000000000
0.7909499999999999 0.3408500000000000 0.5764000000000000
0.7909499999999999 0.8408500000000000 0.0764000000000000
0.7909499999999999 0.8408500000000000 0.5764000000000000
0.0409500000000000 0.0908500000000000 0.3264000000000000
0.0409500000000000 0.0908500000000000 0.8264000000000000
0.0409500000000000 0.5908500000000000 0.3264000000000000
0.0409500000000000 0.5908500000000000 0.8264000000000000
0.5409500000000000 0.0908500000000000 0.3264000000000000
0.5409500000000000 0.0908500000000000 0.8264000000000000
0.5409500000000000 0.5908500000000000 0.3264000000000000
0.5409500000000000 0.5908500000000000 0.8264000000000000
0.0764000000000000 0.3408500000000000 0.2909499999999999
0.0764000000000000 0.3408500000000000 0.7909499999999999
0.0764000000000000 0.8408500000000000 0.2909499999999999
0.0764000000000000 0.8408500000000000 0.7909499999999999
0.5764000000000000 0.3408500000000000 0.2909499999999999
0.5764000000000000 0.3408500000000000 0.7909499999999999
0.5764000000000000 0.8408500000000000 0.2909499999999999
0.5764000000000000 0.8408500000000000 0.7909499999999999
0.3264000000000000 0.0908500000000000 0.0409500000000000
0.3264000000000000 0.0908500000000000 0.5409500000000000
0.3264000000000000 0.5908500000000000 0.0409500000000000
0.3264000000000000 0.5908500000000000 0.5409500000000000
0.8264000000000000 0.0908500000000000 0.0409500000000000
0.8264000000000000 0.0908500000000000 0.5409500000000000
0.8264000000000000 0.5908500000000000 0.0409500000000000
0.8264000000000000 0.5908500000000000 0.5409500000000000
0.3408500000000000 0.4236000000000000 0.2090500000000000
0.3408500000000000 0.4236000000000000 0.7090500000000001
0.3408500000000000 0.9236000000000000 0.2090500000000000
0.3408500000000000 0.9236000000000000 0.7090500000000001
0.8408500000000000 0.4236000000000000 0.2090500000000000
0.8408500000000000 0.4236000000000000 0.7090500000000001
0.8408500000000000 0.9236000000000000 0.2090500000000000
0.8408500000000000 0.9236000000000000 0.7090500000000001
0.0908500000000000 0.1736000000000001 0.4590500000000001
0.0908500000000000 0.1736000000000001 0.9590500000000002
0.0908500000000000 0.6736000000000002 0.4590500000000001
0.0908500000000000 0.6736000000000002 0.9590500000000002
0.5908500000000000 0.1736000000000001 0.4590500000000001
0.5908500000000000 0.1736000000000001 0.9590500000000002
0.5908500000000000 0.6736000000000002 0.4590500000000001
0.5908500000000000 0.6736000000000002 0.9590500000000002
0.2090500000000000 0.3408500000000000 0.4236000000000000
0.2090500000000000 0.3408500000000000 0.9236000000000000
0.2090500000000000 0.8408500000000000 0.4236000000000000
0.2090500000000000 0.8408500000000000 0.9236000000000000
0.7090500000000001 0.3408500000000000 0.4236000000000000
0.7090500000000001 0.3408500000000000 0.9236000000000000
0.7090500000000001 0.8408500000000000 0.4236000000000000
0.7090500000000001 0.8408500000000000 0.9236000000000000
0.4590500000000001 0.0908500000000000 0.1736000000000001
0.4590500000000001 0.0908500000000000 0.6736000000000002
0.4590500000000001 0.5908500000000000 0.1736000000000001
0.4590500000000001 0.5908500000000000 0.6736000000000002
0.9590500000000002 0.0908500000000000 0.1736000000000001
0.9590500000000002 0.0908500000000000 0.6736000000000002
0.9590500000000002 0.5908500000000000 0.1736000000000001
0.9590500000000002 0.5908500000000000 0.6736000000000002
0.4236000000000000 0.2090500000000000 0.3408500000000000
0.4236000000000000 0.2090500000000000 0.8408500000000000
0.4236000000000000 0.7090500000000001 0.3408500000000000
0.4236000000000000 0.7090500000000001 0.8408500000000000
0.9236000000000000 0.2090500000000000 0.3408500000000000
0.9236000000000000 0.2090500000000000 0.8408500000000000
0.9236000000000000 0.7090500000000001 0.3408500000000000
0.9236000000000000 0.7090500000000001 0.8408500000000000
0.1736000000000001 0.4590500000000001 0.0908500000000000
0.1736000000000001 0.4590500000000001 0.5908500000000000
0.1736000000000001 0.9590500000000002 0.0908500000000000
0.1736000000000001 0.9590500000000002 0.5908500000000000
0.6736000000000002 0.4590500000000001 0.0908500000000000
0.6736000000000002 0.4590500000000001 0.5908500000000000
0.6736000000000002 0.9590500000000002 0.0908500000000000
0.6736000000000002 0.9590500000000002 0.5908500000000000
0.4236000000000000 0.1591500000000000 0.2909499999999999
0.4236000000000000 0.1591500000000000 0.7909499999999999
0.4236000000000000 0.6591500000000000 0.2909499999999999
0.4236000000000000 0.6591500000000000 0.7909499999999999
0.9236000000000000 0.1591500000000000 0.2909499999999999
0.9236000000000000 0.1591500000000000 0.7909499999999999
0.9236000000000000 0.6591500000000000 0.2909499999999999
0.9236000000000000 0.6591500000000000 0.7909499999999999
0.1736000000000001 0.4091500000000000 0.0409500000000000
0.1736000000000001 0.4091500000000000 0.5409500000000000
0.1736000000000001 0.9091500000000001 0.0409500000000000
0.1736000000000001 0.9091500000000001 0.5409500000000000
0.6736000000000002 0.4091500000000000 0.0409500000000000
0.6736000000000002 0.4091500000000000 0.5409500000000000
0.6736000000000002 0.9091500000000001 0.0409500000000000
0.6736000000000002 0.9091500000000001 0.5409500000000000
0.0764000000000000 0.2909499999999999 0.3408500000000000
0.0764000000000000 0.2909499999999999 0.8408500000000000
0.0764000000000000 0.7909499999999999 0.3408500000000000
0.0764000000000000 0.7909499999999999 0.8408500000000000
0.5764000000000000 0.2909499999999999 0.3408500000000000
0.5764000000000000 0.2909499999999999 0.8408500000000000
0.5764000000000000 0.7909499999999999 0.3408500000000000
0.5764000000000000 0.7909499999999999 0.8408500000000000
0.3264000000000000 0.0409500000000000 0.0908500000000000
0.3264000000000000 0.0409500000000000 0.5908500000000000
0.3264000000000000 0.5409500000000000 0.0908500000000000
0.3264000000000000 0.5409500000000000 0.5908500000000000
0.8264000000000000 0.0409500000000000 0.0908500000000000
0.8264000000000000 0.0409500000000000 0.5908500000000000
0.8264000000000000 0.5409500000000000 0.0908500000000000
0.8264000000000000 0.5409500000000000 0.5908500000000000
0.1591500000000000 0.0764000000000000 0.2090500000000000
0.1591500000000000 0.0764000000000000 0.7090500000000001
0.1591500000000000 0.5764000000000000 0.2090500000000000
0.1591500000000000 0.5764000000000000 0.7090500000000001
0.6591500000000000 0.0764000000000000 0.2090500000000000
0.6591500000000000 0.0764000000000000 0.7090500000000001
0.6591500000000000 0.5764000000000000 0.2090500000000000
0.6591500000000000 0.5764000000000000 0.7090500000000001
0.4091500000000000 0.3264000000000000 0.4590500000000001
0.4091500000000000 0.3264000000000000 0.9590500000000002
0.4091500000000000 0.8264000000000000 0.4590500000000001
0.4091500000000000 0.8264000000000000 0.9590500000000002
0.9091500000000001 0.3264000000000000 0.4590500000000001
0.9091500000000001 0.3264000000000000 0.9590500000000002
0.9091500000000001 0.8264000000000000 0.4590500000000001
0.9091500000000001 0.8264000000000000 0.9590500000000002
0.2909499999999999 0.1591500000000000 0.4236000000000000
0.2909499999999999 0.1591500000000000 0.9236000000000000
0.2909499999999999 0.6591500000000000 0.4236000000000000
0.2909499999999999 0.6591500000000000 0.9236000000000000
0.7909499999999999 0.1591500000000000 0.4236000000000000
0.7909499999999999 0.1591500000000000 0.9236000000000000
0.7909499999999999 0.6591500000000000 0.4236000000000000
0.7909499999999999 0.6591500000000000 0.9236000000000000
0.0409500000000000 0.4091500000000000 0.1736000000000001
0.0409500000000000 0.4091500000000000 0.6736000000000002
0.0409500000000000 0.9091500000000001 0.1736000000000001
0.0409500000000000 0.9091500000000001 0.6736000000000002
0.5409500000000000 0.4091500000000000 0.1736000000000001
0.5409500000000000 0.4091500000000000 0.6736000000000002
0.5409500000000000 0.9091500000000001 0.1736000000000001
0.5409500000000000 0.9091500000000001 0.6736000000000002
0.2090500000000000 0.0764000000000000 0.1591500000000000
0.2090500000000001 0.0764000000000000 0.6591500000000000
0.2090500000000000 0.5764000000000000 0.1591500000000000
0.2090500000000001 0.5764000000000000 0.6591500000000000
0.7090500000000001 0.0764000000000000 0.1591500000000000
0.7090500000000001 0.0764000000000000 0.6591500000000000
0.7090500000000001 0.5764000000000000 0.1591500000000000
0.7090500000000001 0.5764000000000000 0.6591500000000000
0.4590500000000001 0.3264000000000000 0.4091500000000000
0.4590500000000001 0.3264000000000000 0.9091500000000001
0.4590500000000001 0.8264000000000000 0.4091500000000000
0.4590500000000001 0.8264000000000000 0.9091500000000001
0.9590500000000002 0.3264000000000000 0.4091500000000000
0.9590500000000001 0.3264000000000000 0.9091500000000001
0.9590500000000002 0.8264000000000000 0.4091500000000000
0.9590500000000001 0.8264000000000000 0.9091500000000001
0.3408500000000000 0.2909499999999999 0.0764000000000000
0.3408500000000000 0.2909499999999999 0.5764000000000000
0.3408500000000000 0.7909499999999999 0.0764000000000000
0.3408500000000000 0.7909499999999999 0.5764000000000000
0.8408500000000000 0.2909499999999999 0.0764000000000000
0.8408500000000000 0.2909499999999999 0.5764000000000000
0.8408500000000000 0.7909499999999999 0.0764000000000000
0.8408500000000000 0.7909499999999999 0.5764000000000000
0.0908500000000000 0.0409500000000000 0.3264000000000000
0.0908500000000000 0.0409500000000000 0.8264000000000000
0.0908500000000000 0.5409500000000000 0.3264000000000000
0.0908500000000000 0.5409500000000000 0.8264000000000000
0.5908500000000000 0.0409500000000000 0.3264000000000000
0.5908500000000000 0.0409500000000000 0.8264000000000000
0.5908500000000000 0.5409500000000000 0.3264000000000000
0.5908500000000000 0.5409500000000000 0.8264000000000000
0.2021500000000000 0.0584000000000000 0.2978500000000000
0.2021500000000000 0.0584000000000000 0.7978499999999999
0.2021500000000000 0.5584000000000000 0.2978500000000000
0.2021500000000000 0.5584000000000000 0.7978499999999999
0.7021500000000001 0.0584000000000000 0.2978500000000000
0.7021500000000001 0.0584000000000000 0.7978499999999999
0.7021500000000001 0.5584000000000000 0.2978500000000000
0.7021500000000001 0.5584000000000000 0.7978499999999999
0.2978500000000001 0.4416000000000000 0.2978500000000000
0.2978500000000001 0.4416000000000000 0.7978499999999999
0.2978500000000000 0.9416000000000001 0.2978500000000000
0.2978500000000000 0.9416000000000001 0.7978499999999999
0.7978499999999999 0.4416000000000000 0.2978500000000000
0.7978499999999999 0.4416000000000000 0.7978499999999999
0.7978499999999999 0.9416000000000001 0.2978500000000000
0.7978499999999999 0.9416000000000001 0.7978499999999999
0.0478499999999999 0.1916000000000000 0.0478500000000000
0.0478499999999999 0.1916000000000000 0.5478500000000001
0.0478500000000000 0.6916000000000001 0.0478500000000000
0.0478500000000000 0.6916000000000001 0.5478500000000001
0.5478500000000001 0.1916000000000000 0.0478500000000000
0.5478500000000001 0.1916000000000000 0.5478500000000001
0.5478500000000001 0.6916000000000001 0.0478500000000000
0.5478500000000001 0.6916000000000001 0.5478500000000001
0.2021500000000000 0.2021500000000000 0.4416000000000000
0.2021500000000000 0.2021500000000000 0.9416000000000001
0.2021500000000000 0.7021500000000001 0.4416000000000000
0.2021500000000000 0.7021500000000001 0.9416000000000001
0.7021500000000001 0.2021500000000000 0.4416000000000000
0.7021500000000001 0.2021500000000000 0.9416000000000001
0.7021500000000001 0.7021500000000001 0.4416000000000000
0.7021500000000001 0.7021500000000001 0.9416000000000001
0.4521500000000003 0.4521500000000002 0.1916000000000000
0.4521500000000002 0.4521500000000002 0.6916000000000001
0.4521500000000002 0.9521500000000003 0.1916000000000000
0.4521500000000002 0.9521500000000003 0.6916000000000001
0.9521500000000003 0.4521500000000002 0.1916000000000000
0.9521500000000003 0.4521500000000002 0.6916000000000001
0.9521500000000002 0.9521500000000003 0.1916000000000000
0.9521500000000002 0.9521500000000003 0.6916000000000001
0.2978500000000000 0.0584000000000000 0.2021500000000000
0.2978500000000000 0.0584000000000000 0.7021500000000001
0.2978500000000000 0.5584000000000000 0.2021500000000000
0.2978500000000000 0.5584000000000000 0.7021500000000001
0.7978499999999999 0.0584000000000000 0.2021500000000000
0.7978499999999999 0.0584000000000000 0.7021500000000001
0.7978499999999999 0.5584000000000000 0.2021500000000000
0.7978499999999999 0.5584000000000000 0.7021500000000001
0.2021500000000000 0.2978500000000000 0.0584000000000000
0.2021500000000000 0.2978500000000000 0.5584000000000000
0.2021500000000000 0.7978499999999999 0.0584000000000000
0.2021500000000000 0.7978499999999999 0.5584000000000000
0.7021500000000001 0.2978500000000000 0.0584000000000000
0.7021500000000001 0.2978500000000000 0.5584000000000000
0.7021500000000001 0.7978499999999999 0.0584000000000000
0.7021500000000001 0.7978499999999999 0.5584000000000000
0.2978500000000001 0.2978500000000001 0.4416000000000000
0.2978500000000000 0.2978500000000000 0.9416000000000001
0.2978500000000001 0.7978499999999999 0.4416000000000000
0.2978500000000000 0.7978499999999999 0.9416000000000001
0.7978499999999999 0.2978500000000001 0.4416000000000000
0.7978499999999999 0.2978500000000000 0.9416000000000001
0.7978499999999999 0.7978499999999999 0.4416000000000000
0.7978499999999999 0.7978499999999999 0.9416000000000001
0.2021500000000000 0.4416000000000000 0.2021500000000000
0.2021500000000000 0.4416000000000000 0.7021500000000001
0.2021500000000000 0.9416000000000001 0.2021500000000000
0.2021500000000000 0.9416000000000001 0.7021500000000001
0.7021500000000001 0.4416000000000000 0.2021500000000000
0.7021500000000001 0.4416000000000000 0.7021500000000001
0.7021500000000001 0.9416000000000001 0.2021500000000000
0.7021500000000001 0.9416000000000001 0.7021500000000001
0.4521500000000003 0.1916000000000000 0.4521500000000002
0.4521500000000002 0.1916000000000000 0.9521500000000003
0.4521500000000002 0.6916000000000001 0.4521500000000002
0.4521500000000002 0.6916000000000001 0.9521500000000003
0.9521500000000003 0.1916000000000000 0.4521500000000002
0.9521500000000002 0.1916000000000000 0.9521500000000003
0.9521500000000003 0.6916000000000001 0.4521500000000002
0.9521500000000002 0.6916000000000001 0.9521500000000003
0.1579000000000000 0.0593000000000000 0.3098000000000000
0.1579000000000000 0.0593000000000000 0.8098000000000001
0.1579000000000000 0.5593000000000001 0.3098000000000000
0.1579000000000000 0.5593000000000001 0.8098000000000001
0.6579000000000000 0.0593000000000000 0.3098000000000000
0.6579000000000000 0.0593000000000000 0.8098000000000001
0.6579000000000000 0.5593000000000001 0.3098000000000000
0.6579000000000000 0.5593000000000001 0.8098000000000001
0.3098000000000001 0.4407000000000001 0.3421000000000000
0.3098000000000001 0.4407000000000001 0.8421000000000001
0.3098000000000000 0.9407000000000001 0.3421000000000000
0.3098000000000000 0.9407000000000001 0.8421000000000001
0.8098000000000001 0.4407000000000001 0.3421000000000000
0.8098000000000001 0.4407000000000001 0.8421000000000001
0.8098000000000001 0.9407000000000001 0.3421000000000000
0.8098000000000001 0.9407000000000001 0.8421000000000001
0.0598000000000001 0.1907000000000001 0.0921000000000000
0.0598000000000001 0.1907000000000001 0.5921000000000001
0.0598000000000001 0.6907000000000001 0.0921000000000000
0.0598000000000001 0.6907000000000001 0.5921000000000001
0.5598000000000001 0.1907000000000001 0.0921000000000000
0.5598000000000001 0.1907000000000001 0.5921000000000001
0.5598000000000001 0.6907000000000001 0.0921000000000000
0.5598000000000001 0.6907000000000001 0.5921000000000001
0.1579000000000000 0.1902000000000000 0.4407000000000001
0.1579000000000000 0.1902000000000000 0.9407000000000001
0.1579000000000000 0.6902000000000000 0.4407000000000001
0.1579000000000000 0.6901999999999999 0.9407000000000001
0.6579000000000000 0.1902000000000000 0.4407000000000001
0.6579000000000000 0.1902000000000000 0.9407000000000001
0.6579000000000000 0.6902000000000000 0.4407000000000001
0.6579000000000000 0.6901999999999999 0.9407000000000001
0.4079000000000003 0.4402000000000002 0.1907000000000001
0.4079000000000003 0.4402000000000002 0.6907000000000001
0.4079000000000002 0.9402000000000003 0.1907000000000001
0.4079000000000002 0.9402000000000003 0.6907000000000001
0.9079000000000002 0.4402000000000002 0.1907000000000001
0.9079000000000002 0.4402000000000002 0.6907000000000001
0.9079000000000002 0.9402000000000003 0.1907000000000001
0.9079000000000002 0.9402000000000003 0.6907000000000001
0.3421000000000000 0.4407000000000001 0.3098000000000000
0.3421000000000000 0.4407000000000001 0.8098000000000001
0.3421000000000000 0.9407000000000001 0.3098000000000000
0.3421000000000000 0.9407000000000001 0.8098000000000001
0.8421000000000001 0.4407000000000001 0.3098000000000000
0.8421000000000001 0.4407000000000001 0.8098000000000001
0.8421000000000001 0.9407000000000001 0.3098000000000000
0.8421000000000001 0.9407000000000001 0.8098000000000001
0.0921000000000000 0.1907000000000001 0.0598000000000001
0.0921000000000000 0.1907000000000001 0.5598000000000001
0.0921000000000000 0.6907000000000001 0.0598000000000001
0.0921000000000000 0.6907000000000001 0.5598000000000001
0.5921000000000001 0.1907000000000001 0.0598000000000001
0.5921000000000001 0.1907000000000001 0.5598000000000001
0.5921000000000001 0.6907000000000001 0.0598000000000001
0.5921000000000001 0.6907000000000001 0.5598000000000001
0.1902000000000000 0.1579000000000000 0.4407000000000001
0.1902000000000000 0.1579000000000000 0.9407000000000001
0.1902000000000000 0.6579000000000000 0.4407000000000001
0.1902000000000000 0.6579000000000000 0.9407000000000001
0.6902000000000000 0.1579000000000000 0.4407000000000001
0.6901999999999999 0.1579000000000000 0.9407000000000001
0.6902000000000000 0.6579000000000000 0.4407000000000001
0.6901999999999999 0.6579000000000000 0.9407000000000001
0.4402000000000002 0.4079000000000002 0.1907000000000001
0.4402000000000002 0.4079000000000002 0.6907000000000001
0.4402000000000002 0.9079000000000002 0.1907000000000001
0.4402000000000001 0.9079000000000002 0.6907000000000001
0.9402000000000003 0.4079000000000002 0.1907000000000001
0.9402000000000003 0.4079000000000002 0.6907000000000001
0.9402000000000001 0.9079000000000002 0.1907000000000001
0.9402000000000001 0.9079000000000002 0.6907000000000001
0.3421000000000000 0.0593000000000000 0.1902000000000000
0.3421000000000000 0.0593000000000000 0.6902000000000000
0.3421000000000000 0.5593000000000001 0.1902000000000000
0.3421000000000000 0.5593000000000001 0.6902000000000000
0.8421000000000001 0.0593000000000000 0.1902000000000000
0.8421000000000001 0.0593000000000000 0.6902000000000000
0.8421000000000001 0.5593000000000001 0.1902000000000000
0.8421000000000001 0.5593000000000001 0.6902000000000000
0.1902000000000000 0.3421000000000000 0.0593000000000000
0.1902000000000000 0.3421000000000000 0.5593000000000001
0.1902000000000000 0.8421000000000001 0.0593000000000000
0.1902000000000000 0.8421000000000001 0.5593000000000001
0.6902000000000000 0.3421000000000000 0.0593000000000000
0.6902000000000000 0.3421000000000000 0.5593000000000001
0.6902000000000000 0.8421000000000001 0.0593000000000000
0.6902000000000000 0.8421000000000001 0.5593000000000001
0.1902000000000000 0.0593000000000000 0.3421000000000000
0.1902000000000000 0.0593000000000000 0.8421000000000001
0.1902000000000000 0.5593000000000001 0.3421000000000000
0.1902000000000000 0.5593000000000001 0.8421000000000001
0.6902000000000000 0.0593000000000000 0.3421000000000000
0.6902000000000000 0.0593000000000000 0.8421000000000001
0.6902000000000000 0.5593000000000001 0.3421000000000000
0.6902000000000000 0.5593000000000001 0.8421000000000001
0.3421000000000000 0.3098000000000001 0.4407000000000001
0.3421000000000000 0.3098000000000000 0.9407000000000001
0.3421000000000000 0.8098000000000001 0.4407000000000001
0.3421000000000000 0.8098000000000001 0.9407000000000001
0.8421000000000001 0.3098000000000001 0.4407000000000001
0.8421000000000001 0.3098000000000000 0.9407000000000001
0.8421000000000001 0.8098000000000001 0.4407000000000001
0.8421000000000001 0.8098000000000001 0.9407000000000001
0.3098000000000000 0.0593000000000000 0.1579000000000000
0.3098000000000000 0.0593000000000000 0.6579000000000000
0.3098000000000000 0.5593000000000001 0.1579000000000000
0.3098000000000000 0.5593000000000001 0.6579000000000000
0.8098000000000001 0.0593000000000000 0.1579000000000000
0.8098000000000001 0.0593000000000000 0.6579000000000000
0.8098000000000001 0.5593000000000001 0.1579000000000000
0.8098000000000001 0.5593000000000001 0.6579000000000000
0.1579000000000000 0.3098000000000000 0.0593000000000000
0.1579000000000000 0.3098000000000000 0.5593000000000001
0.1579000000000000 0.8098000000000001 0.0593000000000000
0.1579000000000000 0.8098000000000001 0.5593000000000001
0.6579000000000000 0.3098000000000000 0.0593000000000000
0.6579000000000000 0.3098000000000000 0.5593000000000001
0.6579000000000000 0.8098000000000001 0.0593000000000000
0.6579000000000000 0.8098000000000001 0.5593000000000001
0.1902000000000000 0.4407000000000001 0.1579000000000000
0.1902000000000000 0.4407000000000001 0.6579000000000000
0.1902000000000000 0.9407000000000001 0.1579000000000000
0.1902000000000000 0.9407000000000001 0.6579000000000000
0.6902000000000000 0.4407000000000001 0.1579000000000000
0.6902000000000000 0.4407000000000001 0.6579000000000000
0.6901999999999999 0.9407000000000001 0.1579000000000000
0.6901999999999999 0.9407000000000001 0.6579000000000000
0.4402000000000002 0.1907000000000001 0.4079000000000002
0.4402000000000002 0.1907000000000001 0.9079000000000002
0.4402000000000002 0.6907000000000001 0.4079000000000002
0.4402000000000001 0.6907000000000001 0.9079000000000002
0.9402000000000003 0.1907000000000001 0.4079000000000002
0.9402000000000001 0.1907000000000001 0.9079000000000002
0.9402000000000003 0.6907000000000001 0.4079000000000002
0.9402000000000001 0.6907000000000001 0.9079000000000002
0.1579000000000000 0.4407000000000001 0.1902000000000000
0.1579000000000000 0.4407000000000001 0.6902000000000000
0.1579000000000000 0.9407000000000001 0.1902000000000000
0.1579000000000000 0.9407000000000001 0.6902000000000000
0.6579000000000000 0.4407000000000001 0.1902000000000000
0.6579000000000000 0.4407000000000001 0.6902000000000000
0.6579000000000000 0.9407000000000001 0.1902000000000000
0.6579000000000000 0.9407000000000001 0.6902000000000000
0.4079000000000003 0.1907000000000001 0.4402000000000002
0.4079000000000002 0.1907000000000001 0.9402000000000003
0.4079000000000003 0.6907000000000001 0.4402000000000002
0.4079000000000002 0.6907000000000001 0.9402000000000003
0.9079000000000002 0.1907000000000001 0.4402000000000002
0.9079000000000002 0.1907000000000001 0.9402000000000003
0.9079000000000002 0.6907000000000001 0.4402000000000002
0.9079000000000002 0.6907000000000001 0.9402000000000003
0.3098000000000001 0.3421000000000000 0.4407000000000001
0.3098000000000000 0.3421000000000000 0.9407000000000001
0.3098000000000001 0.8421000000000001 0.4407000000000001
0.3098000000000000 0.8421000000000001 0.9407000000000001
0.8098000000000001 0.3421000000000000 0.4407000000000001
0.8098000000000001 0.3421000000000000 0.9407000000000001
0.8098000000000001 0.8421000000000001 0.4407000000000001
0.8098000000000001 0.8421000000000001 0.9407000000000001
0.0393788942614329 0.0617792122491922 0.1833687296053227
0.0393788942614329 0.0617792122491922 0.6833687296053227
0.0393788942614329 0.5617792122491921 0.1833687296053227
0.0393788942614329 0.5617792122491921 0.6833687296053227
0.5393788942614330 0.0617792122491922 0.1833687296053227
0.5393788942614330 0.0617792122491922 0.6833687296053227
0.5393788942614330 0.5617792122491921 0.1833687296053227
0.5393788942614330 0.5617792122491921 0.6833687296053227
0.0691964109061258 0.0693657213080635 0.2024509920460794
0.0691964109061258 0.0693657213080635 0.7024509920460794
0.0691964109061258 0.5693657213080635 0.2024509920460794
0.0691964109061258 0.5693657213080635 0.7024509920460794
0.5691964109061258 0.0693657213080635 0.2024509920460794
0.5691964109061258 0.0693657213080635 0.7024509920460794
0.5691964109061258 0.5693657213080635 0.2024509920460794
0.5691964109061258 0.5693657213080635 0.7024509920460794
0.1016314137812919 0.0783628403893345 0.1887029039628607
0.1016314137812919 0.0783628403893345 0.6887029039628607
0.1016314137812919 0.5783628403893345 0.1887029039628607
0.1016314137812919 0.5783628403893345 0.6887029039628607
0.6016314137812919 0.0783628403893345 0.1887029039628607
0.6016314137812919 0.0783628403893345 0.6887029039628607
0.6016314137812919 0.5783628403893345 0.1887029039628607
0.6016314137812919 0.5783628403893345 0.6887029039628607
0.0617790836612026 0.4606210712458988 0.3166312731693887
0.0617790836612026 0.4606210712458988 0.8166312731693887
0.0617790836612026 0.9606210712458989 0.3166312731693887
0.0617790836612026 0.9606210712458989 0.8166312731693887
0.5617790836612025 0.4606210712458988 0.3166312731693887
0.5617790836612025 0.4606210712458988 0.8166312731693887
0.5617790836612025 0.9606210712458989 0.3166312731693887
0.5617790836612025 0.9606210712458989 0.8166312731693887
0.0693656506219036 0.4308035701328945 0.2975490094792084
0.0693656506219036 0.4308035701328945 0.7975490094792084
0.0693656506219036 0.9308035701328946 0.2975490094792084
0.0693656506219036 0.9308035701328946 0.7975490094792084
0.5693656506219036 0.4308035701328945 0.2975490094792084
0.5693656506219036 0.4308035701328945 0.7975490094792084
0.5693656506219036 0.9308035701328946 0.2975490094792084
0.5693656506219036 0.9308035701328946 0.7975490094792084
0.0783627017174581 0.3983685490211203 0.3112970990294439
0.0783627017174581 0.3983685490211203 0.8112970990294439
0.0783627017174581 0.8983685490211205 0.3112970990294439
0.0783627017174581 0.8983685490211205 0.8112970990294439
0.5783627017174581 0.3983685490211203 0.3112970990294439
0.5783627017174581 0.3983685490211203 0.8112970990294439
0.5783627017174582 0.8983685490211205 0.3112970990294439
0.5783627017174582 0.8983685490211205 0.8112970990294439
0.2969690747847818 0.1628955827812502 0.2794092764021718
0.2969690747847818 0.1628955827812502 0.7794092764021717
0.2969690747847818 0.6628955827812503 0.2794092764021718
0.2969690747847817 0.6628955827812503 0.7794092764021717
0.7969690747847817 0.1628955827812502 0.2794092764021718
0.7969690747847817 0.1628955827812502 0.7794092764021717
0.7969690747847817 0.6628955827812503 0.2794092764021718
0.7969690747847817 0.6628955827812503 0.7794092764021717
0.3187710915540838 0.1846212427689923 0.2984733767298262
0.3187710915540838 0.1846212427689923 0.7984733767298262
0.3187710915540838 0.6846212427689924 0.2984733767298262
0.3187710915540838 0.6846212427689924 0.7984733767298262
0.8187710915540838 0.1846212427689923 0.2984733767298262
0.8187710915540838 0.1846212427689923 0.7984733767298262
0.8187710915540838 0.6846212427689924 0.2984733767298262
0.8187710915540838 0.6846212427689924 0.7984733767298262
0.3425339662201728 0.2084446310535051 0.2846980564987889
0.3425339662201728 0.2084446310535051 0.7846980564987889
0.3425339662201728 0.7084446310535051 0.2846980564987889
0.3425339662201728 0.7084446310535051 0.7846980564987889
0.8425339662201728 0.2084446310535051 0.2846980564987889
0.8425339662201728 0.2084446310535051 0.7846980564987889
0.8425339662201728 0.7084446310535051 0.2846980564987889
0.8425339662201728 0.7084446310535051 0.7846980564987889
0.1833687268306113 0.0617790836612027 0.0393789287541011
0.1833687268306113 0.0617790836612027 0.5393789287541011
0.1833687268306113 0.5617790836612027 0.0393789287541011
0.1833687268306113 0.5617790836612027 0.5393789287541011
0.6833687268306115 0.0617790836612027 0.0393789287541011
0.6833687268306115 0.0617790836612027 0.5393789287541011
0.6833687268306115 0.5617790836612027 0.0393789287541011
0.6833687268306115 0.5617790836612027 0.5393789287541011
0.2024509905207916 0.0693656506219037 0.0691964298671055
0.2024509905207916 0.0693656506219037 0.5691964298671055
0.2024509905207916 0.5693656506219037 0.0691964298671055
0.2024509905207916 0.5693656506219037 0.5691964298671055
0.7024509905207917 0.0693656506219037 0.0691964298671055
0.7024509905207917 0.0693656506219037 0.5691964298671055
0.7024509905207917 0.5693656506219037 0.0691964298671055
0.7024509905207917 0.5693656506219037 0.5691964298671055
0.1887029009705562 0.0783627017174582 0.1016314509788796
0.1887029009705562 0.0783627017174582 0.6016314509788796
0.1887029009705562 0.5783627017174582 0.1016314509788796
0.1887029009705562 0.5783627017174582 0.6016314509788796
0.6887029009705562 0.0783627017174582 0.1016314509788796
0.6887029009705562 0.0783627017174582 0.6016314509788796
0.6887029009705562 0.5783627017174582 0.1016314509788796
0.6887029009705562 0.5783627017174582 0.6016314509788796
0.2205907235978283 0.2969690747847818 0.3371044172187498
0.2205907235978283 0.2969690747847818 0.8371044172187498
0.2205907235978283 0.7969690747847817 0.3371044172187498
0.2205907235978283 0.7969690747847817 0.8371044172187498
0.7205907235978285 0.2969690747847818 0.3371044172187498
0.7205907235978285 0.2969690747847818 0.8371044172187498
0.7205907235978285 0.7969690747847817 0.3371044172187498
0.7205907235978285 0.7969690747847817 0.8371044172187498
0.2015266232701738 0.3187710915540838 0.3153787572310078
0.2015266232701738 0.3187710915540838 0.8153787572310077
0.2015266232701738 0.8187710915540838 0.3153787572310078
0.2015266232701738 0.8187710915540838 0.8153787572310077
0.7015266232701738 0.3187710915540838 0.3153787572310078
0.7015266232701738 0.3187710915540838 0.8153787572310077
0.7015266232701738 0.8187710915540838 0.3153787572310078
0.7015266232701738 0.8187710915540838 0.8153787572310077
0.2153019435012112 0.3425339662201729 0.2915553689464950
0.2153019435012112 0.3425339662201729 0.7915553689464950
0.2153019435012112 0.8425339662201730 0.2915553689464950
0.2153019435012112 0.8425339662201730 0.7915553689464950
0.7153019435012112 0.3425339662201729 0.2915553689464950
0.7153019435012112 0.3425339662201729 0.7915553689464950
0.7153019435012112 0.8425339662201730 0.2915553689464950
0.7153019435012112 0.8425339662201730 0.7915553689464950
0.3166312703946776 0.4606211057385671 0.0617792122491921
0.3166312703946776 0.4606211057385671 0.5617792122491920
0.3166312703946776 0.9606211057385671 0.0617792122491921
0.3166312703946776 0.9606211057385671 0.5617792122491920
0.8166312703946775 0.4606211057385671 0.0617792122491921
0.8166312703946775 0.4606211057385671 0.5617792122491920
0.8166312703946775 0.9606211057385671 0.0617792122491921
0.8166312703946775 0.9606211057385671 0.5617792122491920
0.2975490079539208 0.4308035890938742 0.0693657213080635
0.2975490079539208 0.4308035890938742 0.5693657213080635
0.2975490079539208 0.9308035890938742 0.0693657213080635
0.2975490079539208 0.9308035890938742 0.5693657213080635
0.7975490079539207 0.4308035890938742 0.0693657213080635
0.7975490079539207 0.4308035890938742 0.5693657213080635
0.7975490079539207 0.9308035890938742 0.0693657213080635
0.7975490079539207 0.9308035890938742 0.5693657213080635
0.3112970960371395 0.3983685862187081 0.0783628403893344
0.3112970960371395 0.3983685862187081 0.5783628403893344
0.3112970960371395 0.8983685862187082 0.0783628403893344
0.3112970960371395 0.8983685862187082 0.5783628403893344
0.8112970960371396 0.3983685862187081 0.0783628403893344
0.8112970960371396 0.3983685862187081 0.5783628403893344
0.8112970960371396 0.8983685862187082 0.0783628403893344
0.8112970960371396 0.8983685862187082 0.5783628403893344
0.2793698974167888 0.1904182428882533 0.2900339012035381
0.2793698974167888 0.1904182428882533 0.7900339012035380
0.2793698974167888 0.6904182428882534 0.2900339012035381
0.2793698974167888 0.6904182428882534 0.7900339012035380
0.7793698974167889 0.1904182428882533 0.2900339012035381
0.7793698974167889 0.1904182428882533 0.7900339012035380
0.7793698974167889 0.6904182428882534 0.2900339012035381
0.7793698974167889 0.6904182428882534 0.7900339012035380
0.2984770082908860 0.1823920864543580 0.3197201149290771
0.2984770082908860 0.1823920864543580 0.8197201149290773
0.2984770082908860 0.6823920864543581 0.3197201149290771
0.2984770082908860 0.6823920864543581 0.8197201149290773
0.7984770082908861 0.1823920864543580 0.3197201149290771
0.7984770082908861 0.1823920864543580 0.8197201149290773
0.7984770082908861 0.6823920864543581 0.3197201149290771
0.7984770082908861 0.6823920864543581 0.8197201149290773
0.2847488359061505 0.1737302436773326 0.3522546696655358
0.2847488359061505 0.1737302436773326 0.8522546696655359
0.2847488359061505 0.6737302436773327 0.3522546696655358
0.2847488359061505 0.6737302436773328 0.8522546696655359
0.7847488359061505 0.1737302436773326 0.3522546696655358
0.7847488359061506 0.1737302436773326 0.8522546696655359
0.7847488359061505 0.6737302436773327 0.3522546696655358
0.7847488359061506 0.6737302436773328 0.8522546696655359
0.4382209163387973 0.0393789287541012 0.3166312731693887
0.4382209163387973 0.0393789287541012 0.8166312731693887
0.4382209163387973 0.5393789287541013 0.3166312731693887
0.4382209163387973 0.5393789287541013 0.8166312731693887
0.9382209163387975 0.0393789287541012 0.3166312731693887
0.9382209163387975 0.0393789287541012 0.8166312731693887
0.9382209163387975 0.5393789287541013 0.3166312731693887
0.9382209163387975 0.5393789287541013 0.8166312731693887
0.4306343493780964 0.0691964298671055 0.2975490094792084
0.4306343493780964 0.0691964298671055 0.7975490094792084
0.4306343493780964 0.5691964298671055 0.2975490094792084
0.4306343493780964 0.5691964298671055 0.7975490094792084
0.9306343493780964 0.0691964298671055 0.2975490094792084
0.9306343493780964 0.0691964298671055 0.7975490094792084
0.9306343493780964 0.5691964298671055 0.2975490094792084
0.9306343493780964 0.5691964298671055 0.7975490094792084
0.4216372982825418 0.1016314509788797 0.3112970990294438
0.4216372982825418 0.1016314509788797 0.8112970990294438
0.4216372982825418 0.6016314509788798 0.3112970990294438
0.4216372982825418 0.6016314509788798 0.8112970990294438
0.9216372982825418 0.1016314509788797 0.3112970990294438
0.9216372982825418 0.1016314509788797 0.8112970990294438
0.9216372982825418 0.6016314509788798 0.3112970990294438
0.9216372982825418 0.6016314509788798 0.8112970990294438
0.0393789287541012 0.3166312731693888 0.4382209163387973
0.0393789287541012 0.3166312731693887 0.9382209163387975
0.0393789287541012 0.8166312731693889 0.4382209163387973
0.0393789287541012 0.8166312731693889 0.9382209163387975
0.5393789287541013 0.3166312731693888 0.4382209163387973
0.5393789287541013 0.3166312731693887 0.9382209163387975
0.5393789287541013 0.8166312731693889 0.4382209163387973
0.5393789287541013 0.8166312731693889 0.9382209163387975
0.0691964298671055 0.2975490094792085 0.4306343493780964
0.0691964298671055 0.2975490094792084 0.9306343493780964
0.0691964298671055 0.7975490094792084 0.4306343493780964
0.0691964298671055 0.7975490094792084 0.9306343493780964
0.5691964298671055 0.2975490094792085 0.4306343493780964
0.5691964298671055 0.2975490094792084 0.9306343493780964
0.5691964298671055 0.7975490094792084 0.4306343493780964
0.5691964298671055 0.7975490094792084 0.9306343493780964
0.1016314509788797 0.3112970990294439 0.4216372982825418
0.1016314509788797 0.3112970990294439 0.9216372982825418
0.1016314509788797 0.8112970990294439 0.4216372982825418
0.1016314509788797 0.8112970990294439 0.9216372982825418
0.6016314509788796 0.3112970990294439 0.4216372982825418
0.6016314509788796 0.3112970990294439 0.9216372982825418
0.6016314509788796 0.8112970990294439 0.4216372982825418
0.6016314509788796 0.8112970990294439 0.9216372982825418
0.4606210712458988 0.3166312731693887 0.0617790836612026
0.4606210712458988 0.3166312731693887 0.5617790836612027
0.4606210712458988 0.8166312731693887 0.0617790836612026
0.4606210712458988 0.8166312731693887 0.5617790836612027
0.9606210712458989 0.3166312731693887 0.0617790836612026
0.9606210712458989 0.3166312731693887 0.5617790836612027
0.9606210712458989 0.8166312731693887 0.0617790836612026
0.9606210712458989 0.8166312731693887 0.5617790836612027
0.4308035701328945 0.2975490094792084 0.0693656506219036
0.4308035701328945 0.2975490094792084 0.5693656506219036
0.4308035701328945 0.7975490094792084 0.0693656506219036
0.4308035701328945 0.7975490094792084 0.5693656506219036
0.9308035701328946 0.2975490094792084 0.0693656506219036
0.9308035701328946 0.2975490094792084 0.5693656506219036
0.9308035701328946 0.7975490094792084 0.0693656506219036
0.9308035701328946 0.7975490094792084 0.5693656506219036
0.3983685490211203 0.3112970990294439 0.0783627017174581
0.3983685490211203 0.3112970990294439 0.5783627017174581
0.3983685490211203 0.8112970990294439 0.0783627017174581
0.3983685490211203 0.8112970990294439 0.5783627017174581
0.8983685490211205 0.3112970990294439 0.0783627017174581
0.8983685490211205 0.3112970990294439 0.5783627017174581
0.8983685490211205 0.8112970990294439 0.0783627017174581
0.8983685490211205 0.8112970990294439 0.5783627017174581
0.1833687268306113 0.4382209163387974 0.4606210712458988
0.1833687268306113 0.4382209163387974 0.9606210712458989
0.1833687268306113 0.9382209163387975 0.4606210712458988
0.1833687268306113 0.9382209163387973 0.9606210712458989
0.6833687268306115 0.4382209163387974 0.4606210712458988
0.6833687268306115 0.4382209163387974 0.9606210712458989
0.6833687268306115 0.9382209163387975 0.4606210712458988
0.6833687268306115 0.9382209163387973 0.9606210712458989
0.2024509905207916 0.4306343493780965 0.4308035701328944
0.2024509905207916 0.4306343493780964 0.9308035701328946
0.2024509905207916 0.9306343493780964 0.4308035701328944
0.2024509905207916 0.9306343493780964 0.9308035701328946
0.7024509905207917 0.4306343493780965 0.4308035701328944
0.7024509905207917 0.4306343493780964 0.9308035701328946
0.7024509905207917 0.9306343493780964 0.4308035701328944
0.7024509905207917 0.9306343493780964 0.9308035701328946
0.1887029009705562 0.4216372982825419 0.3983685490211203
0.1887029009705562 0.4216372982825419 0.8983685490211203
0.1887029009705562 0.9216372982825419 0.3983685490211203
0.1887029009705562 0.9216372982825420 0.8983685490211203
0.6887029009705562 0.4216372982825419 0.3983685490211203
0.6887029009705563 0.4216372982825419 0.8983685490211203
0.6887029009705562 0.9216372982825419 0.3983685490211203
0.6887029009705563 0.9216372982825420 0.8983685490211203
0.2205907235978284 0.2030309252152183 0.1628955827812502
0.2205907235978284 0.2030309252152183 0.6628955827812503
0.2205907235978283 0.7030309252152184 0.1628955827812502
0.2205907235978284 0.7030309252152184 0.6628955827812503
0.7205907235978285 0.2030309252152183 0.1628955827812502
0.7205907235978285 0.2030309252152183 0.6628955827812503
0.7205907235978285 0.7030309252152184 0.1628955827812502
0.7205907235978285 0.7030309252152184 0.6628955827812503
0.2015266232701738 0.1812289084459162 0.1846212427689923
0.2015266232701738 0.1812289084459162 0.6846212427689924
0.2015266232701738 0.6812289084459162 0.1846212427689923
0.2015266232701738 0.6812289084459162 0.6846212427689924
0.7015266232701738 0.1812289084459162 0.1846212427689923
0.7015266232701738 0.1812289084459162 0.6846212427689924
0.7015266232701738 0.6812289084459162 0.1846212427689923
0.7015266232701738 0.6812289084459162 0.6846212427689924
0.2153019435012112 0.1574660337798272 0.2084446310535051
0.2153019435012112 0.1574660337798272 0.7084446310535051
0.2153019435012112 0.6574660337798272 0.2084446310535051
0.2153019435012112 0.6574660337798272 0.7084446310535051
0.7153019435012112 0.1574660337798272 0.2084446310535051
0.7153019435012112 0.1574660337798272 0.7084446310535051
0.7153019435012112 0.6574660337798272 0.2084446310535051
0.7153019435012112 0.6574660337798272 0.7084446310535051
0.3166312731693887 0.0617790836612026 0.4606210712458988
0.3166312731693887 0.0617790836612026 0.9606210712458989
0.3166312731693887 0.5617790836612025 0.4606210712458988
0.3166312731693887 0.5617790836612025 0.9606210712458989
0.8166312731693889 0.0617790836612026 0.4606210712458988
0.8166312731693889 0.0617790836612026 0.9606210712458989
0.8166312731693889 0.5617790836612025 0.4606210712458988
0.8166312731693889 0.5617790836612025 0.9606210712458989
0.2975490094792085 0.0693656506219036 0.4308035701328945
0.2975490094792085 0.0693656506219036 0.9308035701328946
0.2975490094792085 0.5693656506219036 0.4308035701328945
0.2975490094792085 0.5693656506219036 0.9308035701328946
0.7975490094792086 0.0693656506219036 0.4308035701328945
0.7975490094792086 0.0693656506219036 0.9308035701328946
0.7975490094792086 0.5693656506219036 0.4308035701328945
0.7975490094792086 0.5693656506219036 0.9308035701328946
0.3112970990294439 0.0783627017174581 0.3983685490211203
0.3112970990294439 0.0783627017174581 0.8983685490211203
0.3112970990294439 0.5783627017174581 0.3983685490211203
0.3112970990294439 0.5783627017174582 0.8983685490211203
0.8112970990294439 0.0783627017174581 0.3983685490211203
0.8112970990294440 0.0783627017174581 0.8983685490211203
0.8112970990294439 0.5783627017174581 0.3983685490211203
0.8112970990294440 0.5783627017174582 0.8983685490211203
0.2794092764021718 0.2969690747847818 0.1628955827812502
0.2794092764021717 0.2969690747847818 0.6628955827812503
0.2794092764021717 0.7969690747847817 0.1628955827812502
0.2794092764021717 0.7969690747847817 0.6628955827812503
0.7794092764021717 0.2969690747847818 0.1628955827812502
0.7794092764021717 0.2969690747847818 0.6628955827812503
0.7794092764021717 0.7969690747847817 0.1628955827812502
0.7794092764021717 0.7969690747847817 0.6628955827812503
0.2984733767298262 0.3187710915540838 0.1846212427689923
0.2984733767298262 0.3187710915540838 0.6846212427689924
0.2984733767298262 0.8187710915540838 0.1846212427689923
0.2984733767298262 0.8187710915540838 0.6846212427689924
0.7984733767298262 0.3187710915540838 0.1846212427689923
0.7984733767298262 0.3187710915540838 0.6846212427689924
0.7984733767298262 0.8187710915540838 0.1846212427689923
0.7984733767298262 0.8187710915540838 0.6846212427689924
0.2846980564987888 0.3425339662201728 0.2084446310535051
0.2846980564987888 0.3425339662201728 0.7084446310535051
0.2846980564987888 0.8425339662201728 0.2084446310535051
0.2846980564987888 0.8425339662201728 0.7084446310535051
0.7846980564987889 0.3425339662201728 0.2084446310535051
0.7846980564987889 0.3425339662201728 0.7084446310535051
0.7846980564987889 0.8425339662201728 0.2084446310535051
0.7846980564987889 0.8425339662201728 0.7084446310535051
