# mg-mof-74-dobdc
1.000000
 25.8490195173000004   0.0000000000000000         0.0000000000
 12.9245097586500037  22.3859075649015686         0.0000000000
  0.0000000000000017   0.0000000000000010        27.7920000000
C C C C H C C H C C C C C C H C C H C C C C C C H C C H C C C C C C H C C H C C C C C C H C C H C C C C C C H C C H C C C C C C H C C H C C C C C C H C C H C C C C C C H C C H C C Mg Mg Mg O O O O O O Mg C Mg Mg Mg Mg O O O O O O O O O Mg O Mg O O O O O O O O O Mg Mg Mg O O O O O O O O O Mg C Mg O O O O O O O O O Mg Mg Mg O O O O O O O O O 
4 4 4 4 4 4 4 4 4 4 4 4 4 4 4 4 4 4 4 4 4 4 4 4 4 4 4 4 4 4 4 4 4 4 4 4 4 4 4 4 4 4 4 4 4 4 4 4 4 4 4 4 4 4 4 4 4 4 4 4 4 4 4 4 4 4 4 4 4 4 4 4 4 4 4 4 4 4 4 4 4 4 4 4 4 4 4 4 4 4 4 4 4 4 4 4 4 4 4 4 4 4 4 4 4 4 4 4 4 4 4 4 4 4 4 4 4 4 4 4 4 4 4 4 4 4 4 4 4 4 4 4 4 4 4 4 4 4 4 4 4 4 4 4 4 4 4 4 4 4 4 4 4 4 4 4 4 4 4 4 4 4 
Direct
0.0669848147495999 0.2285843494770000 0.1092270647715000
0.0669848147496000 0.2285843494770000 0.3592270647715000
0.0669848147496000 0.2285843494770000 0.6092270647715000
0.0669848147496000 0.2285843494770000 0.8592270647715000
0.1149353368320000 0.1964477415980000 0.0732601729710000
0.1149353368320000 0.1964477415980000 0.3232601729710000
0.1149353368320000 0.1964477415980000 0.5732601729710000
0.1149353368320000 0.1964477415980000 0.8232601729710000
0.1102780836070000 0.2155297413870000 0.0242312540140000
0.1102780836070000 0.2155297413870000 0.2742312540140000
0.1102780836070000 0.2155297413870000 0.5242312540139999
0.1102780836070000 0.2155297413870000 0.7742312540139999
0.1584510828210000 0.1821360380290000 0.2440933640322500
0.1584510828209999 0.1821360380290000 0.4940933640322500
0.1584510828209999 0.1821360380290000 0.7440933640322500
0.1584510828209999 0.1821360380290000 0.9940933640322500
0.1560662680550000 0.1957699317830000 0.2067642455915000
0.1560662680550000 0.1957699317830000 0.4567642455915000
0.1560662680550000 0.1957699317830000 0.7067642455915000
0.1560662680550000 0.1957699317830000 0.9567642455914999
0.2147967513139999 0.1090252359240000 0.0585854453940000
0.2147967513140000 0.1090252359240000 0.3085854453940000
0.2147967513140000 0.1090252359240000 0.5585854453940000
0.2147967513140000 0.1090252359240000 0.8085854453940000
0.1664725095500000 0.1445141556800000 0.0887974323532500
0.1664725095500000 0.1445141556800000 0.3387974323532500
0.1664725095500000 0.1445141556800000 0.5887974323532499
0.1664725095500000 0.1445141556800000 0.8387974323532499
0.1690256253530000 0.1308979562430000 0.1261364613992500
0.1690256253530000 0.1308979562430000 0.3761364613992500
0.1690256253530000 0.1308979562430000 0.6261364613992499
0.1690256253530000 0.1308979562430000 0.8761364613992499
0.2576955877650000 0.0969301396953000 0.2235323009777500
0.2576955877650000 0.0969301396953000 0.4735323009777500
0.2576955877649999 0.0969301396953000 0.7235323009777500
0.2576955877650000 0.0969301396953000 0.9735323009777500
0.2100082966329999 0.1280582997800000 0.0094544439800750
0.2100082966329999 0.1280582997800000 0.2594544439800750
0.2100082966329999 0.1280582997800000 0.5094544439800750
0.2100082966329999 0.1280582997800000 0.7594544439800750
0.0124397773497000 0.4242268628349999 0.2201323436540000
0.0124397773497000 0.4242268628349999 0.4701323436540000
0.0124397773497000 0.4242268628349999 0.7201323436539999
0.0124397773497000 0.4242268628349999 0.9701323436539999
0.0124365309398000 0.4627054496130000 0.0096580398533750
0.0124365309397999 0.4627054496130000 0.2596580398533750
0.0124365309398000 0.4627054496130000 0.5096580398533750
0.0124365309398000 0.4627054496129999 0.7596580398533749
0.0148036623543000 0.4474030428370000 0.0595041123615000
0.0148036623543000 0.4474030428370000 0.3095041123614999
0.0148036623543000 0.4474030428370000 0.5595041123615000
0.0148036623543000 0.4474030428369999 0.8095041123615000
0.0152716032632000 0.4867224762510000 0.0931989613492500
0.0152716032632000 0.4867224762510000 0.3431989613492500
0.0152716032632000 0.4867224762510000 0.5931989613492500
0.0152716032632000 0.4867224762510000 0.8431989613492500
0.0171884688879000 0.4760585796280000 0.1312408763827500
0.0171884688879000 0.4760585796280000 0.3812408763827500
0.0171884688879000 0.4760585796280000 0.6312408763827499
0.0171884688879000 0.4760585796279999 0.8812408763827499
0.0074395448136499 0.5581228342270000 0.0300596941580000
0.0074395448136499 0.5581228342270000 0.2800596941580000
0.0074395448136499 0.5581228342270000 0.5300596941580000
0.0074395448136499 0.5581228342270000 0.7800596941580000
0.0090311435151000 0.5168472325030000 0.2465978786775000
0.0090311435151000 0.5168472325030000 0.4965978786774999
0.0090311435151000 0.5168472325030000 0.7465978786775000
0.0090311435150999 0.5168472325030001 0.9965978786775000
0.0072865737662800 0.5275178070119999 0.2085830610870000
0.0072865737662800 0.5275178070119999 0.4585830610869999
0.0072865737662800 0.5275178070119999 0.7085830610870000
0.0072865737662800 0.5275178070120000 0.9585830610870000
0.0104297053216000 0.5803630909630000 0.1195615080627500
0.0104297053216000 0.5803630909630000 0.3695615080627500
0.0104297053216000 0.5803630909630000 0.6195615080627500
0.0104297053216000 0.5803630909630000 0.8695615080627500
0.0096103543460799 0.5428532450370001 0.0799708652095000
0.0096103543460799 0.5428532450370001 0.3299708652095000
0.0096103543460799 0.5428532450370001 0.5799708652095000
0.0096103543460799 0.5428532450370001 0.8299708652095000
0.4969061111240000 0.5420042773900000 0.0627073081402500
0.4969061111240000 0.5420042773900000 0.3127073081402500
0.4969061111240000 0.5420042773900000 0.5627073081402501
0.4969061111240000 0.5420042773900000 0.8127073081402501
0.5210408140689999 0.5121651019760000 0.1095245485972500
0.5210408140689999 0.5121651019760000 0.3595245485972500
0.5210408140689999 0.5121651019760000 0.6095245485972500
0.5210408140689999 0.5121651019760000 0.8595245485972500
0.4916734211109999 0.5363332688009999 0.1545061066122500
0.4916734211109999 0.5363332688009999 0.4045061066122500
0.4916734211109998 0.5363332688009999 0.6545061066122499
0.4916734211109998 0.5363332688010000 0.9045061066122499
0.5183051512899998 0.5038999628010000 0.1958888753680000
0.5183051512899998 0.5038999628010000 0.4458888753680000
0.5183051512899998 0.5038999628010000 0.6958888753680000
0.5183051512899997 0.5038999628010000 0.9458888753680000
0.4968328922979998 0.5212199328220000 0.2304493339977500
0.4968328922979998 0.5212199328220000 0.4804493339977500
0.4968328922979998 0.5212199328220000 0.7304493339977500
0.4968328922979997 0.5212199328220001 0.9804493339977500
0.6044410949179999 0.4257154733860000 0.1502213985072500
0.6044410949179999 0.4257154733860000 0.4002213985072500
0.6044410949179999 0.4257154733860000 0.6502213985072500
0.6044410949179999 0.4257154733860000 0.9002213985072500
0.5757704186069998 0.4581824298450000 0.1087348727762500
0.5757704186069998 0.4581824298450000 0.3587348727762499
0.5757704186069998 0.4581824298450000 0.6087348727762500
0.5757704186069998 0.4581824298450000 0.8587348727762500
0.5972289840059998 0.4406959653290000 0.0742109371717500
0.5972289840059998 0.4406959653290000 0.3242109371717500
0.5972289840059998 0.4406959653290000 0.5742109371717500
0.5972289840059998 0.4406959653289999 0.8242109371717500
0.5982519858530000 0.4204102880210000 0.2419701661870000
0.5982519858530000 0.4204102880210000 0.4919701661870000
0.5982519858530000 0.4204102880209999 0.7419701661869998
0.5982519858530000 0.4204102880210000 0.9919701661869998
0.5750983790359999 0.4500541050769999 0.1952632439812500
0.5750983790359999 0.4500541050769999 0.4452632439812499
0.5750983790359999 0.4500541050769999 0.6952632439812501
0.5750983790359999 0.4500541050770000 0.9452632439812501
0.0718946820325999 0.6602599041170000 0.1060000758940000
0.0718946820325999 0.6602599041170000 0.3560000758940000
0.0718946820326000 0.6602599041170000 0.6060000758939998
0.0718946820326000 0.6602599041170000 0.8560000758939998
0.1174997872579999 0.6560449410650000 0.0714353175625000
0.1174997872579999 0.6560449410650000 0.3214353175625000
0.1174997872579999 0.6560449410650000 0.5714353175625000
0.1174997872579999 0.6560449410650000 0.8214353175625000
0.1175402830639999 0.6419832408420000 0.0215339094989500
0.1175402830639999 0.6419832408420000 0.2715339094989500
0.1175402830639999 0.6419832408420000 0.5215339094989500
0.1175402830640000 0.6419832408420000 0.7715339094989500
0.1621849492880000 0.6400320363280000 0.2426078508905000
0.1621849492880000 0.6400320363280000 0.4926078508905000
0.1621849492880000 0.6400320363280000 0.7426078508905000
0.1621849492879999 0.6400320363280000 0.9926078508905000
0.1631085534639999 0.6295948538400000 0.2046022935467500
0.1631085534639999 0.6295948538400000 0.4546022935467500
0.1631085534640000 0.6295948538400000 0.7046022935467500
0.1631085534639999 0.6295948538400001 0.9546022935467500
0.2093823373499999 0.6619234080610000 0.0613872703807500
0.2093823373499999 0.6619234080610000 0.3113872703807500
0.2093823373499999 0.6619234080610000 0.5613872703807500
0.2093823373499999 0.6619234080610000 0.8113872703807500
0.1627604756730000 0.6656292862760000 0.0896029105150000
0.1627604756730000 0.6656292862760000 0.3396029105150000
0.1627604756730001 0.6656292862760000 0.5896029105150000
0.1627604756730001 0.6656292862760000 0.8396029105150000
0.1618260799660000 0.6762411347160000 0.1275576089250000
0.1618260799660000 0.6762411347160000 0.3775576089250000
0.1618260799660000 0.6762411347160000 0.6275576089250000
0.1618260799660000 0.6762411347160000 0.8775576089250000
0.2541380903529999 0.6441038147240000 0.2266160724035000
0.2541380903529999 0.6441038147240000 0.4766160724035000
0.2541380903529999 0.6441038147240000 0.7266160724035000
0.2541380903529999 0.6441038147240001 0.9766160724035000
0.2094984164599999 0.6476431269770000 0.0114549314778250
0.2094984164599999 0.6476431269770000 0.2614549314778250
0.2094984164599999 0.6476431269770000 0.5114549314778249
0.2094984164599999 0.6476431269770000 0.7614549314778249
0.9066662140719999 0.7471834700649999 0.1390456497045000
0.9066662140719999 0.7471834700649999 0.3890456497045000
0.9066662140719999 0.7471834700649999 0.6390456497045001
0.9066662140719999 0.7471834700649999 0.8890456497045001
0.8608759452329999 0.7816895227289999 0.1760050738260000
0.8608759452329999 0.7816895227289999 0.4260050738260000
0.8608759452329999 0.7816895227289999 0.6760050738259998
0.8608759452329999 0.7816895227289999 0.9260050738259998
0.8665292883859996 0.7634210741430000 0.2253376256117500
0.8665292883859996 0.7634210741430000 0.4753376256117500
0.8665292883859996 0.7634210741430000 0.7253376256117500
0.8665292883859996 0.7634210741430000 0.9753376256117500
0.8210124254589999 0.7998495550539999 0.0066909098762250
0.8210124254589999 0.7998495550539999 0.2566909098762250
0.8210124254589999 0.7998495550539999 0.5066909098762250
0.8210124254589999 0.7998495550539999 0.7566909098762250
0.8243174013739997 0.7870357330280000 0.0443234009972500
0.8243174013739997 0.7870357330280000 0.2943234009972500
0.8243174013739997 0.7870357330280000 0.5443234009972500
0.8243174013739997 0.7870357330280000 0.7943234009972500
0.7622163636219998 0.8704751691470000 0.1914778557625000
0.7622163636219998 0.8704751691470000 0.4414778557625000
0.7622163636219998 0.8704751691470000 0.6914778557625000
0.7622163636219998 0.8704751691470000 0.9414778557625000
0.8096091638149998 0.8340916024840000 0.1607801702437500
0.8096091638149998 0.8340916024840000 0.4107801702437500
0.8096091638149998 0.8340916024840000 0.6607801702437500
0.8096091638149998 0.8340916024840000 0.9107801702437500
0.8062904161399997 0.8470795073769999 0.1232037377877500
0.8062904161399997 0.8470795073769999 0.3732037377877500
0.8062904161399997 0.8470795073769999 0.6232037377877500
0.8062904161399997 0.8470795073769999 0.8732037377877500
0.7229775092079997 0.8863775391219999 0.0280389592550000
0.7229775092079997 0.8863775391219999 0.2780389592550000
0.7229775092079997 0.8863775391219999 0.5280389592550000
0.7229775092079997 0.8863775391219999 0.7780389592550000
0.7678268849929999 0.8520389028139999 0.2408381945875000
0.7678268849929999 0.8520389028139999 0.4908381945875000
0.7678268849929999 0.8520389028139999 0.7408381945875000
0.7678268849929999 0.8520389028139999 0.9908381945875000
0.4326351153999998 0.9668205507390000 0.1337339527942500
0.4326351153999998 0.9668205507390000 0.3837339527942500
0.4326351153999998 0.9668205507390000 0.6337339527942499
0.4326351153999998 0.9668205507390000 0.8837339527942499
0.4726994111709998 0.9668935110769999 0.1718377433792500
0.4726994111709998 0.9668935110769999 0.4218377433792500
0.4726994111709997 0.9668935110769999 0.6718377433792500
0.4726994111709997 0.9668935110769999 0.9218377433792500
0.4617725811499999 0.9646957296230000 0.2221614163160000
0.4617725811499999 0.9646957296230000 0.4721614163160000
0.4617725811499998 0.9646957296230000 0.7221614163159998
0.4617725811499998 0.9646957296230000 0.9721614163159998
0.5029133619629997 0.9642784428700000 0.0044007920707500
0.5029133619629997 0.9642784428700000 0.2544007920707500
0.5029133619629997 0.9642784428700000 0.5044007920707499
0.5029133619629997 0.9642784428700000 0.7544007920707499
0.4956989385469998 0.9624894328229999 0.0427687250302500
0.4956989385469998 0.9624894328229999 0.2927687250302500
0.4956989385469998 0.9624894328229999 0.5427687250302500
0.4956989385469997 0.9624894328229999 0.7927687250302500
0.5639365899589996 0.9718314987009999 0.1888526480710000
0.5639365899589996 0.9718314987009999 0.4388526480710000
0.5639365899589996 0.9718314987009999 0.6888526480710000
0.5639365899589996 0.9718314987009999 0.9388526480710000
0.5229068315689998 0.9701911633279999 0.1568837576007500
0.5229068315689998 0.9701911633279999 0.4068837576007500
0.5229068315689998 0.9701911633279999 0.6568837576007500
0.5229068315689998 0.9701911633279999 0.9068837576007500
0.5303011569539999 0.9718078395450001 0.1185398880340000
0.5303011569539999 0.9718078395450001 0.3685398880340000
0.5303011569539999 0.9718078395450001 0.6185398880339998
0.5303011569539999 0.9718078395450001 0.8685398880339998
0.5927691565289998 0.9690816077829999 0.0274338386867500
0.5927691565289998 0.9690816077829999 0.2774338386867500
0.5927691565289998 0.9690816077829999 0.5274338386867500
0.5927691565289998 0.9690816077829999 0.7774338386867500
0.5528490619179998 0.9698303205459999 0.2392433413752500
0.5528490619179998 0.9698303205459999 0.4892433413752499
0.5528490619179998 0.9698303205459999 0.7392433413752499
0.5528490619179998 0.9698303205459999 0.9892433413752499
0.3046203233229999 0.9070368170560000 0.1392380747670000
0.3046203233229999 0.9070368170560000 0.3892380747670000
0.3046203233229998 0.9070368170560000 0.6392380747670000
0.3046203233229998 0.9070368170560000 0.8892380747670000
0.3155892821060001 0.8613211225100000 0.1761809443290000
0.3155892821060001 0.8613211225100000 0.4261809443289999
0.3155892821060000 0.8613211225100000 0.6761809443290000
0.3155892821060000 0.8613211225100000 0.9261809443290000
0.3274655217759998 0.8672233124630000 0.2256574440062500
0.3274655217759998 0.8672233124630000 0.4756574440062500
0.3274655217759997 0.8672233124630000 0.7256574440062500
0.3274655217759997 0.8672233124630000 0.9756574440062500
0.3363200685960001 0.8217512560789999 0.0069725247541500
0.3363200685960001 0.8217512560789999 0.2569725247541500
0.3363200685960001 0.8217512560789999 0.5069725247541500
0.3363200685960000 0.8217512560789999 0.7569725247541500
0.3452704610669998 0.8252430732310000 0.0447107472007500
0.3452704610669998 0.8252430732310000 0.2947107472007500
0.3452704610669998 0.8252430732310000 0.5447107472007500
0.3452704610669998 0.8252430732310000 0.7947107472007500
0.3257042918849999 0.7625258767730000 0.1914723630272500
0.3257042918849999 0.7625258767730000 0.4414723630272500
0.3257042918849998 0.7625258767730000 0.6914723630272500
0.3257042918849998 0.7625258767730000 0.9414723630272500
0.3149155485930000 0.8098713878509999 0.1607982664040000
0.3149155485930000 0.8098713878509999 0.4107982664039999
0.3149155485929999 0.8098713878509999 0.6607982664040000
0.3149155485929999 0.8098713878509999 0.9107982664040000
0.3058045397140000 0.8063651853190000 0.1231143944255000
0.3058045397140000 0.8063651853190000 0.3731143944255000
0.3058045397140000 0.8063651853190000 0.6231143944254999
0.3058045397139999 0.8063651853190000 0.8731143944254999
0.3479799898609999 0.7236108286469999 0.0281575713765000
0.3479799898609999 0.7236108286469999 0.2781575713765000
0.3479799898609999 0.7236108286469999 0.5281575713765000
0.3479799898609999 0.7236108286469999 0.7781575713765000
0.3377904698539999 0.7683862619069999 0.2409787128022500
0.3377904698539999 0.7683862619069999 0.4909787128022500
0.3377904698539998 0.7683862619069999 0.7409787128022500
0.3377904698539998 0.7683862619069999 0.9909787128022500
0.6842266676199997 0.0670709030948000 0.1086533451747500
0.6842266676199997 0.0670709030948000 0.3586533451747499
0.6842266676199997 0.0670709030948000 0.6086533451747500
0.6842266676199997 0.0670709030948000 0.8586533451747500
0.6665855021719999 0.1157550610260000 0.0730668663130000
0.6665855021719999 0.1157550610260000 0.3230668663130000
0.6665855021719999 0.1157550610260000 0.5730668663130000
0.6665855021719999 0.1157550610260000 0.8230668663130000
0.6505050738039999 0.1117516778100000 0.0244102401136750
0.6505050738039999 0.1117516778100000 0.2744102401136750
0.6505050738039999 0.1117516778100000 0.5244102401136750
0.6505050738039999 0.1117516778100000 0.7744102401136750
0.6341041852960000 0.1605697769290000 0.2446250757177500
0.6341041852960000 0.1605697769290000 0.4946250757177500
0.6341041852959999 0.1605697769290000 0.7446250757177498
0.6341041852959999 0.1605697769290000 0.9946250757177498
0.6215816826079998 0.1586866374410000 0.2075854198322500
0.6215816826079998 0.1586866374410000 0.4575854198322500
0.6215816826079998 0.1586866374410000 0.7075854198322500
0.6215816826079998 0.1586866374410000 0.9575854198322500
0.6524283991749998 0.2163409282940000 0.0586620817995000
0.6524283991749998 0.2163409282940000 0.3086620817995000
0.6524283991749998 0.2163409282940000 0.5586620817995001
0.6524283991749998 0.2163409282940000 0.8086620817994999
0.6669032085029999 0.1673443911340000 0.0885683722330000
0.6669032085029999 0.1673443911340000 0.3385683722330000
0.6669032085029999 0.1673443911340000 0.5885683722330000
0.6669032085029999 0.1673443911340000 0.8385683722330000
0.6792392254520000 0.1693943221800000 0.1256223687660000
0.6792392254520000 0.1693943221800000 0.3756223687660000
0.6792392254520000 0.1693943221800000 0.6256223687659999
0.6792392254520000 0.1693943221800000 0.8756223687659999
0.6181484347920000 0.2606185710130000 0.2243754796747500
0.6181484347919999 0.2606185710130000 0.4743754796747500
0.6181484347919999 0.2606185710130000 0.7243754796747500
0.6181484347919999 0.2606185710130000 0.9743754796747500
0.6365247623710000 0.2122096417080000 0.0098991117812500
0.6365247623710000 0.2122096417080000 0.2598991117812500
0.6365247623710000 0.2122096417080000 0.5098991117812500
0.6365247623710000 0.2122096417080000 0.7598991117812500
0.4410861692940000 0.5303668471399999 0.0320547753817500
0.4410861692940000 0.5303668471399999 0.2820547753817500
0.4410861692940000 0.5303668471399999 0.5320547753817499
0.4410861692939999 0.5303668471399999 0.7820547753817498
0.4648639796579999 0.5110178152540000 0.2327797879472500
0.4648639796579999 0.5110178152540000 0.4827797879472500
0.4648639796579998 0.5110178152540000 0.7327797879472500
0.4648639796579997 0.5110178152540000 0.9827797879472500
0.4328691982599998 0.5420634084810000 0.1903455523967500
0.4328691982599998 0.5420634084810000 0.4403455523967499
0.4328691982599998 0.5420634084810000 0.6903455523967500
0.4328691982599997 0.5420634084810000 0.9403455523967500
0.4601037523759998 0.5200293254130000 0.1462281723570000
0.4601037523759998 0.5200293254130000 0.3962281723570000
0.4601037523759998 0.5200293254130000 0.6462281723570000
0.4601037523759998 0.5200293254130000 0.8962281723570000
0.4368030845709998 0.5428668059020000 0.1135089775362500
0.4368030845709998 0.5428668059020000 0.3635089775362500
0.4368030845709998 0.5428668059020000 0.6135089775362500
0.4368030845709998 0.5428668059020000 0.8635089775362500
0.5485552406139997 0.4350209890370000 0.1843229342762500
0.5485552406139997 0.4350209890370000 0.4343229342762500
0.5485552406139997 0.4350209890369999 0.6843229342762499
0.5485552406139997 0.4350209890370000 0.9343229342762499
0.5211057074019998 0.4591760509389999 0.2285482440355000
0.5211057074019998 0.4591760509389999 0.4785482440355000
0.5211057074019998 0.4591760509389999 0.7285482440354999
0.5211057074019998 0.4591760509390000 0.9785482440354999
0.5445565740839999 0.4363717893870000 0.0112158445629750
0.5445565740839999 0.4363717893870000 0.2612158445629750
0.5445565740839999 0.4363717893870000 0.5112158445629750
0.5445565740839999 0.4363717893869999 0.7612158445629750
0.5399081334360000 0.4476773461719999 0.0926979089337500
0.5399081334360000 0.4476773461719999 0.3426979089337500
0.5399081334360000 0.4476773461719999 0.5926979089337500
0.5399081334360000 0.4476773461719999 0.8426979089337500
0.5163938308839999 0.4660274581330000 0.1418444786595000
0.5163938308839999 0.4660274581330000 0.3918444786595000
0.5163938308839999 0.4660274581329999 0.6418444786595000
0.5163938308839999 0.4660274581329999 0.8918444786595000
0.0480900155290999 0.3136991084600000 0.1336115524665000
0.0480900155291000 0.3136991084600000 0.3836115524665000
0.0480900155290999 0.3136991084600000 0.6336115524665000
0.0480900155291000 0.3136991084600000 0.8836115524665000
0.9797819450499997 0.3053365078650000 0.0501365524665000
0.9797819450499997 0.3053365078650000 0.3001365524665000
0.9797819450499997 0.3053365078650000 0.5501365524665000
0.9797819450499997 0.3053365078649999 0.8001365524664998
0.9718040645789997 0.3798001003310000 0.2166440524665000
0.9718040645789997 0.3798001003310000 0.4666440524665000
0.9718040645789997 0.3798001003309999 0.7166440524665000
0.9718040645789997 0.3798001003310000 0.9666440524665000
0.0609680154771000 0.2526399750580000 0.0830540524665000
0.0609680154771000 0.2526399750580000 0.3330540524665000
0.0609680154771000 0.2526399750580000 0.5830540524665000
0.0609680154771000 0.2526399750580000 0.8330540524665000
0.0373279762644000 0.2993530975110000 0.2437790524665000
0.0373279762644000 0.2993530975110000 0.4937790524665000
0.0373279762644000 0.2993530975109999 0.7437790524664999
0.0373279762644000 0.2993530975109999 0.9937790524664999
0.1058587794470000 0.2596560552190000 0.1850765524665000
0.1058587794470000 0.2596560552190000 0.4350765524665000
0.1058587794470000 0.2596560552189999 0.6850765524665000
0.1058587794470000 0.2596560552189999 0.9350765524665000
0.0194081178461999 0.3945915766870000 0.1665215524665000
0.0194081178462000 0.3945915766870000 0.4165215524665000
0.0194081178462000 0.3945915766869999 0.6665215524665000
0.0194081178462000 0.3945915766870000 0.9165215524665000
0.9965071462409999 0.3691798000600000 0.0774590524665000
0.9965071462409999 0.3691798000600000 0.3274590524665000
0.9965071462409999 0.3691798000600000 0.5774590524665000
0.9965071462409999 0.3691798000600000 0.8274590524665000
0.9646462454259997 0.4393001048080000 0.0201440524665500
0.9646462454259997 0.4393001048080000 0.2701440524665500
0.9646462454259997 0.4393001048080000 0.5201440524665500
0.9646462454259997 0.4393001048080000 0.7701440524665500
0.3859755267439999 0.6508759247090000 0.2172665524665000
0.3859755267439999 0.6508759247090000 0.4672665524665000
0.3859755267439999 0.6508759247090000 0.7172665524665001
0.3859755267439998 0.6508759247090000 0.9672665524665001
0.3547220787569999 0.8233621551440000 0.0064640524665500
0.3547220787569999 0.8233621551440000 0.2564640524665500
0.3547220787569999 0.8233621551440000 0.5064640524665500
0.3547220787569998 0.8233621551440000 0.7564640524665500
0.7088174870249999 0.9900370868609999 0.0499415524665000
0.7088174870249999 0.9900370868609999 0.2999415524665000
0.7088174870249999 0.9900370868609999 0.5499415524665000
0.7088174870249999 0.9900370868609999 0.7999415524665000
0.0181628395493000 0.6966984603500000 0.1993128742775000
0.0181628395493000 0.6966984603500000 0.4493128742775000
0.0181628395493000 0.6966984603500000 0.6993128742774999
0.0181628395493000 0.6966984603500000 0.9493128742774999
0.0274467435999000 0.6189141257589998 0.0330978742775000
0.0274467435998999 0.6189141257589998 0.2830978742775000
0.0274467435999000 0.6189141257589998 0.5330978742775000
0.0274467435999000 0.6189141257589998 0.7830978742775000
0.9508975630909999 0.6861389053620000 0.1165128742775000
0.9508975630909999 0.6861389053620000 0.3665128742775000
0.9508975630909999 0.6861389053620000 0.6165128742775000
0.9508975630909999 0.6861389053620000 0.8665128742775000
0.0030980094214600 0.6309821886029999 0.1726503742775000
0.0030980094214600 0.6309821886029999 0.4226503742775000
0.0030980094214600 0.6309821886029999 0.6726503742775000
0.0030980094214600 0.6309821886030000 0.9226503742775000
0.9777166054360000 0.6056817783280000 0.0835578742775000
0.9777166054360000 0.6056817783280000 0.3335578742775000
0.9777166054360000 0.6056817783280000 0.5835578742775001
0.9777166054360000 0.6056817783280000 0.8335578742775001
0.0352221397948999 0.5607403932890000 0.2298153742775000
0.0352221397948999 0.5607403932890000 0.4798153742775000
0.0352221397948999 0.5607403932890000 0.7298153742775000
0.0352221397948999 0.5607403932890002 0.9798153742775000
0.0321747514424000 0.6699401632889999 0.0893478742775000
0.0321747514424000 0.6699401632889999 0.3393478742775000
0.0321747514424001 0.6699401632889999 0.5893478742775000
0.0321747514424001 0.6699401632889999 0.8393478742775000
0.0803052638267001 0.6473935391659998 0.0001503742774927
0.0803052638267000 0.6473935391659998 0.2501503742774928
0.0803052638267000 0.6473935391659998 0.5001503742774928
0.0803052638267001 0.6473935391659998 0.7501503742774928
0.0704949006587999 0.7020136725930000 0.1465278742775000
0.0704949006587999 0.7020136725930000 0.3965278742775000
0.0704949006588000 0.7020136725930000 0.6465278742775000
0.0704949006587999 0.7020136725930000 0.8965278742775000
0.9368755269839999 0.7491418878120000 0.1668453742775000
0.9368755269839999 0.7491418878120000 0.4168453742775000
0.9368755269839999 0.7491418878120000 0.6668453742775000
0.9368755269839999 0.7491418878120000 0.9168453742775000
0.9618418382039999 0.6988042968200000 0.0058503742775000
0.9618418382039999 0.6988042968200000 0.2558503742775000
0.9618418382039999 0.6988042968200000 0.5058503742775000
0.9618418382039999 0.6988042968200000 0.7558503742775000
0.8934831466559998 0.7380356252779999 0.0642603742775000
0.8934831466559998 0.7380356252779999 0.3142603742775000
0.8934831466559998 0.7380356252779999 0.5642603742775000
0.8934831466559998 0.7380356252779999 0.8142603742775000
0.3510473331519999 0.0286110281864000 0.0325585810140000
0.3510473331519999 0.0286110281864000 0.2825585810140000
0.3510473331519999 0.0286110281864000 0.5325585810140000
0.3510473331519999 0.0286110281864000 0.7825585810140000
0.0761648043873000 0.6432530784840000 0.0001660810140335
0.0761648043873000 0.6432530784840000 0.2501660810140335
0.0761648043873000 0.6432530784840000 0.5001660810140335
0.0761648043873000 0.6432530784840000 0.7501660810140334
0.3617789997749998 0.9519403571119999 0.1164610810140000
0.3617789997749998 0.9519403571119999 0.3664610810140000
0.3617789997749998 0.9519403571119999 0.6164610810140000
0.3617789997749998 0.9519403571119999 0.8664610810140000
0.3657173189419999 0.0035029779732800 0.1729435810140000
0.3657173189419999 0.0035029779732800 0.4229435810139999
0.3657173189419999 0.0035029779732800 0.6729435810140000
0.3657173189419999 0.0035029779732800 0.9229435810140000
0.4135441049119998 0.9808044906440000 0.0834760810140000
0.4135441049119998 0.9808044906440000 0.3334760810140000
0.4135441049119998 0.9808044906440000 0.5834760810140001
0.4135441049119997 0.9808044906440000 0.8334760810140001
0.4064774036829999 0.0320633850907000 0.2313085810140000
0.4064774036829999 0.0320633850907000 0.4813085810139999
0.4064774036829999 0.0320633850907000 0.7313085810140000
0.4064774036829999 0.0320633850907000 0.9813085810140000
0.2952021698549999 0.0318912734562000 0.0893185810140000
0.2952021698549999 0.0318912734562000 0.3393185810140000
0.2952021698550000 0.0318912734562000 0.5893185810140000
0.2952021698550000 0.0318912734562000 0.8393185810140000
0.2694967910279999 0.0800825311232000 0.0002035810140335
0.2694967910279999 0.0800825311232000 0.2502035810140335
0.2694967910279999 0.0800825311232000 0.5002035810140335
0.2694967910279999 0.0800825311232000 0.7502035810140335
0.2271674531490000 0.0709606144934000 0.1481635810140000
0.2271674531490000 0.0709606144934000 0.3981635810140000
0.2271674531490000 0.0709606144934000 0.6481635810140001
0.2271674531490000 0.0709606144934000 0.8981635810140001
0.3139319653769998 0.9376449672329998 0.1671610810140000
0.3139319653769998 0.9376449672329998 0.4171610810140000
0.3139319653769997 0.9376449672329998 0.6671610810140001
0.3139319653769997 0.9376449672329998 0.9171610810140001
0.3365798316379998 0.9621050677629999 0.0060310810140250
0.3365798316379998 0.9621050677629999 0.2560310810140250
0.3365798316379998 0.9621050677629999 0.5060310810140251
0.3365798316379998 0.9621050677629999 0.7560310810140251
0.3685014777350000 0.8935540161530000 0.0645010810140000
0.3685014777350000 0.8935540161530000 0.3145010810140000
0.3685014777350000 0.8935540161530000 0.5645010810140000
0.3685014777349999 0.8935540161530000 0.8145010810140000
0.6368339841770000 0.0487885862810000 0.1333570480662500
0.6368339841770000 0.0487885862810000 0.3833570480662500
0.6368339841770000 0.0487885862810000 0.6333570480662500
0.6368339841770000 0.0487885862810000 0.8833570480662500
0.6458040376000000 0.9726544985379999 0.2167645480662500
0.6458040376000000 0.9726544985379999 0.4667645480662500
0.6458040376000000 0.9726544985379999 0.7167645480662500
0.6458040376000000 0.9726544985379999 0.9667645480662500
0.7129579477059997 0.9817561667400000 0.0498895480662500
0.7129579477059997 0.9817561667400000 0.2998895480662500
0.7129579477059997 0.9817561667400000 0.5498895480662500
0.7129579477059997 0.9817561667400000 0.7998895480662500
0.5831857752739998 0.0222833945641000 0.1662445480662500
0.5831857752739998 0.0222833945641000 0.4162445480662500
0.5831857752739998 0.0222833945641000 0.6662445480662500
0.5831857752739998 0.0222833945641000 0.9162445480662500
0.6324603238169998 0.9967400031579999 0.0771595480662500
0.6324603238169998 0.9967400031579999 0.3271595480662500
0.6324603238169998 0.9967400031579999 0.5771595480662500
0.6324603238169998 0.9967400031579999 0.8271595480662500
0.5928240268079998 0.9679264906959999 0.0184120480662250
0.5928240268079998 0.9679264906959999 0.2684120480662250
0.5928240268079998 0.9679264906959999 0.5184120480662250
0.5928240268079998 0.9679264906959999 0.7684120480662250
0.7016896977519999 0.9681289749709999 0.1606720480662500
0.7016896977519999 0.9681289749709999 0.4106720480662500
0.7016896977519999 0.9681289749709999 0.6606720480662500
0.7016896977519999 0.9681289749709999 0.9106720480662500
0.7272027165169999 0.9199275930909999 0.2496595480662500
0.7272027165169999 0.9199275930909999 0.4996595480662500
0.7272027165169999 0.9199275930909999 0.7496595480662500
0.7272027165169999 0.9199275930909999 0.9996595480662500
0.7697851597409999 0.9290090128650000 0.1019020480662500
0.7697851597409999 0.9290090128650000 0.3519020480662500
0.7697851597409999 0.9290090128650000 0.6019020480662500
0.7697851597409999 0.9290090128650000 0.8519020480662500
0.6857845578789997 0.0615754683049000 0.0828520480662500
0.6857845578789997 0.0615754683049000 0.3328520480662500
0.6857845578789997 0.0615754683049000 0.5828520480662500
0.6857845578789997 0.0615754683049000 0.8328520480662500
0.6603221601829999 0.0382695281474000 0.2439445480662500
0.6603221601829999 0.0382695281474000 0.4939445480662500
0.6603221601829998 0.0382695281474000 0.7439445480662500
0.6603221601829998 0.0382695281474000 0.9939445480662500
0.6344345455069997 0.1059600215850000 0.1848970480662500
0.6344345455069997 0.1059600215850000 0.4348970480662500
0.6344345455069997 0.1059600215850000 0.6848970480662500
0.6344345455069997 0.1059600215850000 0.9348970480662500
0.3150861257499999 0.6366719967559999 0.1334277080785000
0.3150861257499999 0.6366719967559999 0.3834277080785000
0.3150861257499999 0.6366719967559999 0.6334277080785000
0.3150861257499999 0.6366719967559999 0.8834277080785000
0.4226963941830000 0.5918318538559999 0.0616152080785000
0.4226963941830000 0.5918318538559999 0.3116152080785000
0.4226963941830000 0.5918318538559999 0.5616152080785000
0.4226963941829999 0.5918318538559999 0.8116152080785000
0.3053972531469999 0.7132717983340000 0.0503577080785000
0.3053972531469999 0.7132717983340000 0.3003577080785000
0.3053972531469999 0.7132717983340000 0.5503577080785000
0.3053972531469999 0.7132717983340000 0.8003577080784999
0.2522856275759999 0.6856833157409999 0.0829302080785000
0.2522856275759999 0.6856833157409999 0.3329302080785000
0.2522856275760000 0.6856833157409999 0.5829302080785000
0.2522856275759999 0.6856833157409999 0.8329302080785000
0.3014893066219999 0.6603930296790000 0.2439777080785000
0.3014893066219999 0.6603930296790000 0.4939777080785000
0.3014893066219999 0.6603930296790000 0.7439777080784999
0.3014893066219998 0.6603930296790000 0.9939777080784999
0.2623997171569999 0.6314276540100000 0.1851027080785000
0.2623997171569999 0.6314276540100000 0.4351027080784999
0.2623997171569999 0.6314276540100000 0.6851027080784999
0.2623997171569998 0.6314276540100000 0.9351027080784999
0.3300294653119999 0.7021655358000000 0.1606077080785000
0.3300294653119999 0.7021655358000000 0.4106077080785000
0.3300294653119998 0.7021655358000000 0.6606077080784999
0.3300294653119998 0.7021655358000000 0.9106077080784999
0.3525963378619998 0.7276988029929999 0.2498352080785000
0.3525963378619998 0.7276988029929999 0.4998352080785000
0.3525963378619998 0.7276988029929999 0.7498352080785000
0.3525963378619998 0.7276988029929999 0.9998352080785000
0.2982900550629999 0.7722250952660000 0.1030377080785000
0.2982900550629999 0.7722250952660000 0.3530377080785000
0.2982900550629999 0.7722250952660000 0.6030377080785000
0.2982900550629999 0.7722250952660000 0.8530377080785000
0.3708097984809999 0.6324400753900000 0.0772077080785000
0.3708097984809999 0.6324400753900000 0.3272077080785000
0.3708097984809999 0.6324400753900000 0.5772077080784999
0.3708097984809998 0.6324400753900000 0.8272077080784999
0.3960190908319998 0.5845829167780000 0.1664802080785000
0.3960190908319998 0.5845829167780000 0.4164802080785000
0.3960190908319998 0.5845829167780000 0.6664802080784999
0.3960190908319997 0.5845829167780000 0.9164802080784999
0.4393203532359998 0.5926822878140000 0.0185727080784500
0.4393203532359998 0.5926822878140000 0.2685727080784500
0.4393203532359998 0.5926822878140000 0.5185727080784500
0.4393203532359997 0.5926822878140000 0.7685727080784500
0.6181649339379999 0.3525153441520000 0.0334065587890000
0.6181649339379999 0.3525153441520000 0.2834065587890000
0.6181649339379999 0.3525153441520000 0.5334065587890000
0.6181649339379999 0.3525153441519999 0.7834065587890000
0.6956556663300000 0.2853614340460000 0.2000190587890000
0.6956556663300000 0.2853614340460000 0.4500190587890000
0.6956556663300000 0.2853614340460000 0.7000190587890001
0.6956556663300000 0.2853614340460000 0.9500190587890001
0.6863110169959998 0.3614955217890000 0.1164090587890000
0.6863110169959998 0.3614955217890000 0.3664090587890000
0.6863110169959998 0.3614955217890000 0.6164090587889999
0.6863110169959998 0.3614955217890000 0.8664090587889999
0.6703552560540000 0.2965385660760000 0.0896865587890000
0.6703552560540000 0.2965385660760000 0.3396865587889999
0.6703552560540000 0.2965385660760000 0.5896865587890000
0.6703552560540000 0.2965385660760000 0.8396865587890000
0.6443056539579999 0.2726251730910000 0.0004365587890850
0.6443056539579999 0.2726251730910000 0.2504365587890850
0.6443056539579999 0.2726251730910000 0.5004365587890850
0.6443056539579999 0.2726251730910000 0.7504365587890850
0.6987840483920000 0.2276635396250000 0.1481490587890000
0.6987840483920000 0.2276635396250000 0.3981490587890000
0.6987840483919999 0.2276635396250000 0.6481490587890000
0.6987840483919999 0.2276635396250000 0.8981490587890000
0.7477346220939999 0.3137396053150000 0.1673715587890000
0.7477346220939999 0.3137396053150000 0.4173715587890000
0.7477346220939999 0.3137396053150000 0.6673715587890000
0.7477346220939999 0.3137396053150000 0.9173715587890000
0.6991485200889999 0.3366405769210000 0.0065490587890750
0.6991485200889999 0.3366405769210000 0.2565490587890750
0.6991485200889999 0.3366405769210001 0.5065490587890750
0.6991485200889999 0.3366405769210000 0.7565490587890750
0.7398579837609998 0.3654237167420000 0.0647190587890000
0.7398579837609998 0.3654237167420000 0.3147190587890000
0.7398579837609998 0.3654237167420000 0.5647190587890000
0.7398579837609998 0.3654237167420000 0.8147190587890000
0.6311846728789999 0.3654743378100000 0.1728315587890000
0.6311846728789999 0.3654743378100000 0.4228315587890000
0.6311846728789999 0.3654743378099999 0.6728315587889999
0.6311846728789998 0.3654743378100000 0.9228315587889999
0.6056817783280000 0.4137972102569999 0.0838440587890000
0.6056817783280000 0.4137972102569999 0.3338440587890000
0.6056817783280000 0.4137972102569999 0.5838440587890000
0.6056817783280000 0.4137972102569999 0.8338440587890000
0.5632916951659998 0.4044525609239999 0.2316840587890000
0.5632916951659998 0.4044525609239999 0.4816840587890000
0.5632916951659998 0.4044525609239999 0.7316840587890000
0.5632916951659998 0.4044525609240000 0.9816840587890000
