# MTV_ZIF8_nIm_ratio050_ens2
1.000000
 33.9819999999999993   0.0000000000000000         0.0000000000
  0.0000000000000021  33.9819999999999993         0.0000000000
  0.0000000000000021   0.0000000000000021        33.9820000000
C C H C N Zn C C H N Zn C C H N C C H C H H H N C C H N Zn C C H N Zn C C H C H H H N C C H C H H H N C C H C N Zn C C H N Zn C C H N Zn C C H C H H H N Zn C H N C H H H H N C H N C H N C H N Zn C H N Zn C H N Zn C H N C H N Zn C H N C H H H H N C H N C C H N C C H N C C H N C C H C H H H N C C H C H H H N C C H C N C C H N C C H C N C C H N C C H N C C H C N C C H C H H H N C H N C H N C H N C H H H H N C H N C H H H H N C H N C H H H H N C H N C H N C H N C H N N O O N O O N O O N O O N O O N O O N O O N O O N O O N O O N O O N O O 
8 8 8 8 8 8 8 8 8 8 8 8 8 8 8 8 8 8 8 8 8 8 8 8 8 8 8 8 8 8 8 8 8 8 8 8 8 8 8 8 8 8 8 8 8 8 8 8 8 8 8 8 8 8 8 8 8 8 8 8 8 8 8 8 8 8 8 8 8 8 8 8 8 8 8 8 8 8 8 8 8 8 8 8 8 8 8 8 8 8 8 8 8 8 8 8 8 8 8 8 8 8 8 8 8 8 8 8 8 8 8 8 8 8 8 8 8 8 8 8 8 8 8 8 8 8 8 8 8 8 8 8 8 8 8 8 8 8 8 8 8 8 8 8 8 8 8 8 8 8 8 8 8 8 8 8 8 8 8 8 8 8 8 8 8 8 8 8 8 8 8 8 8 8 8 8 8 8 8 8 8 8 8 8 8 8 8 8 8 8 8 8 8 8 8 8 8 8 8 8 8 8 8 8 8 8 8 8 8 8 8 8 8 8 8 8 8 8 8 8 8 8 8 8 8 8 8 8 8 8 8 8 8 8 8 8 8 8 8 8 8 8 8 8 8 8 8 8 8 8 8 8 8 8 8 8 8 8 8 8 8 8 8 8 
Direct
0.1885250000000000 0.0039500000000000 0.3114750000000000
0.1885250000000000 0.0039500000000000 0.8114749999999999
0.1885250000000000 0.5039500000000000 0.3114750000000000
0.1885250000000000 0.5039500000000000 0.8114749999999999
0.6885250000000001 0.0039500000000000 0.3114750000000000
0.6885250000000001 0.0039500000000000 0.8114749999999999
0.6885250000000001 0.5039500000000000 0.3114750000000000
0.6885250000000001 0.5039500000000000 0.8114749999999999
0.1842550000000000 0.4495700000000000 0.3437500000000000
0.1842550000000000 0.4495700000000000 0.8437500000000000
0.1842550000000000 0.9495699999999999 0.3437500000000000
0.1842550000000000 0.9495699999999999 0.8437500000000000
0.6842550000000001 0.4495700000000000 0.3437500000000000
0.6842550000000001 0.4495700000000000 0.8437500000000000
0.6842550000000001 0.9495699999999999 0.3437500000000000
0.6842550000000001 0.9495699999999999 0.8437500000000000
0.1888500000000000 0.4294500000000000 0.3617000000000000
0.1888500000000000 0.4294500000000000 0.8617000000000000
0.1888500000000000 0.9294499999999999 0.3617000000000000
0.1888500000000000 0.9294500000000000 0.8617000000000000
0.6888500000000000 0.4294500000000000 0.3617000000000000
0.6888500000000001 0.4294500000000000 0.8617000000000000
0.6888500000000000 0.9294499999999999 0.3617000000000000
0.6888500000000000 0.9294500000000000 0.8617000000000000
0.2030499999999999 0.0427500000000000 0.2969500000000000
0.2030499999999999 0.0427500000000000 0.7969499999999999
0.2030499999999999 0.5427500000000000 0.2969500000000000
0.2030499999999999 0.5427500000000000 0.7969499999999999
0.7030500000000000 0.0427500000000000 0.2969500000000000
0.7030500000000000 0.0427500000000000 0.7969499999999999
0.7030500000000000 0.5427500000000000 0.2969500000000000
0.7030500000000000 0.5427500000000000 0.7969499999999999
0.2048650000000000 0.4841600000000000 0.3413900000000000
0.2048650000000000 0.4841599999999999 0.8413900000000001
0.2048650000000000 0.9841599999999999 0.3413900000000000
0.2048650000000000 0.9841599999999999 0.8413900000000001
0.7048650000000000 0.4841600000000000 0.3413900000000000
0.7048650000000000 0.4841599999999999 0.8413900000000001
0.7048650000000000 0.9841599999999999 0.3413900000000000
0.7048650000000000 0.9841599999999999 0.8413900000000001
0.2500000000000000 0.0000000000000000 0.3750000000000000
0.2500000000000000 0.0000000000000000 0.8750000000000000
0.2500000000000000 0.5000000000000000 0.3750000000000000
0.2500000000000000 0.5000000000000001 0.8750000000000000
0.7500000000000000 0.0000000000000000 0.3750000000000000
0.7500000000000001 0.0000000000000000 0.8750000000000000
0.7500000000000000 0.5000000000000000 0.3750000000000000
0.7500000000000001 0.5000000000000001 0.8750000000000000
0.0039500000000000 0.3114750000000000 0.1885250000000000
0.0039500000000000 0.3114750000000000 0.6885250000000001
0.0039500000000000 0.8114749999999999 0.1885250000000000
0.0039500000000000 0.8114749999999999 0.6885250000000001
0.5039500000000000 0.3114750000000000 0.1885250000000000
0.5039500000000000 0.3114750000000000 0.6885250000000001
0.5039500000000000 0.8114749999999999 0.1885250000000000
0.5039500000000000 0.8114749999999999 0.6885250000000001
0.4495700000000000 0.3157450000000000 0.1562500000000000
0.4495700000000000 0.3157450000000000 0.6562500000000000
0.4495700000000000 0.8157449999999999 0.1562500000000000
0.4495700000000000 0.8157449999999999 0.6562500000000000
0.9495699999999999 0.3157450000000000 0.1562500000000000
0.9495699999999999 0.3157450000000000 0.6562500000000000
0.9495699999999999 0.8157449999999999 0.1562500000000000
0.9495699999999999 0.8157449999999999 0.6562500000000000
0.4294500000000000 0.3111500000000000 0.1383000000000000
0.4294500000000000 0.3111500000000000 0.6383000000000000
0.4294500000000000 0.8111500000000000 0.1383000000000000
0.4294500000000000 0.8111500000000000 0.6383000000000000
0.9294499999999999 0.3111500000000000 0.1383000000000000
0.9294499999999999 0.3111500000000000 0.6383000000000000
0.9294499999999999 0.8111500000000000 0.1383000000000000
0.9294499999999999 0.8111500000000000 0.6383000000000000
0.4841600000000000 0.2951350000000000 0.1586100000000000
0.4841599999999999 0.2951350000000000 0.6586100000000000
0.4841599999999999 0.7951349999999999 0.1586100000000000
0.4841599999999999 0.7951349999999999 0.6586100000000000
0.9841599999999999 0.2951350000000000 0.1586100000000000
0.9841599999999999 0.2951350000000000 0.6586100000000000
0.9841599999999999 0.7951349999999999 0.1586100000000000
0.9841599999999999 0.7951349999999999 0.6586100000000000
0.0000000000000000 0.2500000000000000 0.1250000000000000
0.0000000000000000 0.2500000000000000 0.6250000000000000
0.0000000000000000 0.7500000000000000 0.1250000000000000
0.0000000000000000 0.7500000000000000 0.6250000000000000
0.5000000000000000 0.2500000000000000 0.1250000000000000
0.4999999999999999 0.2500000000000000 0.6250000000000000
0.4999999999999999 0.7500000000000000 0.1250000000000000
0.4999999999999999 0.7500000000000000 0.6250000000000000
0.3114750000000000 0.4960500000000000 0.3114750000000000
0.3114750000000000 0.4960499999999999 0.8114749999999999
0.3114750000000000 0.9960499999999999 0.3114750000000000
0.3114750000000000 0.9960499999999999 0.8114749999999999
0.8114749999999999 0.4960500000000000 0.3114750000000000
0.8114749999999999 0.4960499999999999 0.8114749999999999
0.8114749999999999 0.9960499999999999 0.3114750000000000
0.8114749999999999 0.9960499999999999 0.8114749999999999
0.3157450000000000 0.0504300000000000 0.3437500000000000
0.3157450000000000 0.0504300000000000 0.8437500000000000
0.3157450000000000 0.5504299999999999 0.3437500000000000
0.3157450000000000 0.5504299999999999 0.8437500000000000
0.8157449999999999 0.0504300000000000 0.3437500000000000
0.8157449999999999 0.0504300000000000 0.8437500000000000
0.8157449999999999 0.5504299999999999 0.3437500000000000
0.8157449999999999 0.5504299999999999 0.8437500000000000
0.3111500000000000 0.0705500000000000 0.3617000000000000
0.3111500000000000 0.0705500000000000 0.8617000000000000
0.3111500000000000 0.5705500000000000 0.3617000000000000
0.3111500000000000 0.5705500000000001 0.8617000000000000
0.8111500000000000 0.0705500000000000 0.3617000000000000
0.8111500000000001 0.0705500000000000 0.8617000000000000
0.8111500000000000 0.5705500000000000 0.3617000000000000
0.8111500000000001 0.5705500000000001 0.8617000000000000
0.2951350000000000 0.0158400000000000 0.3413900000000000
0.2951350000000000 0.0158400000000000 0.8413900000000001
0.2951350000000000 0.5158400000000000 0.3413900000000000
0.2951350000000000 0.5158400000000000 0.8413900000000001
0.7951349999999999 0.0158400000000000 0.3413900000000000
0.7951349999999999 0.0158400000000000 0.8413900000000001
0.7951349999999999 0.5158400000000000 0.3413900000000000
0.7951349999999999 0.5158400000000000 0.8413900000000001
0.4960500000000000 0.1885250000000000 0.1885250000000000
0.4960499999999999 0.1885250000000000 0.6885250000000001
0.4960499999999999 0.6885250000000001 0.1885250000000000
0.4960499999999999 0.6885250000000001 0.6885250000000001
0.9960499999999999 0.1885250000000000 0.1885250000000000
0.9960499999999999 0.1885250000000000 0.6885250000000001
0.9960499999999999 0.6885250000000001 0.1885250000000000
0.9960499999999999 0.6885250000000001 0.6885250000000001
0.0504300000000000 0.1842550000000000 0.1562500000000000
0.0504300000000000 0.1842550000000000 0.6562500000000000
0.0504300000000000 0.6842550000000001 0.1562500000000000
0.0504300000000000 0.6842550000000001 0.6562500000000000
0.5504299999999999 0.1842550000000000 0.1562500000000000
0.5504299999999999 0.1842550000000000 0.6562500000000000
0.5504299999999999 0.6842550000000001 0.1562500000000000
0.5504299999999999 0.6842550000000001 0.6562500000000000
0.0705500000000000 0.1888500000000000 0.1383000000000000
0.0705500000000000 0.1888500000000000 0.6383000000000000
0.0705500000000000 0.6888500000000000 0.1383000000000000
0.0705500000000000 0.6888500000000000 0.6383000000000000
0.5705500000000000 0.1888500000000000 0.1383000000000000
0.5705500000000000 0.1888500000000000 0.6383000000000000
0.5705500000000000 0.6888500000000000 0.1383000000000000
0.5705500000000000 0.6888500000000000 0.6383000000000000
0.4572500000000000 0.2030500000000000 0.2030500000000000
0.4572500000000000 0.2030499999999999 0.7030500000000000
0.4572500000000000 0.7030500000000000 0.2030500000000000
0.4572500000000000 0.7030500000000000 0.7030500000000000
0.9572499999999999 0.2030500000000000 0.2030500000000000
0.9572499999999999 0.2030499999999999 0.7030500000000000
0.9572499999999999 0.7030500000000000 0.2030500000000000
0.9572499999999999 0.7030500000000000 0.7030500000000000
0.4601000000000000 0.2293500000000000 0.2128500000000000
0.4601000000000000 0.2293500000000000 0.7128500000000000
0.4601000000000000 0.7293499999999999 0.2128500000000000
0.4601000000000000 0.7293499999999999 0.7128500000000000
0.9601000000000000 0.2293500000000000 0.2128500000000000
0.9601000000000000 0.2293500000000000 0.7128500000000000
0.9601000000000000 0.7293499999999999 0.2128500000000000
0.9601000000000000 0.7293499999999999 0.7128500000000000
0.4386000000000000 0.2029000000000000 0.1818000000000000
0.4386000000000000 0.2029000000000000 0.6818000000000000
0.4386000000000000 0.7028999999999999 0.1818000000000000
0.4385999999999999 0.7028999999999999 0.6818000000000000
0.9386000000000000 0.2029000000000000 0.1818000000000000
0.9386000000000000 0.2029000000000000 0.6818000000000000
0.9386000000000000 0.7028999999999999 0.1818000000000000
0.9386000000000000 0.7028999999999999 0.6818000000000000
0.4480500000000000 0.1862000000000000 0.2237499999999999
0.4480500000000000 0.1861999999999999 0.7237499999999998
0.4480500000000000 0.6861999999999999 0.2237499999999999
0.4480500000000000 0.6861999999999999 0.7237499999999998
0.9480500000000002 0.1862000000000000 0.2237499999999999
0.9480500000000002 0.1861999999999999 0.7237499999999998
0.9480500000000002 0.6861999999999999 0.2237499999999999
0.9480500000000002 0.6861999999999999 0.7237499999999998
0.0158400000000000 0.2048650000000000 0.1586100000000000
0.0158400000000000 0.2048650000000000 0.6586100000000000
0.0158400000000000 0.7048650000000000 0.1586100000000000
0.0158400000000000 0.7048650000000000 0.6586100000000000
0.5158400000000000 0.2048650000000000 0.1586100000000000
0.5158400000000000 0.2048650000000000 0.6586100000000000
0.5158400000000000 0.7048650000000000 0.1586100000000000
0.5158400000000000 0.7048650000000000 0.6586100000000000
0.1885250000000000 0.4960500000000000 0.1885250000000000
0.1885250000000000 0.4960499999999999 0.6885250000000001
0.1885250000000000 0.9960499999999999 0.1885250000000000
0.1885250000000000 0.9960499999999999 0.6885250000000001
0.6885250000000001 0.4960500000000000 0.1885250000000000
0.6885250000000001 0.4960499999999999 0.6885250000000001
0.6885250000000001 0.9960499999999999 0.1885250000000000
0.6885250000000001 0.9960499999999999 0.6885250000000001
0.1842550000000000 0.0504300000000000 0.1562500000000000
0.1842550000000000 0.0504300000000000 0.6562500000000000
0.1842550000000000 0.5504299999999999 0.1562500000000000
0.1842550000000000 0.5504299999999999 0.6562500000000000
0.6842550000000001 0.0504300000000000 0.1562500000000000
0.6842550000000001 0.0504300000000000 0.6562500000000000
0.6842550000000001 0.5504299999999999 0.1562500000000000
0.6842550000000001 0.5504299999999999 0.6562500000000000
0.1888500000000000 0.0705500000000000 0.1383000000000000
0.1888500000000000 0.0705500000000000 0.6383000000000000
0.1888500000000000 0.5705500000000000 0.1383000000000000
0.1888500000000000 0.5705500000000000 0.6383000000000000
0.6888500000000000 0.0705500000000000 0.1383000000000000
0.6888500000000000 0.0705500000000000 0.6383000000000000
0.6888500000000000 0.5705500000000000 0.1383000000000000
0.6888500000000000 0.5705500000000000 0.6383000000000000
0.2048650000000000 0.0158400000000000 0.1586100000000000
0.2048650000000000 0.0158400000000000 0.6586100000000000
0.2048650000000000 0.5158400000000000 0.1586100000000000
0.2048650000000000 0.5158400000000000 0.6586100000000000
0.7048650000000000 0.0158400000000000 0.1586100000000000
0.7048650000000000 0.0158400000000000 0.6586100000000000
0.7048650000000000 0.5158400000000000 0.1586100000000000
0.7048650000000000 0.5158400000000000 0.6586100000000000
0.2500000000000000 0.0000000000000000 0.1250000000000000
0.2500000000000000 0.0000000000000000 0.6250000000000000
0.2500000000000000 0.5000000000000000 0.1250000000000000
0.2500000000000000 0.4999999999999999 0.6250000000000000
0.7500000000000000 0.0000000000000000 0.1250000000000000
0.7500000000000000 0.0000000000000000 0.6250000000000000
0.7500000000000000 0.5000000000000000 0.1250000000000000
0.7500000000000000 0.4999999999999999 0.6250000000000000
0.4960500000000000 0.3114750000000000 0.3114750000000000
0.4960499999999999 0.3114750000000000 0.8114749999999999
0.4960499999999999 0.8114749999999999 0.3114750000000000
0.4960499999999999 0.8114749999999999 0.8114749999999999
0.9960499999999999 0.3114750000000000 0.3114750000000000
0.9960499999999999 0.3114750000000000 0.8114749999999999
0.9960499999999999 0.8114749999999999 0.3114750000000000
0.9960499999999999 0.8114749999999999 0.8114749999999999
0.0504300000000000 0.3157450000000000 0.3437500000000000
0.0504300000000000 0.3157450000000000 0.8437500000000000
0.0504300000000000 0.8157449999999999 0.3437500000000000
0.0504300000000000 0.8157449999999999 0.8437500000000000
0.5504299999999999 0.3157450000000000 0.3437500000000000
0.5504299999999999 0.3157450000000000 0.8437500000000000
0.5504299999999999 0.8157449999999999 0.3437500000000000
0.5504299999999999 0.8157449999999999 0.8437500000000000
0.0705500000000000 0.3111500000000000 0.3617000000000000
0.0705500000000000 0.3111500000000000 0.8617000000000000
0.0705500000000000 0.8111500000000000 0.3617000000000000
0.0705500000000000 0.8111500000000001 0.8617000000000000
0.5705500000000000 0.3111500000000000 0.3617000000000000
0.5705500000000001 0.3111500000000000 0.8617000000000000
0.5705500000000000 0.8111500000000000 0.3617000000000000
0.5705500000000001 0.8111500000000001 0.8617000000000000
0.0158400000000000 0.2951350000000000 0.3413900000000000
0.0158400000000000 0.2951350000000000 0.8413900000000001
0.0158400000000000 0.7951349999999999 0.3413900000000000
0.0158400000000000 0.7951349999999999 0.8413900000000001
0.5158400000000000 0.2951350000000000 0.3413900000000000
0.5158400000000000 0.2951350000000000 0.8413900000000001
0.5158400000000000 0.7951349999999999 0.3413900000000000
0.5158400000000000 0.7951349999999999 0.8413900000000001
0.0000000000000000 0.2500000000000000 0.3750000000000000
0.0000000000000000 0.2500000000000000 0.8750000000000000
0.0000000000000000 0.7500000000000000 0.3750000000000000
0.0000000000000000 0.7500000000000001 0.8750000000000000
0.5000000000000000 0.2500000000000000 0.3750000000000000
0.5000000000000001 0.2500000000000000 0.8750000000000000
0.4999999999999999 0.7500000000000000 0.3750000000000000
0.5000000000000001 0.7500000000000001 0.8750000000000000
0.3114750000000000 0.0039500000000000 0.1885250000000000
0.3114750000000000 0.0039500000000000 0.6885250000000001
0.3114750000000000 0.5039500000000000 0.1885250000000000
0.3114750000000000 0.5039500000000000 0.6885250000000001
0.8114749999999999 0.0039500000000000 0.1885250000000000
0.8114749999999999 0.0039500000000000 0.6885250000000001
0.8114749999999999 0.5039500000000000 0.1885250000000000
0.8114749999999999 0.5039500000000000 0.6885250000000001
0.3157450000000001 0.4495700000000000 0.1562500000000000
0.3157450000000001 0.4495700000000000 0.6562500000000000
0.3157450000000000 0.9495699999999999 0.1562500000000000
0.3157450000000000 0.9495699999999999 0.6562500000000000
0.8157449999999999 0.4495700000000000 0.1562500000000000
0.8157449999999999 0.4495700000000000 0.6562500000000000
0.8157449999999999 0.9495699999999999 0.1562500000000000
0.8157449999999999 0.9495699999999999 0.6562500000000000
0.3111500000000000 0.4294500000000000 0.1383000000000000
0.3111500000000000 0.4294500000000000 0.6383000000000000
0.3111500000000000 0.9294499999999999 0.1383000000000000
0.3111500000000000 0.9294499999999999 0.6383000000000000
0.8111500000000000 0.4294500000000000 0.1383000000000000
0.8111500000000000 0.4294500000000000 0.6383000000000000
0.8111500000000000 0.9294499999999999 0.1383000000000000
0.8111500000000000 0.9294499999999999 0.6383000000000000
0.2969500000000000 0.0427500000000000 0.2030500000000000
0.2969500000000000 0.0427500000000000 0.7030500000000000
0.2969500000000000 0.5427500000000000 0.2030500000000000
0.2969500000000000 0.5427500000000000 0.7030500000000000
0.7969499999999999 0.0427500000000000 0.2030500000000000
0.7969499999999999 0.0427500000000000 0.7030500000000000
0.7969499999999999 0.5427500000000000 0.2030500000000000
0.7969499999999999 0.5427500000000000 0.7030500000000000
0.2706499999999998 0.0399000000000000 0.2128500000000000
0.2706499999999998 0.0399000000000000 0.7128500000000000
0.2706499999999998 0.5399000000000000 0.2128500000000000
0.2706499999999998 0.5399000000000000 0.7128500000000000
0.7706499999999998 0.0399000000000000 0.2128500000000000
0.7706499999999998 0.0399000000000000 0.7128500000000000
0.7706499999999998 0.5399000000000000 0.2128500000000000
0.7706499999999998 0.5399000000000000 0.7128500000000000
0.2971000000000000 0.0614000000000000 0.1818000000000000
0.2971000000000000 0.0614000000000000 0.6818000000000000
0.2971000000000000 0.5614000000000000 0.1818000000000000
0.2971000000000000 0.5614000000000000 0.6818000000000000
0.7970999999999998 0.0614000000000000 0.1818000000000000
0.7970999999999998 0.0614000000000000 0.6818000000000000
0.7970999999999998 0.5614000000000000 0.1818000000000000
0.7970999999999998 0.5614000000000000 0.6818000000000000
0.3138000000000000 0.0519500000000000 0.2237499999999999
0.3137999999999999 0.0519500000000000 0.7237499999999998
0.3137999999999999 0.5519499999999999 0.2237499999999999
0.3137999999999999 0.5519499999999999 0.7237499999999998
0.8138000000000000 0.0519500000000000 0.2237499999999999
0.8138000000000000 0.0519500000000000 0.7237499999999998
0.8138000000000000 0.5519499999999999 0.2237499999999999
0.8138000000000000 0.5519499999999999 0.7237499999999998
0.2951350000000000 0.4841600000000000 0.1586100000000000
0.2951350000000000 0.4841599999999999 0.6586100000000000
0.2951350000000000 0.9841599999999999 0.1586100000000000
0.2951350000000000 0.9841599999999999 0.6586100000000000
0.7951349999999999 0.4841600000000000 0.1586100000000000
0.7951349999999999 0.4841599999999999 0.6586100000000000
0.7951349999999999 0.9841599999999999 0.1586100000000000
0.7951349999999999 0.9841599999999999 0.6586100000000000
0.0039500000000000 0.1885250000000000 0.3114750000000000
0.0039500000000000 0.1885250000000000 0.8114749999999999
0.0039500000000000 0.6885250000000001 0.3114750000000000
0.0039500000000000 0.6885250000000001 0.8114749999999999
0.5039500000000000 0.1885250000000000 0.3114750000000000
0.5039500000000000 0.1885250000000000 0.8114749999999999
0.5039500000000000 0.6885250000000001 0.3114750000000000
0.5039500000000000 0.6885250000000001 0.8114749999999999
0.4495700000000000 0.1842550000000000 0.3437500000000000
0.4495700000000000 0.1842550000000000 0.8437500000000000
0.4495700000000000 0.6842550000000001 0.3437500000000000
0.4495700000000000 0.6842550000000001 0.8437500000000000
0.9495699999999999 0.1842550000000000 0.3437500000000000
0.9495699999999999 0.1842550000000000 0.8437500000000000
0.9495699999999999 0.6842550000000001 0.3437500000000000
0.9495699999999999 0.6842550000000001 0.8437500000000000
0.4294500000000000 0.1888500000000000 0.3617000000000000
0.4294500000000000 0.1888500000000000 0.8617000000000000
0.4294500000000000 0.6888500000000000 0.3617000000000000
0.4294500000000000 0.6888500000000001 0.8617000000000000
0.9294499999999999 0.1888500000000000 0.3617000000000000
0.9294500000000000 0.1888500000000000 0.8617000000000000
0.9294499999999999 0.6888500000000000 0.3617000000000000
0.9294500000000000 0.6888500000000001 0.8617000000000000
0.0427500000000000 0.2030499999999999 0.2969500000000000
0.0427500000000000 0.2030499999999999 0.7969499999999999
0.0427500000000000 0.7030500000000000 0.2969500000000000
0.0427500000000000 0.7030500000000000 0.7969499999999999
0.5427500000000000 0.2030499999999999 0.2969500000000000
0.5427500000000000 0.2030499999999999 0.7969499999999999
0.5427500000000000 0.7030500000000000 0.2969500000000000
0.5427500000000000 0.7030500000000000 0.7969499999999999
0.0399000000000000 0.2293500000000000 0.2871500000000000
0.0399000000000000 0.2293500000000000 0.7871499999999999
0.0399000000000000 0.7293499999999999 0.2871500000000000
0.0399000000000000 0.7293499999999999 0.7871499999999999
0.5399000000000000 0.2293500000000000 0.2871500000000000
0.5399000000000000 0.2293500000000000 0.7871499999999999
0.5399000000000000 0.7293499999999999 0.2871500000000000
0.5399000000000000 0.7293499999999999 0.7871499999999999
0.0614000000000000 0.2029000000000000 0.3182000000000000
0.0614000000000000 0.2029000000000000 0.8181999999999999
0.0614000000000000 0.7028999999999999 0.3182000000000000
0.0614000000000000 0.7028999999999999 0.8181999999999999
0.5614000000000000 0.2029000000000000 0.3182000000000000
0.5614000000000000 0.2029000000000000 0.8181999999999999
0.5614000000000000 0.7028999999999999 0.3182000000000000
0.5614000000000000 0.7028999999999999 0.8181999999999999
0.0519500000000000 0.1861999999999999 0.2762500000000000
0.0519500000000000 0.1861999999999999 0.7762500000000000
0.0519500000000000 0.6861999999999999 0.2762500000000000
0.0519500000000000 0.6861999999999999 0.7762500000000000
0.5519499999999999 0.1861999999999999 0.2762500000000000
0.5519499999999999 0.1861999999999999 0.7762500000000000
0.5519499999999999 0.6861999999999999 0.2762500000000000
0.5519499999999999 0.6861999999999999 0.7762500000000000
0.4841600000000000 0.2048650000000000 0.3413900000000000
0.4841599999999999 0.2048650000000000 0.8413900000000001
0.4841599999999999 0.7048650000000000 0.3413900000000000
0.4841599999999999 0.7048650000000000 0.8413900000000001
0.9841599999999999 0.2048650000000000 0.3413900000000000
0.9841599999999999 0.2048650000000000 0.8413900000000001
0.9841599999999999 0.7048650000000000 0.3413900000000000
0.9841599999999999 0.7048650000000000 0.8413900000000001
0.3114750000000000 0.1885250000000000 0.0039500000000000
0.3114750000000000 0.1885250000000000 0.5039500000000000
0.3114750000000000 0.6885250000000001 0.0039500000000000
0.3114750000000000 0.6885250000000001 0.5039500000000000
0.8114749999999999 0.1885250000000000 0.0039500000000000
0.8114749999999999 0.1885250000000000 0.5039500000000000
0.8114749999999999 0.6885250000000001 0.0039500000000000
0.8114749999999999 0.6885250000000001 0.5039500000000000
0.3437500000000001 0.1842550000000000 0.4495700000000000
0.3437500000000000 0.1842550000000000 0.9495699999999999
0.3437500000000001 0.6842550000000001 0.4495700000000000
0.3437500000000000 0.6842550000000001 0.9495699999999999
0.8437500000000000 0.1842550000000000 0.4495700000000000
0.8437500000000000 0.1842550000000000 0.9495699999999999
0.8437500000000000 0.6842550000000001 0.4495700000000000
0.8437500000000000 0.6842550000000001 0.9495699999999999
0.3617000000000001 0.1888500000000000 0.4294500000000000
0.3617000000000000 0.1888500000000000 0.9294499999999999
0.3617000000000000 0.6888500000000000 0.4294500000000000
0.3617000000000000 0.6888500000000000 0.9294499999999999
0.8617000000000000 0.1888500000000000 0.4294500000000000
0.8617000000000000 0.1888500000000000 0.9294499999999999
0.8617000000000000 0.6888500000000000 0.4294500000000000
0.8617000000000000 0.6888500000000000 0.9294499999999999
0.2969500000000000 0.2030500000000000 0.0427500000000000
0.2969500000000000 0.2030499999999999 0.5427500000000000
0.2969500000000000 0.7030500000000000 0.0427500000000000
0.2969500000000000 0.7030500000000000 0.5427500000000000
0.7969499999999999 0.2030500000000000 0.0427500000000000
0.7969499999999999 0.2030499999999999 0.5427500000000000
0.7969499999999999 0.7030500000000000 0.0427500000000000
0.7969499999999999 0.7030500000000000 0.5427500000000000
0.3413900000000000 0.2048650000000000 0.4841600000000000
0.3413900000000000 0.2048650000000000 0.9841599999999999
0.3413900000000000 0.7048650000000000 0.4841600000000000
0.3413900000000000 0.7048650000000000 0.9841599999999999
0.8413900000000001 0.2048650000000000 0.4841600000000000
0.8413900000000001 0.2048650000000000 0.9841599999999999
0.8413900000000001 0.7048650000000000 0.4841600000000000
0.8413900000000001 0.7048650000000000 0.9841599999999999
0.3750000000000000 0.2500000000000000 0.0000000000000000
0.3750000000000000 0.2500000000000000 0.5000000000000000
0.3750000000000000 0.7500000000000000 0.0000000000000000
0.3750000000000000 0.7500000000000000 0.5000000000000000
0.8750000000000000 0.2500000000000000 0.0000000000000000
0.8750000000000000 0.2500000000000000 0.5000000000000000
0.8750000000000000 0.7500000000000000 0.0000000000000000
0.8750000000000000 0.7500000000000000 0.5000000000000000
0.1885250000000000 0.1885250000000000 0.4960500000000000
0.1885250000000000 0.1885250000000000 0.9960499999999999
0.1885250000000000 0.6885250000000001 0.4960500000000000
0.1885250000000000 0.6885250000000001 0.9960499999999999
0.6885250000000001 0.1885250000000000 0.4960500000000000
0.6885250000000001 0.1885250000000000 0.9960499999999999
0.6885250000000001 0.6885250000000001 0.4960500000000000
0.6885250000000001 0.6885250000000001 0.9960499999999999
0.1842550000000000 0.1562500000000000 0.0504300000000000
0.1842550000000000 0.1562500000000000 0.5504299999999999
0.1842550000000000 0.6562500000000000 0.0504300000000000
0.1842550000000000 0.6562500000000000 0.5504299999999999
0.6842550000000001 0.1562500000000000 0.0504300000000000
0.6842550000000001 0.1562500000000000 0.5504299999999999
0.6842550000000001 0.6562500000000000 0.0504300000000000
0.6842550000000001 0.6562500000000000 0.5504299999999999
0.1888500000000000 0.1383000000000000 0.0705500000000000
0.1888500000000000 0.1383000000000000 0.5705500000000000
0.1888500000000000 0.6383000000000000 0.0705500000000000
0.1888500000000000 0.6383000000000000 0.5705500000000000
0.6888500000000000 0.1383000000000000 0.0705500000000000
0.6888500000000000 0.1383000000000000 0.5705500000000000
0.6888500000000000 0.6383000000000000 0.0705500000000000
0.6888500000000000 0.6383000000000000 0.5705500000000000
0.2048650000000000 0.1586100000000000 0.0158400000000000
0.2048650000000000 0.1586100000000000 0.5158400000000000
0.2048650000000000 0.6586100000000000 0.0158400000000000
0.2048650000000000 0.6586100000000000 0.5158400000000000
0.7048650000000000 0.1586100000000000 0.0158400000000000
0.7048650000000000 0.1586100000000000 0.5158400000000000
0.7048650000000000 0.6586100000000000 0.0158400000000000
0.7048650000000000 0.6586100000000000 0.5158400000000000
0.2500000000000000 0.1250000000000000 0.0000000000000000
0.2500000000000000 0.1250000000000000 0.5000000000000000
0.2500000000000000 0.6250000000000000 0.0000000000000000
0.2500000000000000 0.6250000000000000 0.5000000000000000
0.7500000000000000 0.1250000000000000 0.0000000000000000
0.7500000000000000 0.1250000000000000 0.5000000000000000
0.7500000000000000 0.6250000000000000 0.0000000000000000
0.7500000000000000 0.6250000000000000 0.5000000000000000
0.1885250000000000 0.3114750000000000 0.0039500000000000
0.1885250000000000 0.3114750000000000 0.5039500000000000
0.1885250000000000 0.8114749999999999 0.0039500000000000
0.1885250000000000 0.8114749999999999 0.5039500000000000
0.6885250000000001 0.3114750000000000 0.0039500000000000
0.6885250000000001 0.3114750000000000 0.5039500000000000
0.6885250000000001 0.8114749999999999 0.0039500000000000
0.6885250000000001 0.8114749999999999 0.5039500000000000
0.1562500000000000 0.3157450000000001 0.4495700000000000
0.1562500000000000 0.3157450000000000 0.9495699999999999
0.1562500000000000 0.8157449999999999 0.4495700000000000
0.1562500000000000 0.8157449999999999 0.9495699999999999
0.6562500000000000 0.3157450000000001 0.4495700000000000
0.6562499999999999 0.3157450000000000 0.9495699999999999
0.6562500000000000 0.8157449999999999 0.4495700000000000
0.6562499999999999 0.8157449999999999 0.9495699999999999
0.1383000000000000 0.3111500000000000 0.4294500000000000
0.1383000000000000 0.3111500000000000 0.9294499999999999
0.1383000000000000 0.8111500000000000 0.4294500000000000
0.1383000000000000 0.8111500000000000 0.9294499999999999
0.6383000000000000 0.3111500000000000 0.4294500000000000
0.6383000000000000 0.3111500000000000 0.9294499999999999
0.6383000000000000 0.8111500000000000 0.4294500000000000
0.6383000000000000 0.8111500000000000 0.9294499999999999
0.1586100000000000 0.2951350000000000 0.4841600000000000
0.1586100000000000 0.2951350000000000 0.9841599999999999
0.1586100000000000 0.7951349999999999 0.4841600000000000
0.1586100000000000 0.7951349999999999 0.9841599999999999
0.6586100000000000 0.2951350000000000 0.4841600000000000
0.6586100000000000 0.2951350000000000 0.9841599999999999
0.6586100000000000 0.7951349999999999 0.4841600000000000
0.6586100000000000 0.7951349999999999 0.9841599999999999
0.1250000000000000 0.2500000000000000 0.0000000000000000
0.1250000000000000 0.2500000000000000 0.5000000000000000
0.1250000000000000 0.7500000000000000 0.0000000000000000
0.1250000000000000 0.7500000000000000 0.5000000000000000
0.6250000000000000 0.2500000000000000 0.0000000000000000
0.6250000000000000 0.2500000000000000 0.5000000000000000
0.6250000000000000 0.7500000000000000 0.0000000000000000
0.6250000000000000 0.7500000000000000 0.5000000000000000
0.3114750000000000 0.3114750000000000 0.4960500000000000
0.3114750000000000 0.3114750000000000 0.9960499999999999
0.3114750000000000 0.8114749999999999 0.4960500000000000
0.3114750000000000 0.8114749999999999 0.9960499999999999
0.8114749999999999 0.3114750000000000 0.4960500000000000
0.8114749999999999 0.3114750000000000 0.9960499999999999
0.8114749999999999 0.8114749999999999 0.4960500000000000
0.8114749999999999 0.8114749999999999 0.9960499999999999
0.3157450000000000 0.3437500000000000 0.0504300000000000
0.3157450000000000 0.3437500000000000 0.5504299999999999
0.3157450000000000 0.8437500000000000 0.0504300000000000
0.3157450000000000 0.8437500000000000 0.5504299999999999
0.8157449999999999 0.3437500000000000 0.0504300000000000
0.8157449999999999 0.3437500000000000 0.5504299999999999
0.8157449999999999 0.8437500000000000 0.0504300000000000
0.8157449999999999 0.8437500000000000 0.5504299999999999
0.3111500000000000 0.3617000000000000 0.0705500000000000
0.3111500000000000 0.3617000000000000 0.5705500000000000
0.3111500000000000 0.8617000000000000 0.0705500000000000
0.3111500000000000 0.8617000000000000 0.5705500000000000
0.8111500000000000 0.3617000000000000 0.0705500000000000
0.8111500000000000 0.3617000000000000 0.5705500000000000
0.8111500000000001 0.8617000000000000 0.0705500000000000
0.8111500000000001 0.8617000000000000 0.5705500000000000
0.2969500000000000 0.2969500000000000 0.4572500000000000
0.2969500000000000 0.2969500000000000 0.9572499999999999
0.2969500000000000 0.7969499999999999 0.4572500000000000
0.2969500000000000 0.7969499999999999 0.9572499999999999
0.7969499999999999 0.2969500000000000 0.4572500000000000
0.7969499999999999 0.2969500000000000 0.9572499999999999
0.7969499999999999 0.7969499999999999 0.4572500000000000
0.7969499999999999 0.7969499999999999 0.9572499999999999
0.2706499999999998 0.2871500000000000 0.4601000000000000
0.2706499999999998 0.2871500000000000 0.9601000000000000
0.2706499999999998 0.7871499999999999 0.4601000000000000
0.2706499999999998 0.7871499999999999 0.9601000000000000
0.7706499999999998 0.2871500000000000 0.4601000000000000
0.7706499999999998 0.2871500000000000 0.9601000000000000
0.7706499999999998 0.7871499999999999 0.4601000000000000
0.7706499999999998 0.7871499999999999 0.9601000000000000
0.2971000000000000 0.3182000000000000 0.4386000000000000
0.2971000000000000 0.3182000000000000 0.9386000000000000
0.2971000000000000 0.8181999999999999 0.4386000000000000
0.2971000000000000 0.8181999999999999 0.9386000000000000
0.7970999999999998 0.3182000000000000 0.4386000000000000
0.7970999999999998 0.3182000000000000 0.9386000000000000
0.7970999999999998 0.8181999999999999 0.4386000000000000
0.7970999999999998 0.8181999999999999 0.9386000000000000
0.3138000000000000 0.2762500000000000 0.4480500000000000
0.3137999999999999 0.2762499999999999 0.9480500000000002
0.3138000000000000 0.7762500000000000 0.4480500000000000
0.3137999999999999 0.7762500000000000 0.9480500000000002
0.8138000000000000 0.2762500000000000 0.4480500000000000
0.8138000000000000 0.2762499999999999 0.9480500000000002
0.8138000000000000 0.7762500000000000 0.4480500000000000
0.8138000000000000 0.7762500000000000 0.9480500000000002
0.2951350000000000 0.3413900000000000 0.0158400000000000
0.2951350000000000 0.3413900000000000 0.5158400000000000
0.2951350000000000 0.8413900000000001 0.0158400000000000
0.2951350000000000 0.8413900000000001 0.5158400000000000
0.7951349999999999 0.3413900000000000 0.0158400000000000
0.7951349999999999 0.3413900000000000 0.5158400000000000
0.7951349999999999 0.8413900000000001 0.0158400000000000
0.7951349999999999 0.8413900000000001 0.5158400000000000
0.2500000000000000 0.3750000000000000 0.0000000000000000
0.2500000000000000 0.3750000000000000 0.5000000000000000
0.2500000000000000 0.8750000000000000 0.0000000000000000
0.2500000000000000 0.8750000000000000 0.5000000000000000
0.7500000000000000 0.3750000000000000 0.0000000000000000
0.7500000000000000 0.3750000000000000 0.5000000000000000
0.7500000000000001 0.8750000000000000 0.0000000000000000
0.7500000000000001 0.8750000000000000 0.5000000000000000
0.3437500000000000 0.3157450000000000 0.0504300000000000
0.3437500000000000 0.3157450000000000 0.5504299999999999
0.3437500000000000 0.8157449999999999 0.0504300000000000
0.3437500000000000 0.8157449999999999 0.5504299999999999
0.8437500000000000 0.3157450000000000 0.0504300000000000
0.8437500000000000 0.3157450000000000 0.5504299999999999
0.8437500000000000 0.8157449999999999 0.0504300000000000
0.8437500000000000 0.8157449999999999 0.5504299999999999
0.3617000000000000 0.3111500000000000 0.0705500000000000
0.3617000000000000 0.3111500000000000 0.5705500000000000
0.3617000000000000 0.8111500000000000 0.0705500000000000
0.3617000000000000 0.8111500000000000 0.5705500000000000
0.8617000000000000 0.3111500000000000 0.0705500000000000
0.8617000000000000 0.3111500000000000 0.5705500000000000
0.8617000000000000 0.8111500000000000 0.0705500000000000
0.8617000000000000 0.8111500000000000 0.5705500000000000
0.3413900000000000 0.2951350000000000 0.0158400000000000
0.3413900000000000 0.2951350000000000 0.5158400000000000
0.3413900000000000 0.7951349999999999 0.0158400000000000
0.3413900000000000 0.7951349999999999 0.5158400000000000
0.8413900000000001 0.2951350000000000 0.0158400000000000
0.8413900000000001 0.2951350000000000 0.5158400000000000
0.8413900000000001 0.7951349999999999 0.0158400000000000
0.8413900000000001 0.7951349999999999 0.5158400000000000
0.3157450000000001 0.1562500000000000 0.4495700000000000
0.3157450000000000 0.1562500000000000 0.9495699999999999
0.3157450000000001 0.6562500000000000 0.4495700000000000
0.3157450000000000 0.6562499999999999 0.9495699999999999
0.8157449999999999 0.1562500000000000 0.4495700000000000
0.8157449999999999 0.1562500000000000 0.9495699999999999
0.8157449999999999 0.6562500000000000 0.4495700000000000
0.8157449999999999 0.6562499999999999 0.9495699999999999
0.3111500000000000 0.1383000000000000 0.4294500000000000
0.3111500000000000 0.1383000000000000 0.9294499999999999
0.3111500000000000 0.6383000000000000 0.4294500000000000
0.3111500000000000 0.6383000000000000 0.9294499999999999
0.8111500000000000 0.1383000000000000 0.4294500000000000
0.8111500000000000 0.1383000000000000 0.9294499999999999
0.8111500000000000 0.6383000000000000 0.4294500000000000
0.8111500000000000 0.6383000000000000 0.9294499999999999
0.2706499999999998 0.2128500000000000 0.0399000000000000
0.2706499999999998 0.2128500000000000 0.5399000000000000
0.2706499999999998 0.7128500000000000 0.0399000000000000
0.2706499999999998 0.7128500000000000 0.5399000000000000
0.7706499999999998 0.2128500000000000 0.0399000000000000
0.7706499999999998 0.2128500000000000 0.5399000000000000
0.7706499999999998 0.7128500000000000 0.0399000000000000
0.7706499999999998 0.7128500000000000 0.5399000000000000
0.2971000000000000 0.1818000000000000 0.0614000000000000
0.2971000000000000 0.1818000000000000 0.5614000000000000
0.2971000000000000 0.6818000000000000 0.0614000000000000
0.2971000000000000 0.6818000000000000 0.5614000000000000
0.7970999999999998 0.1818000000000000 0.0614000000000000
0.7970999999999998 0.1818000000000000 0.5614000000000000
0.7970999999999998 0.6818000000000000 0.0614000000000000
0.7970999999999998 0.6818000000000000 0.5614000000000000
0.3138000000000000 0.2237499999999999 0.0519500000000000
0.3137999999999999 0.2237499999999999 0.5519499999999999
0.3137999999999999 0.7237499999999998 0.0519500000000000
0.3137999999999999 0.7237499999999998 0.5519499999999999
0.8138000000000000 0.2237499999999999 0.0519500000000000
0.8138000000000000 0.2237499999999999 0.5519499999999999
0.8138000000000000 0.7237499999999998 0.0519500000000000
0.8138000000000000 0.7237499999999998 0.5519499999999999
0.2951350000000000 0.1586100000000000 0.4841600000000000
0.2951350000000000 0.1586100000000000 0.9841599999999999
0.2951350000000000 0.6586100000000000 0.4841600000000000
0.2951350000000000 0.6586100000000000 0.9841599999999999
0.7951349999999999 0.1586100000000000 0.4841600000000000
0.7951349999999999 0.1586100000000000 0.9841599999999999
0.7951349999999999 0.6586100000000000 0.4841600000000000
0.7951349999999999 0.6586100000000000 0.9841599999999999
0.1562500000000000 0.1842550000000000 0.0504300000000000
0.1562500000000000 0.1842550000000000 0.5504299999999999
0.1562500000000000 0.6842550000000001 0.0504300000000000
0.1562500000000000 0.6842550000000001 0.5504299999999999
0.6562500000000000 0.1842550000000000 0.0504300000000000
0.6562500000000000 0.1842550000000000 0.5504299999999999
0.6562500000000000 0.6842550000000001 0.0504300000000000
0.6562500000000000 0.6842550000000001 0.5504299999999999
0.1383000000000000 0.1888500000000000 0.0705500000000000
0.1383000000000000 0.1888500000000000 0.5705500000000000
0.1383000000000000 0.6888500000000000 0.0705500000000000
0.1383000000000000 0.6888500000000000 0.5705500000000000
0.6383000000000000 0.1888500000000000 0.0705500000000000
0.6383000000000000 0.1888500000000000 0.5705500000000000
0.6383000000000000 0.6888500000000000 0.0705500000000000
0.6383000000000000 0.6888500000000000 0.5705500000000000
0.1586100000000000 0.2048650000000000 0.0158400000000000
0.1586100000000000 0.2048650000000000 0.5158400000000000
0.1586100000000000 0.7048650000000000 0.0158400000000000
0.1586100000000000 0.7048650000000000 0.5158400000000000
0.6586100000000000 0.2048650000000000 0.0158400000000000
0.6586100000000000 0.2048650000000000 0.5158400000000000
0.6586100000000000 0.7048650000000000 0.0158400000000000
0.6586100000000000 0.7048650000000000 0.5158400000000000
0.1842550000000000 0.3437500000000001 0.4495700000000000
0.1842550000000000 0.3437500000000000 0.9495699999999999
0.1842550000000000 0.8437500000000000 0.4495700000000000
0.1842550000000000 0.8437500000000000 0.9495699999999999
0.6842550000000001 0.3437500000000001 0.4495700000000000
0.6842550000000001 0.3437500000000000 0.9495699999999999
0.6842550000000001 0.8437500000000000 0.4495700000000000
0.6842550000000001 0.8437500000000000 0.9495699999999999
0.1888500000000000 0.3617000000000001 0.4294500000000000
0.1888500000000000 0.3617000000000000 0.9294499999999999
0.1888500000000000 0.8617000000000000 0.4294500000000000
0.1888500000000000 0.8617000000000000 0.9294499999999999
0.6888500000000000 0.3617000000000001 0.4294500000000000
0.6888500000000000 0.3617000000000000 0.9294499999999999
0.6888500000000001 0.8617000000000000 0.4294500000000000
0.6888500000000000 0.8617000000000000 0.9294499999999999
0.2048650000000000 0.3413900000000000 0.4841600000000000
0.2048650000000000 0.3413900000000000 0.9841599999999999
0.2048650000000000 0.8413900000000001 0.4841600000000000
0.2048650000000000 0.8413900000000001 0.9841599999999999
0.7048650000000000 0.3413900000000000 0.4841600000000000
0.7048650000000000 0.3413900000000000 0.9841599999999999
0.7048650000000000 0.8413900000000001 0.4841600000000000
0.7048650000000000 0.8413900000000001 0.9841599999999999
0.4495700000000000 0.3437500000000000 0.1842550000000000
0.4495700000000000 0.3437500000000000 0.6842550000000001
0.4495700000000000 0.8437500000000000 0.1842550000000000
0.4495700000000000 0.8437500000000000 0.6842550000000001
0.9495699999999999 0.3437500000000000 0.1842550000000000
0.9495699999999999 0.3437500000000000 0.6842550000000001
0.9495699999999999 0.8437500000000000 0.1842550000000000
0.9495699999999999 0.8437500000000000 0.6842550000000001
0.4294500000000000 0.3617000000000000 0.1888500000000000
0.4294500000000000 0.3617000000000000 0.6888500000000000
0.4294500000000000 0.8617000000000000 0.1888500000000000
0.4294500000000000 0.8617000000000000 0.6888500000000000
0.9294499999999999 0.3617000000000000 0.1888500000000000
0.9294499999999999 0.3617000000000000 0.6888500000000000
0.9294500000000000 0.8617000000000000 0.1888500000000000
0.9294500000000000 0.8617000000000000 0.6888500000000000
0.4841600000000000 0.3413900000000000 0.2048650000000000
0.4841599999999999 0.3413900000000000 0.7048650000000000
0.4841599999999999 0.8413900000000001 0.2048650000000000
0.4841599999999999 0.8413900000000001 0.7048650000000000
0.9841599999999999 0.3413900000000000 0.2048650000000000
0.9841599999999999 0.3413900000000000 0.7048650000000000
0.9841599999999999 0.8413900000000001 0.2048650000000000
0.9841599999999999 0.8413900000000001 0.7048650000000000
0.0000000000000000 0.3750000000000000 0.2500000000000000
0.0000000000000000 0.3750000000000000 0.7500000000000000
0.0000000000000000 0.8750000000000000 0.2500000000000000
0.0000000000000000 0.8750000000000000 0.7500000000000000
0.5000000000000000 0.3750000000000000 0.2500000000000000
0.4999999999999999 0.3750000000000000 0.7500000000000000
0.5000000000000001 0.8750000000000000 0.2500000000000000
0.5000000000000001 0.8750000000000000 0.7500000000000000
0.4495700000000000 0.1562500000000000 0.3157450000000000
0.4495700000000000 0.1562500000000000 0.8157449999999999
0.4495700000000000 0.6562500000000000 0.3157450000000000
0.4495700000000000 0.6562500000000000 0.8157449999999999
0.9495699999999999 0.1562500000000000 0.3157450000000000
0.9495699999999999 0.1562500000000000 0.8157449999999999
0.9495699999999999 0.6562500000000000 0.3157450000000000
0.9495699999999999 0.6562500000000000 0.8157449999999999
0.4294500000000000 0.1383000000000000 0.3111500000000000
0.4294500000000000 0.1383000000000000 0.8111500000000000
0.4294500000000000 0.6383000000000000 0.3111500000000000
0.4294500000000000 0.6383000000000000 0.8111500000000000
0.9294499999999999 0.1383000000000000 0.3111500000000000
0.9294499999999999 0.1383000000000000 0.8111500000000000
0.9294499999999999 0.6383000000000000 0.3111500000000000
0.9294499999999999 0.6383000000000000 0.8111500000000000
0.4841600000000000 0.1586100000000000 0.2951350000000000
0.4841599999999999 0.1586100000000000 0.7951349999999999
0.4841599999999999 0.6586100000000000 0.2951350000000000
0.4841599999999999 0.6586100000000000 0.7951349999999999
0.9841599999999999 0.1586100000000000 0.2951350000000000
0.9841599999999999 0.1586100000000000 0.7951349999999999
0.9841599999999999 0.6586100000000000 0.2951350000000000
0.9841599999999999 0.6586100000000000 0.7951349999999999
0.0000000000000000 0.1250000000000000 0.2500000000000000
0.0000000000000000 0.1250000000000000 0.7500000000000000
0.0000000000000000 0.6250000000000000 0.2500000000000000
0.0000000000000000 0.6250000000000000 0.7500000000000000
0.5000000000000000 0.1250000000000000 0.2500000000000000
0.4999999999999999 0.1250000000000000 0.7500000000000000
0.4999999999999999 0.6250000000000000 0.2500000000000000
0.4999999999999999 0.6250000000000000 0.7500000000000000
0.1562500000000000 0.0504300000000000 0.1842550000000000
0.1562500000000000 0.0504300000000000 0.6842550000000001
0.1562500000000000 0.5504299999999999 0.1842550000000000
0.1562500000000000 0.5504299999999999 0.6842550000000001
0.6562500000000000 0.0504300000000000 0.1842550000000000
0.6562500000000000 0.0504300000000000 0.6842550000000001
0.6562500000000000 0.5504299999999999 0.1842550000000000
0.6562500000000000 0.5504299999999999 0.6842550000000001
0.1383000000000000 0.0705500000000000 0.1888500000000000
0.1383000000000000 0.0705500000000000 0.6888500000000000
0.1383000000000000 0.5705500000000000 0.1888500000000000
0.1383000000000000 0.5705500000000000 0.6888500000000000
0.6383000000000000 0.0705500000000000 0.1888500000000000
0.6383000000000000 0.0705500000000000 0.6888500000000000
0.6383000000000000 0.5705500000000000 0.1888500000000000
0.6383000000000000 0.5705500000000000 0.6888500000000000
0.1586100000000000 0.0158400000000000 0.2048650000000000
0.1586100000000000 0.0158400000000000 0.7048650000000000
0.1586100000000000 0.5158400000000000 0.2048650000000000
0.1586100000000000 0.5158400000000000 0.7048650000000000
0.6586100000000000 0.0158400000000000 0.2048650000000000
0.6586100000000000 0.0158400000000000 0.7048650000000000
0.6586100000000000 0.5158400000000000 0.2048650000000000
0.6586100000000000 0.5158400000000000 0.7048650000000000
0.1250000000000000 0.0000000000000000 0.2500000000000000
0.1250000000000000 0.0000000000000000 0.7500000000000000
0.1250000000000000 0.5000000000000000 0.2500000000000000
0.1250000000000000 0.4999999999999999 0.7500000000000000
0.6250000000000000 0.0000000000000000 0.2500000000000000
0.6250000000000000 0.0000000000000000 0.7500000000000000
0.6250000000000000 0.5000000000000000 0.2500000000000000
0.6250000000000000 0.4999999999999999 0.7500000000000000
0.0504300000000000 0.3437500000000000 0.3157450000000000
0.0504300000000000 0.3437500000000000 0.8157449999999999
0.0504300000000000 0.8437500000000000 0.3157450000000000
0.0504300000000000 0.8437500000000000 0.8157449999999999
0.5504299999999999 0.3437500000000000 0.3157450000000000
0.5504299999999999 0.3437500000000000 0.8157449999999999
0.5504299999999999 0.8437500000000000 0.3157450000000000
0.5504299999999999 0.8437500000000000 0.8157449999999999
0.0705500000000000 0.3617000000000000 0.3111500000000000
0.0705500000000000 0.3617000000000000 0.8111500000000000
0.0705500000000000 0.8617000000000000 0.3111500000000000
0.0705500000000000 0.8617000000000000 0.8111500000000000
0.5705500000000000 0.3617000000000000 0.3111500000000000
0.5705500000000000 0.3617000000000000 0.8111500000000000
0.5705500000000001 0.8617000000000000 0.3111500000000000
0.5705500000000001 0.8617000000000000 0.8111500000000000
0.0158400000000000 0.3413900000000000 0.2951350000000000
0.0158400000000000 0.3413900000000000 0.7951349999999999
0.0158400000000000 0.8413900000000001 0.2951350000000000
0.0158400000000000 0.8413900000000001 0.7951349999999999
0.5158400000000000 0.3413900000000000 0.2951350000000000
0.5158400000000000 0.3413900000000000 0.7951349999999999
0.5158400000000000 0.8413900000000001 0.2951350000000000
0.5158400000000000 0.8413900000000001 0.7951349999999999
0.3437500000000001 0.4495700000000000 0.1842550000000000
0.3437500000000001 0.4495700000000000 0.6842550000000001
0.3437500000000000 0.9495699999999999 0.1842550000000000
0.3437500000000000 0.9495699999999999 0.6842550000000001
0.8437500000000000 0.4495700000000000 0.1842550000000000
0.8437500000000000 0.4495700000000000 0.6842550000000001
0.8437500000000000 0.9495699999999999 0.1842550000000000
0.8437500000000000 0.9495699999999999 0.6842550000000001
0.3617000000000001 0.4294500000000000 0.1888500000000000
0.3617000000000000 0.4294500000000000 0.6888500000000000
0.3617000000000000 0.9294499999999999 0.1888500000000000
0.3617000000000000 0.9294499999999999 0.6888500000000000
0.8617000000000000 0.4294500000000000 0.1888500000000000
0.8617000000000000 0.4294500000000000 0.6888500000000000
0.8617000000000000 0.9294499999999999 0.1888500000000000
0.8617000000000000 0.9294499999999999 0.6888500000000000
0.3413900000000000 0.4841600000000000 0.2048650000000000
0.3413900000000000 0.4841599999999999 0.7048650000000000
0.3413900000000000 0.9841599999999999 0.2048650000000000
0.3413900000000000 0.9841599999999999 0.7048650000000000
0.8413900000000001 0.4841600000000000 0.2048650000000000
0.8413900000000001 0.4841599999999999 0.7048650000000000
0.8413900000000001 0.9841599999999999 0.2048650000000000
0.8413900000000001 0.9841599999999999 0.7048650000000000
0.3750000000000000 0.0000000000000000 0.2500000000000000
0.3750000000000000 0.0000000000000000 0.7500000000000000
0.3750000000000000 0.5000000000000000 0.2500000000000000
0.3750000000000000 0.4999999999999999 0.7500000000000000
0.8750000000000000 0.0000000000000000 0.2500000000000000
0.8750000000000000 0.0000000000000000 0.7500000000000000
0.8750000000000000 0.5000000000000000 0.2500000000000000
0.8750000000000000 0.4999999999999999 0.7500000000000000
0.0504300000000000 0.1562500000000000 0.1842550000000000
0.0504300000000000 0.1562500000000000 0.6842550000000001
0.0504300000000000 0.6562500000000000 0.1842550000000000
0.0504300000000000 0.6562500000000000 0.6842550000000001
0.5504299999999999 0.1562500000000000 0.1842550000000000
0.5504299999999999 0.1562500000000000 0.6842550000000001
0.5504299999999999 0.6562500000000000 0.1842550000000000
0.5504299999999999 0.6562500000000000 0.6842550000000001
0.0705500000000000 0.1383000000000000 0.1888500000000000
0.0705500000000000 0.1383000000000000 0.6888500000000000
0.0705500000000000 0.6383000000000000 0.1888500000000000
0.0705500000000000 0.6383000000000000 0.6888500000000000
0.5705500000000000 0.1383000000000000 0.1888500000000000
0.5705500000000000 0.1383000000000000 0.6888500000000000
0.5705500000000000 0.6383000000000000 0.1888500000000000
0.5705500000000000 0.6383000000000000 0.6888500000000000
0.0158400000000000 0.1586100000000000 0.2048650000000000
0.0158400000000000 0.1586100000000000 0.7048650000000000
0.0158400000000000 0.6586100000000000 0.2048650000000000
0.0158400000000000 0.6586100000000000 0.7048650000000000
0.5158400000000000 0.1586100000000000 0.2048650000000000
0.5158400000000000 0.1586100000000000 0.7048650000000000
0.5158400000000000 0.6586100000000000 0.2048650000000000
0.5158400000000000 0.6586100000000000 0.7048650000000000
0.1562500000000000 0.4495700000000000 0.3157450000000000
0.1562500000000000 0.4495700000000000 0.8157449999999999
0.1562500000000000 0.9495699999999999 0.3157450000000000
0.1562500000000000 0.9495699999999999 0.8157449999999999
0.6562500000000000 0.4495700000000000 0.3157450000000000
0.6562500000000000 0.4495700000000000 0.8157449999999999
0.6562499999999999 0.9495699999999999 0.3157450000000000
0.6562499999999999 0.9495699999999999 0.8157449999999999
0.1383000000000000 0.4294500000000000 0.3111500000000000
0.1383000000000000 0.4294500000000000 0.8111500000000000
0.1383000000000000 0.9294499999999999 0.3111500000000000
0.1383000000000000 0.9294499999999999 0.8111500000000000
0.6383000000000000 0.4294500000000000 0.3111500000000000
0.6383000000000000 0.4294500000000000 0.8111500000000000
0.6383000000000000 0.9294499999999999 0.3111500000000000
0.6383000000000000 0.9294499999999999 0.8111500000000000
0.2128500000000000 0.0399000000000000 0.2706499999999998
0.2128500000000000 0.0399000000000000 0.7706499999999998
0.2128500000000000 0.5399000000000000 0.2706499999999998
0.2128500000000000 0.5399000000000000 0.7706499999999998
0.7128500000000000 0.0399000000000000 0.2706499999999998
0.7128500000000000 0.0399000000000000 0.7706499999999998
0.7128500000000000 0.5399000000000000 0.2706499999999998
0.7128500000000000 0.5399000000000000 0.7706499999999998
0.1818000000000000 0.0614000000000000 0.2971000000000000
0.1818000000000000 0.0614000000000000 0.7970999999999998
0.1818000000000000 0.5614000000000000 0.2971000000000000
0.1818000000000000 0.5614000000000000 0.7970999999999998
0.6818000000000000 0.0614000000000000 0.2971000000000000
0.6818000000000000 0.0614000000000000 0.7970999999999998
0.6818000000000000 0.5614000000000000 0.2971000000000000
0.6818000000000000 0.5614000000000000 0.7970999999999998
0.2237499999999999 0.0519500000000000 0.3138000000000000
0.2237499999999999 0.0519500000000000 0.8138000000000000
0.2237499999999999 0.5519499999999999 0.3138000000000000
0.2237499999999999 0.5519499999999999 0.8138000000000000
0.7237499999999998 0.0519500000000000 0.3138000000000000
0.7237499999999998 0.0519500000000000 0.8138000000000000
0.7237499999999998 0.5519499999999999 0.3138000000000000
0.7237499999999998 0.5519499999999999 0.8138000000000000
0.1586100000000000 0.4841600000000000 0.2951350000000000
0.1586100000000000 0.4841599999999999 0.7951349999999999
0.1586100000000000 0.9841599999999999 0.2951350000000000
0.1586100000000000 0.9841599999999999 0.7951349999999999
0.6586100000000000 0.4841600000000000 0.2951350000000000
0.6586100000000000 0.4841599999999999 0.7951349999999999
0.6586100000000000 0.9841599999999999 0.2951350000000000
0.6586100000000000 0.9841599999999999 0.7951349999999999
0.3437500000000000 0.0504300000000000 0.3157450000000000
0.3437500000000000 0.0504300000000000 0.8157449999999999
0.3437500000000000 0.5504299999999999 0.3157450000000000
0.3437500000000000 0.5504299999999999 0.8157449999999999
0.8437500000000000 0.0504300000000000 0.3157450000000000
0.8437500000000000 0.0504300000000000 0.8157449999999999
0.8437500000000000 0.5504299999999999 0.3157450000000000
0.8437500000000000 0.5504299999999999 0.8157449999999999
0.3617000000000000 0.0705500000000000 0.3111500000000000
0.3617000000000000 0.0705500000000000 0.8111500000000000
0.3617000000000000 0.5705500000000000 0.3111500000000000
0.3617000000000000 0.5705500000000000 0.8111500000000000
0.8617000000000000 0.0705500000000000 0.3111500000000000
0.8617000000000000 0.0705500000000000 0.8111500000000000
0.8617000000000000 0.5705500000000000 0.3111500000000000
0.8617000000000000 0.5705500000000000 0.8111500000000000
0.3413900000000000 0.0158400000000000 0.2951350000000000
0.3413900000000000 0.0158400000000000 0.7951349999999999
0.3413900000000000 0.5158400000000000 0.2951350000000000
0.3413900000000000 0.5158400000000000 0.7951349999999999
0.8413900000000001 0.0158400000000000 0.2951350000000000
0.8413900000000001 0.0158400000000000 0.7951349999999999
0.8413900000000001 0.5158400000000000 0.2951350000000000
0.8413900000000001 0.5158400000000000 0.7951349999999999
0.4385250000000000 0.2539500000000000 0.0614750000000000
0.4385250000000000 0.2539500000000000 0.5614749999999999
0.4385250000000000 0.7539500000000000 0.0614750000000000
0.4385250000000000 0.7539500000000000 0.5614749999999999
0.9385250000000001 0.2539500000000000 0.0614750000000000
0.9385250000000001 0.2539500000000000 0.5614749999999999
0.9385250000000001 0.7539500000000000 0.0614750000000000
0.9385250000000001 0.7539500000000000 0.5614749999999999
0.4342550000000000 0.1995700000000000 0.0937500000000000
0.4342550000000000 0.1995699999999999 0.5937500000000000
0.4342550000000000 0.6995700000000000 0.0937500000000000
0.4342550000000000 0.6995700000000000 0.5937500000000000
0.9342550000000001 0.1995700000000000 0.0937500000000000
0.9342550000000001 0.1995699999999999 0.5937500000000000
0.9342550000000001 0.6995700000000000 0.0937500000000000
0.9342550000000001 0.6995700000000000 0.5937500000000000
0.4388499999999999 0.1794500000000000 0.1117000000000000
0.4388499999999999 0.1794500000000000 0.6117000000000000
0.4388499999999999 0.6794499999999999 0.1117000000000000
0.4388499999999999 0.6794499999999999 0.6117000000000000
0.9388500000000000 0.1794500000000000 0.1117000000000000
0.9388500000000000 0.1794500000000000 0.6117000000000000
0.9388500000000000 0.6794499999999999 0.1117000000000000
0.9388500000000000 0.6794499999999999 0.6117000000000000
0.4548650000000000 0.2341600000000000 0.0913900000000000
0.4548649999999999 0.2341600000000000 0.5913900000000000
0.4548649999999999 0.7341600000000000 0.0913900000000000
0.4548649999999999 0.7341600000000000 0.5913900000000000
0.9548650000000001 0.2341600000000000 0.0913900000000000
0.9548650000000001 0.2341600000000000 0.5913900000000000
0.9548650000000001 0.7341600000000000 0.0913900000000000
0.9548650000000001 0.7341600000000000 0.5913900000000000
0.2539500000000001 0.0614750000000000 0.4385250000000000
0.2539500000000000 0.0614750000000000 0.9385250000000001
0.2539500000000001 0.5614749999999999 0.4385250000000000
0.2539500000000000 0.5614749999999999 0.9385250000000001
0.7539500000000000 0.0614750000000000 0.4385250000000000
0.7539500000000000 0.0614750000000000 0.9385250000000001
0.7539500000000000 0.5614749999999999 0.4385250000000000
0.7539500000000000 0.5614749999999999 0.9385250000000001
0.1995699999999999 0.0657450000000000 0.4062499999999998
0.1995699999999999 0.0657450000000000 0.9062499999999999
0.1995699999999999 0.5657449999999999 0.4062499999999998
0.1995699999999999 0.5657450000000001 0.9062499999999999
0.6995700000000000 0.0657450000000000 0.4062499999999998
0.6995700000000001 0.0657450000000000 0.9062499999999999
0.6995700000000000 0.5657449999999999 0.4062499999999998
0.6995700000000001 0.5657450000000001 0.9062499999999999
0.1794500000000000 0.0611500000000000 0.3883000000000000
0.1794500000000000 0.0611500000000000 0.8883000000000000
0.1794500000000000 0.5611500000000000 0.3883000000000000
0.1794500000000000 0.5611500000000001 0.8883000000000000
0.6794499999999999 0.0611500000000000 0.3883000000000000
0.6794500000000000 0.0611500000000000 0.8883000000000000
0.6794499999999999 0.5611500000000000 0.3883000000000000
0.6794500000000000 0.5611500000000001 0.8883000000000000
0.2341600000000000 0.0451350000000000 0.4086100000000000
0.2341600000000000 0.0451350000000000 0.9086099999999999
0.2341600000000000 0.5451350000000000 0.4086100000000000
0.2341600000000000 0.5451350000000000 0.9086099999999999
0.7341600000000000 0.0451350000000000 0.4086100000000000
0.7341600000000000 0.0451350000000000 0.9086099999999999
0.7341600000000000 0.5451350000000000 0.4086100000000000
0.7341600000000000 0.5451350000000000 0.9086099999999999
0.0614750000000000 0.2460500000000000 0.0614750000000000
0.0614750000000000 0.2460500000000000 0.5614749999999999
0.0614750000000000 0.7460500000000000 0.0614750000000000
0.0614750000000000 0.7460500000000000 0.5614749999999999
0.5614749999999999 0.2460500000000000 0.0614750000000000
0.5614749999999999 0.2460500000000000 0.5614749999999999
0.5614749999999999 0.7460500000000000 0.0614750000000000
0.5614749999999999 0.7460500000000000 0.5614749999999999
0.0657450000000000 0.3004300000000000 0.0937500000000000
0.0657450000000000 0.3004300000000000 0.5937500000000000
0.0657450000000000 0.8004299999999999 0.0937500000000000
0.0657450000000000 0.8004299999999999 0.5937500000000000
0.5657449999999999 0.3004300000000000 0.0937500000000000
0.5657449999999999 0.3004300000000000 0.5937500000000000
0.5657449999999999 0.8004299999999999 0.0937500000000000
0.5657449999999999 0.8004299999999999 0.5937500000000000
0.0611500000000000 0.3205499999999999 0.1117000000000000
0.0611500000000000 0.3205499999999999 0.6117000000000000
0.0611500000000000 0.8205499999999999 0.1117000000000000
0.0611500000000000 0.8205499999999999 0.6117000000000000
0.5611500000000000 0.3205499999999999 0.1117000000000000
0.5611500000000000 0.3205499999999999 0.6117000000000000
0.5611500000000000 0.8205499999999999 0.1117000000000000
0.5611500000000000 0.8205499999999999 0.6117000000000000
0.0451350000000000 0.2658400000000000 0.0913900000000000
0.0451350000000000 0.2658400000000000 0.5913900000000000
0.0451350000000000 0.7658400000000001 0.0913900000000000
0.0451350000000000 0.7658400000000001 0.5913900000000000
0.5451350000000000 0.2658400000000000 0.0913900000000000
0.5451350000000000 0.2658400000000000 0.5913900000000000
0.5451350000000000 0.7658400000000001 0.0913900000000000
0.5451350000000000 0.7658400000000001 0.5913900000000000
0.2460500000000000 0.4385250000000001 0.4385250000000000
0.2460500000000000 0.4385250000000000 0.9385250000000001
0.2460500000000000 0.9385250000000001 0.4385250000000000
0.2460500000000000 0.9385250000000001 0.9385250000000001
0.7460500000000000 0.4385250000000001 0.4385250000000000
0.7460500000000000 0.4385250000000000 0.9385250000000001
0.7460500000000000 0.9385250000000001 0.4385250000000000
0.7460500000000000 0.9385250000000001 0.9385250000000001
0.3004300000000000 0.4342550000000000 0.4062499999999998
0.3004300000000000 0.4342550000000000 0.9062499999999999
0.3004300000000000 0.9342550000000001 0.4062499999999998
0.3004300000000000 0.9342550000000002 0.9062499999999999
0.8004299999999999 0.4342550000000000 0.4062499999999998
0.8004300000000000 0.4342550000000000 0.9062499999999999
0.8004299999999999 0.9342550000000001 0.4062499999999998
0.8004300000000000 0.9342550000000002 0.9062499999999999
0.3205499999999999 0.4388499999999999 0.3883000000000000
0.3205499999999999 0.4388499999999999 0.8883000000000000
0.3205499999999999 0.9388500000000000 0.3883000000000000
0.3205499999999999 0.9388500000000000 0.8883000000000000
0.8205499999999999 0.4388499999999999 0.3883000000000000
0.8205500000000000 0.4388499999999999 0.8883000000000000
0.8205499999999999 0.9388500000000000 0.3883000000000000
0.8205500000000000 0.9388500000000000 0.8883000000000000
0.2072500000000000 0.4530500000000000 0.4530500000000000
0.2072500000000000 0.4530500000000000 0.9530500000000000
0.2072500000000000 0.9530500000000000 0.4530500000000000
0.2072500000000000 0.9530499999999998 0.9530500000000000
0.7072499999999999 0.4530500000000000 0.4530500000000000
0.7072499999999999 0.4530500000000000 0.9530500000000000
0.7072499999999999 0.9530500000000000 0.4530500000000000
0.7072499999999999 0.9530499999999998 0.9530500000000000
0.2101000000000000 0.4793499999999999 0.4628499999999998
0.2101000000000000 0.4793500000000001 0.9628499999999999
0.2101000000000000 0.9793499999999999 0.4628499999999998
0.2101000000000000 0.9793499999999998 0.9628499999999999
0.7101000000000000 0.4793499999999999 0.4628499999999998
0.7101000000000000 0.4793500000000001 0.9628499999999999
0.7101000000000000 0.9793499999999999 0.4628499999999998
0.7100999999999998 0.9793499999999998 0.9628499999999999
0.1886000000000000 0.4529000000000001 0.4318000000000000
0.1886000000000000 0.4529000000000000 0.9318000000000000
0.1886000000000000 0.9529000000000001 0.4318000000000000
0.1886000000000000 0.9529000000000000 0.9318000000000000
0.6886000000000000 0.4529000000000001 0.4318000000000000
0.6886000000000000 0.4529000000000000 0.9318000000000000
0.6886000000000000 0.9529000000000001 0.4318000000000000
0.6886000000000000 0.9529000000000000 0.9318000000000000
0.1980500000000000 0.4362000000000000 0.4737499999999999
0.1980500000000000 0.4362000000000000 0.9737499999999998
0.1980500000000000 0.9361999999999999 0.4737499999999999
0.1980500000000000 0.9361999999999999 0.9737499999999998
0.6980500000000001 0.4362000000000000 0.4737499999999999
0.6980500000000001 0.4362000000000000 0.9737499999999998
0.6980500000000001 0.9361999999999999 0.4737499999999999
0.6980500000000001 0.9361999999999999 0.9737499999999998
0.2658400000000000 0.4548650000000000 0.4086100000000000
0.2658400000000000 0.4548649999999999 0.9086099999999999
0.2658400000000000 0.9548650000000001 0.4086100000000000
0.2658400000000000 0.9548650000000000 0.9086099999999999
0.7658400000000001 0.4548650000000000 0.4086100000000000
0.7658400000000001 0.4548649999999999 0.9086099999999999
0.7658400000000001 0.9548650000000001 0.4086100000000000
0.7658400000000001 0.9548650000000000 0.9086099999999999
0.4385250000000001 0.2460500000000000 0.4385250000000000
0.4385250000000000 0.2460500000000000 0.9385250000000001
0.4385250000000001 0.7460500000000000 0.4385250000000000
0.4385250000000000 0.7460500000000000 0.9385250000000001
0.9385250000000001 0.2460500000000000 0.4385250000000000
0.9385250000000001 0.2460500000000000 0.9385250000000001
0.9385250000000001 0.7460500000000000 0.4385250000000000
0.9385250000000001 0.7460500000000000 0.9385250000000001
0.4342550000000000 0.3004300000000000 0.4062499999999998
0.4342550000000000 0.3004300000000000 0.9062499999999999
0.4342550000000000 0.8004299999999999 0.4062499999999998
0.4342550000000000 0.8004300000000000 0.9062499999999999
0.9342550000000001 0.3004300000000000 0.4062499999999998
0.9342550000000002 0.3004300000000000 0.9062499999999999
0.9342550000000001 0.8004299999999999 0.4062499999999998
0.9342550000000002 0.8004300000000000 0.9062499999999999
0.4388499999999999 0.3205499999999999 0.3883000000000000
0.4388499999999999 0.3205499999999999 0.8883000000000000
0.4388499999999999 0.8205499999999999 0.3883000000000000
0.4388499999999999 0.8205500000000000 0.8883000000000000
0.9388500000000000 0.3205499999999999 0.3883000000000000
0.9388500000000000 0.3205499999999999 0.8883000000000000
0.9388500000000000 0.8205499999999999 0.3883000000000000
0.9388500000000000 0.8205500000000000 0.8883000000000000
0.4530500000000000 0.2072500000000000 0.4530500000000000
0.4530500000000000 0.2072500000000000 0.9530500000000000
0.4530500000000000 0.7072499999999999 0.4530500000000000
0.4530500000000000 0.7072499999999999 0.9530500000000000
0.9530500000000000 0.2072500000000000 0.4530500000000000
0.9530499999999998 0.2072500000000000 0.9530500000000000
0.9530500000000000 0.7072499999999999 0.4530500000000000
0.9530499999999998 0.7072499999999999 0.9530500000000000
0.4793499999999999 0.2101000000000000 0.4628499999999998
0.4793500000000001 0.2101000000000000 0.9628499999999999
0.4793499999999999 0.7101000000000000 0.4628499999999998
0.4793500000000000 0.7101000000000000 0.9628499999999999
0.9793499999999999 0.2101000000000000 0.4628499999999998
0.9793499999999998 0.2101000000000000 0.9628499999999999
0.9793499999999999 0.7101000000000000 0.4628499999999998
0.9793499999999998 0.7101000000000000 0.9628499999999999
0.4529000000000001 0.1886000000000000 0.4318000000000000
0.4529000000000000 0.1886000000000000 0.9318000000000000
0.4529000000000001 0.6886000000000000 0.4318000000000000
0.4529000000000000 0.6886000000000000 0.9318000000000000
0.9529000000000001 0.1886000000000000 0.4318000000000000
0.9529000000000000 0.1886000000000000 0.9318000000000000
0.9529000000000001 0.6886000000000000 0.4318000000000000
0.9529000000000000 0.6886000000000000 0.9318000000000000
0.4362000000000000 0.1980500000000000 0.4737499999999999
0.4362000000000000 0.1980500000000000 0.9737499999999998
0.4362000000000000 0.6980500000000001 0.4737499999999999
0.4362000000000000 0.6980500000000001 0.9737499999999998
0.9361999999999999 0.1980500000000000 0.4737499999999999
0.9361999999999999 0.1980500000000000 0.9737499999999998
0.9361999999999999 0.6980500000000001 0.4737499999999999
0.9361999999999999 0.6980500000000001 0.9737499999999998
0.4548650000000000 0.2658400000000000 0.4086100000000000
0.4548649999999999 0.2658400000000000 0.9086099999999999
0.4548649999999999 0.7658400000000001 0.4086100000000000
0.4548649999999999 0.7658400000000001 0.9086099999999999
0.9548650000000001 0.2658400000000000 0.4086100000000000
0.9548650000000000 0.2658400000000000 0.9086099999999999
0.9548650000000001 0.7658400000000001 0.4086100000000000
0.9548650000000000 0.7658400000000001 0.9086099999999999
0.2460500000000000 0.0614750000000000 0.0614750000000000
0.2460500000000000 0.0614750000000000 0.5614749999999999
0.2460500000000000 0.5614749999999999 0.0614750000000000
0.2460500000000000 0.5614749999999999 0.5614749999999999
0.7460500000000000 0.0614750000000000 0.0614750000000000
0.7460500000000000 0.0614750000000000 0.5614749999999999
0.7460500000000000 0.5614749999999999 0.0614750000000000
0.7460500000000000 0.5614749999999999 0.5614749999999999
0.3004300000000000 0.0657450000000000 0.0937500000000000
0.3004300000000000 0.0657450000000000 0.5937500000000000
0.3004300000000000 0.5657449999999999 0.0937500000000000
0.3004300000000000 0.5657449999999999 0.5937500000000000
0.8004299999999999 0.0657450000000000 0.0937500000000000
0.8004299999999999 0.0657450000000000 0.5937500000000000
0.8004299999999999 0.5657449999999999 0.0937500000000000
0.8004299999999999 0.5657449999999999 0.5937500000000000
0.3205499999999999 0.0611500000000000 0.1117000000000000
0.3205499999999999 0.0611500000000000 0.6117000000000000
0.3205499999999999 0.5611500000000000 0.1117000000000000
0.3205499999999999 0.5611500000000000 0.6117000000000000
0.8205499999999999 0.0611500000000000 0.1117000000000000
0.8205499999999999 0.0611500000000000 0.6117000000000000
0.8205499999999999 0.5611500000000000 0.1117000000000000
0.8205499999999999 0.5611500000000000 0.6117000000000000
0.2072500000000000 0.0469500000000000 0.0469500000000000
0.2072500000000000 0.0469500000000000 0.5469499999999999
0.2072500000000000 0.5469499999999999 0.0469500000000000
0.2072500000000000 0.5469499999999999 0.5469499999999999
0.7072499999999999 0.0469500000000000 0.0469500000000000
0.7072499999999999 0.0469500000000000 0.5469499999999999
0.7072499999999999 0.5469499999999999 0.0469500000000000
0.7072499999999999 0.5469499999999999 0.5469499999999999
0.2658400000000000 0.0451350000000000 0.0913900000000000
0.2658400000000000 0.0451350000000000 0.5913900000000000
0.2658400000000000 0.5451350000000000 0.0913900000000000
0.2658400000000000 0.5451350000000000 0.5913900000000000
0.7658400000000001 0.0451350000000000 0.0913900000000000
0.7658400000000001 0.0451350000000000 0.5913900000000000
0.7658400000000001 0.5451350000000000 0.0913900000000000
0.7658400000000001 0.5451350000000000 0.5913900000000000
0.0614750000000000 0.2539500000000001 0.4385250000000000
0.0614750000000000 0.2539500000000000 0.9385250000000001
0.0614750000000000 0.7539500000000000 0.4385250000000000
0.0614750000000000 0.7539500000000000 0.9385250000000001
0.5614749999999999 0.2539500000000001 0.4385250000000000
0.5614749999999999 0.2539500000000000 0.9385250000000001
0.5614749999999999 0.7539500000000000 0.4385250000000000
0.5614749999999999 0.7539500000000000 0.9385250000000001
0.0657450000000000 0.1995699999999999 0.4062499999999998
0.0657450000000000 0.1995699999999999 0.9062499999999999
0.0657450000000000 0.6995700000000000 0.4062499999999998
0.0657450000000000 0.6995700000000001 0.9062499999999999
0.5657449999999999 0.1995699999999999 0.4062499999999998
0.5657450000000001 0.1995699999999999 0.9062499999999999
0.5657449999999999 0.6995700000000000 0.4062499999999998
0.5657450000000001 0.6995700000000001 0.9062499999999999
0.0611500000000000 0.1794500000000000 0.3883000000000000
0.0611500000000000 0.1794500000000000 0.8883000000000000
0.0611500000000000 0.6794499999999999 0.3883000000000000
0.0611500000000000 0.6794500000000000 0.8883000000000000
0.5611500000000000 0.1794500000000000 0.3883000000000000
0.5611500000000001 0.1794500000000000 0.8883000000000000
0.5611500000000000 0.6794499999999999 0.3883000000000000
0.5611500000000001 0.6794500000000000 0.8883000000000000
0.0451350000000000 0.2341600000000000 0.4086100000000000
0.0451350000000000 0.2341600000000000 0.9086099999999999
0.0451350000000000 0.7341600000000000 0.4086100000000000
0.0451350000000000 0.7341600000000000 0.9086099999999999
0.5451350000000000 0.2341600000000000 0.4086100000000000
0.5451350000000000 0.2341600000000000 0.9086099999999999
0.5451350000000000 0.7341600000000000 0.4086100000000000
0.5451350000000000 0.7341600000000000 0.9086099999999999
0.2539500000000001 0.4385250000000000 0.0614750000000000
0.2539500000000001 0.4385250000000000 0.5614749999999999
0.2539500000000000 0.9385250000000001 0.0614750000000000
0.2539500000000000 0.9385250000000001 0.5614749999999999
0.7539500000000000 0.4385250000000000 0.0614750000000000
0.7539500000000000 0.4385250000000000 0.5614749999999999
0.7539500000000000 0.9385250000000001 0.0614750000000000
0.7539500000000000 0.9385250000000001 0.5614749999999999
0.1995699999999999 0.4342550000000000 0.0937500000000000
0.1995699999999999 0.4342550000000000 0.5937500000000000
0.1995699999999999 0.9342550000000001 0.0937500000000000
0.1995699999999999 0.9342550000000001 0.5937500000000000
0.6995700000000000 0.4342550000000000 0.0937500000000000
0.6995700000000000 0.4342550000000000 0.5937500000000000
0.6995700000000000 0.9342550000000001 0.0937500000000000
0.6995700000000000 0.9342550000000001 0.5937500000000000
0.1794500000000000 0.4388499999999999 0.1117000000000000
0.1794500000000000 0.4388499999999999 0.6117000000000000
0.1794500000000000 0.9388500000000000 0.1117000000000000
0.1794500000000000 0.9388500000000000 0.6117000000000000
0.6794499999999999 0.4388499999999999 0.1117000000000000
0.6794499999999999 0.4388499999999999 0.6117000000000000
0.6794499999999999 0.9388500000000000 0.1117000000000000
0.6794499999999999 0.9388500000000000 0.6117000000000000
0.2927499999999999 0.4530500000000000 0.0469500000000000
0.2927499999999999 0.4530500000000000 0.5469499999999999
0.2927499999999998 0.9530500000000000 0.0469500000000000
0.2927499999999998 0.9530500000000000 0.5469499999999999
0.7927499999999998 0.4530500000000000 0.0469500000000000
0.7927499999999998 0.4530500000000000 0.5469499999999999
0.7927499999999998 0.9530500000000000 0.0469500000000000
0.7927499999999998 0.9530500000000000 0.5469499999999999
0.2341600000000000 0.4548650000000000 0.0913900000000000
0.2341600000000000 0.4548649999999999 0.5913900000000000
0.2341600000000000 0.9548650000000001 0.0913900000000000
0.2341600000000000 0.9548650000000001 0.5913900000000000
0.7341600000000000 0.4548650000000000 0.0913900000000000
0.7341600000000000 0.4548649999999999 0.5913900000000000
0.7341600000000000 0.9548650000000001 0.0913900000000000
0.7341600000000000 0.9548650000000001 0.5913900000000000
0.0614750000000000 0.4385250000000000 0.2539500000000000
0.0614750000000000 0.4385250000000000 0.7539500000000000
0.0614750000000000 0.9385250000000001 0.2539500000000000
0.0614750000000000 0.9385250000000001 0.7539500000000000
0.5614749999999999 0.4385250000000000 0.2539500000000000
0.5614749999999999 0.4385250000000000 0.7539500000000000
0.5614749999999999 0.9385250000000001 0.2539500000000000
0.5614749999999999 0.9385250000000001 0.7539500000000000
0.0937500000000000 0.4342550000000000 0.1995700000000000
0.0937500000000000 0.4342550000000000 0.6995700000000000
0.0937500000000000 0.9342550000000001 0.1995700000000000
0.0937500000000000 0.9342550000000001 0.6995700000000000
0.5937500000000000 0.4342550000000000 0.1995700000000000
0.5937500000000000 0.4342550000000000 0.6995700000000000
0.5937500000000000 0.9342550000000001 0.1995700000000000
0.5937500000000000 0.9342550000000001 0.6995700000000000
0.1117000000000000 0.4388499999999999 0.1794500000000000
0.1117000000000000 0.4388499999999999 0.6794499999999999
0.1117000000000000 0.9388500000000000 0.1794500000000000
0.1117000000000000 0.9388500000000000 0.6794499999999999
0.6117000000000000 0.4388499999999999 0.1794500000000000
0.6117000000000000 0.4388499999999999 0.6794499999999999
0.6117000000000000 0.9388500000000000 0.1794500000000000
0.6117000000000000 0.9388500000000000 0.6794499999999999
0.0913900000000000 0.4548650000000000 0.2341600000000000
0.0913900000000000 0.4548649999999999 0.7341600000000000
0.0913900000000000 0.9548650000000001 0.2341600000000000
0.0913900000000000 0.9548650000000001 0.7341600000000000
0.5913900000000000 0.4548650000000000 0.2341600000000000
0.5913900000000000 0.4548649999999999 0.7341600000000000
0.5913900000000000 0.9548650000000001 0.2341600000000000
0.5913900000000000 0.9548650000000001 0.7341600000000000
0.4385250000000001 0.4385250000000000 0.2460500000000000
0.4385250000000001 0.4385250000000000 0.7460500000000000
0.4385250000000000 0.9385250000000001 0.2460500000000000
0.4385250000000000 0.9385250000000001 0.7460500000000000
0.9385250000000001 0.4385250000000000 0.2460500000000000
0.9385250000000001 0.4385250000000000 0.7460500000000000
0.9385250000000001 0.9385250000000001 0.2460500000000000
0.9385250000000001 0.9385250000000001 0.7460500000000000
0.4342550000000000 0.4062499999999998 0.3004300000000000
0.4342550000000000 0.4062499999999998 0.8004299999999999
0.4342550000000000 0.9062499999999999 0.3004300000000000
0.4342550000000000 0.9062499999999999 0.8004299999999999
0.9342550000000001 0.4062499999999998 0.3004300000000000
0.9342550000000001 0.4062499999999998 0.8004299999999999
0.9342550000000002 0.9062499999999999 0.3004300000000000
0.9342550000000002 0.9062499999999999 0.8004299999999999
0.4388499999999999 0.3883000000000000 0.3205499999999999
0.4388499999999999 0.3883000000000000 0.8205499999999999
0.4388499999999999 0.8883000000000000 0.3205499999999999
0.4388499999999999 0.8883000000000000 0.8205499999999999
0.9388500000000000 0.3883000000000000 0.3205499999999999
0.9388500000000000 0.3883000000000000 0.8205499999999999
0.9388500000000000 0.8883000000000000 0.3205499999999999
0.9388500000000000 0.8883000000000000 0.8205499999999999
0.4548650000000000 0.4086100000000000 0.2658400000000000
0.4548649999999999 0.4086100000000000 0.7658400000000001
0.4548649999999999 0.9086099999999999 0.2658400000000000
0.4548649999999999 0.9086099999999999 0.7658400000000001
0.9548650000000001 0.4086100000000000 0.2658400000000000
0.9548650000000001 0.4086100000000000 0.7658400000000001
0.9548650000000000 0.9086099999999999 0.2658400000000000
0.9548650000000000 0.9086099999999999 0.7658400000000001
0.4385250000000000 0.0614750000000000 0.2539500000000000
0.4385250000000000 0.0614750000000000 0.7539500000000000
0.4385250000000000 0.5614749999999999 0.2539500000000000
0.4385250000000000 0.5614749999999999 0.7539500000000000
0.9385250000000001 0.0614750000000000 0.2539500000000000
0.9385250000000001 0.0614750000000000 0.7539500000000000
0.9385250000000001 0.5614749999999999 0.2539500000000000
0.9385250000000001 0.5614749999999999 0.7539500000000000
0.4062499999999998 0.0657450000000000 0.1995700000000000
0.4062499999999998 0.0657450000000000 0.6995700000000000
0.4062499999999998 0.5657449999999999 0.1995700000000000
0.4062499999999998 0.5657449999999999 0.6995700000000000
0.9062499999999999 0.0657450000000000 0.1995700000000000
0.9062499999999999 0.0657450000000000 0.6995700000000000
0.9062499999999999 0.5657449999999999 0.1995700000000000
0.9062499999999999 0.5657449999999999 0.6995700000000000
0.3883000000000000 0.0611500000000000 0.1794500000000000
0.3883000000000000 0.0611500000000000 0.6794499999999999
0.3883000000000000 0.5611500000000000 0.1794500000000000
0.3883000000000000 0.5611500000000000 0.6794499999999999
0.8883000000000000 0.0611500000000000 0.1794500000000000
0.8883000000000000 0.0611500000000000 0.6794499999999999
0.8883000000000000 0.5611500000000000 0.1794500000000000
0.8883000000000000 0.5611500000000000 0.6794499999999999
0.4530500000000000 0.0469500000000000 0.2927499999999998
0.4530500000000000 0.0469500000000000 0.7927499999999998
0.4530500000000000 0.5469499999999999 0.2927499999999998
0.4530500000000000 0.5469499999999999 0.7927499999999998
0.9530500000000000 0.0469500000000000 0.2927499999999998
0.9530500000000000 0.0469500000000000 0.7927499999999998
0.9530500000000000 0.5469499999999999 0.2927499999999998
0.9530500000000000 0.5469499999999999 0.7927499999999998
0.4086100000000000 0.0451350000000000 0.2341600000000000
0.4086100000000000 0.0451350000000000 0.7341600000000000
0.4086100000000000 0.5451350000000000 0.2341600000000000
0.4086100000000000 0.5451350000000000 0.7341600000000000
0.9086099999999999 0.0451350000000000 0.2341600000000000
0.9086099999999999 0.0451350000000000 0.7341600000000000
0.9086099999999999 0.5451350000000000 0.2341600000000000
0.9086099999999999 0.5451350000000000 0.7341600000000000
0.0614750000000000 0.0614750000000000 0.2460500000000000
0.0614750000000000 0.0614750000000000 0.7460500000000000
0.0614750000000000 0.5614749999999999 0.2460500000000000
0.0614750000000000 0.5614749999999999 0.7460500000000000
0.5614749999999999 0.0614750000000000 0.2460500000000000
0.5614749999999999 0.0614750000000000 0.7460500000000000
0.5614749999999999 0.5614749999999999 0.2460500000000000
0.5614749999999999 0.5614749999999999 0.7460500000000000
0.0657450000000000 0.0937500000000000 0.3004300000000000
0.0657450000000000 0.0937500000000000 0.8004299999999999
0.0657450000000000 0.5937500000000000 0.3004300000000000
0.0657450000000000 0.5937500000000000 0.8004299999999999
0.5657449999999999 0.0937500000000000 0.3004300000000000
0.5657449999999999 0.0937500000000000 0.8004299999999999
0.5657449999999999 0.5937500000000000 0.3004300000000000
0.5657449999999999 0.5937500000000000 0.8004299999999999
0.0611500000000000 0.1117000000000000 0.3205499999999999
0.0611500000000000 0.1117000000000000 0.8205499999999999
0.0611500000000000 0.6117000000000000 0.3205499999999999
0.0611500000000000 0.6117000000000000 0.8205499999999999
0.5611500000000000 0.1117000000000000 0.3205499999999999
0.5611500000000000 0.1117000000000000 0.8205499999999999
0.5611500000000000 0.6117000000000000 0.3205499999999999
0.5611500000000000 0.6117000000000000 0.8205499999999999
0.0469500000000000 0.0469500000000000 0.2072500000000000
0.0469500000000000 0.0469500000000000 0.7072499999999999
0.0469500000000000 0.5469499999999999 0.2072500000000000
0.0469500000000000 0.5469499999999999 0.7072499999999999
0.5469499999999999 0.0469500000000000 0.2072500000000000
0.5469499999999999 0.0469500000000000 0.7072499999999999
0.5469499999999999 0.5469499999999999 0.2072500000000000
0.5469499999999999 0.5469499999999999 0.7072499999999999
0.0206500000000000 0.0371500000000000 0.2101000000000000
0.0206500000000000 0.0371500000000000 0.7101000000000000
0.0206500000000000 0.5371500000000000 0.2101000000000000
0.0206500000000000 0.5371500000000000 0.7101000000000000
0.5206500000000001 0.0371500000000000 0.2101000000000000
0.5206500000000001 0.0371500000000000 0.7101000000000000
0.5206500000000001 0.5371500000000000 0.2101000000000000
0.5206500000000001 0.5371500000000000 0.7101000000000000
0.0471000000000000 0.0682000000000000 0.1886000000000000
0.0471000000000000 0.0682000000000000 0.6886000000000000
0.0471000000000000 0.5681999999999999 0.1886000000000000
0.0471000000000000 0.5681999999999999 0.6886000000000000
0.5471000000000000 0.0682000000000000 0.1886000000000000
0.5471000000000000 0.0682000000000000 0.6886000000000000
0.5471000000000000 0.5681999999999999 0.1886000000000000
0.5471000000000000 0.5681999999999999 0.6886000000000000
0.0638000000000000 0.0262500000000000 0.1980500000000000
0.0638000000000000 0.0262500000000000 0.6980500000000001
0.0638000000000000 0.5262500000000000 0.1980500000000000
0.0638000000000000 0.5262500000000000 0.6980500000000001
0.5638000000000000 0.0262500000000000 0.1980500000000000
0.5638000000000000 0.0262500000000000 0.6980500000000001
0.5638000000000000 0.5262500000000000 0.1980500000000000
0.5638000000000000 0.5262500000000000 0.6980500000000001
0.0451350000000000 0.0913900000000000 0.2658400000000000
0.0451350000000000 0.0913900000000000 0.7658400000000001
0.0451350000000000 0.5913900000000000 0.2658400000000000
0.0451350000000000 0.5913900000000000 0.7658400000000001
0.5451350000000000 0.0913900000000000 0.2658400000000000
0.5451350000000000 0.0913900000000000 0.7658400000000001
0.5451350000000000 0.5913900000000000 0.2658400000000000
0.5451350000000000 0.5913900000000000 0.7658400000000001
0.0937500000000000 0.0657450000000000 0.3004300000000000
0.0937500000000000 0.0657450000000000 0.8004299999999999
0.0937500000000000 0.5657449999999999 0.3004300000000000
0.0937500000000000 0.5657449999999999 0.8004299999999999
0.5937500000000000 0.0657450000000000 0.3004300000000000
0.5937500000000000 0.0657450000000000 0.8004299999999999
0.5937500000000000 0.5657449999999999 0.3004300000000000
0.5937500000000000 0.5657449999999999 0.8004299999999999
0.1117000000000000 0.0611500000000000 0.3205499999999999
0.1117000000000000 0.0611500000000000 0.8205499999999999
0.1117000000000000 0.5611500000000000 0.3205499999999999
0.1117000000000000 0.5611500000000000 0.8205499999999999
0.6117000000000000 0.0611500000000000 0.3205499999999999
0.6117000000000000 0.0611500000000000 0.8205499999999999
0.6117000000000000 0.5611500000000000 0.3205499999999999
0.6117000000000000 0.5611500000000000 0.8205499999999999
0.0913900000000000 0.0451350000000000 0.2658400000000000
0.0913900000000000 0.0451350000000000 0.7658400000000001
0.0913900000000000 0.5451350000000000 0.2658400000000000
0.0913900000000000 0.5451350000000000 0.7658400000000001
0.5913900000000000 0.0451350000000000 0.2658400000000000
0.5913900000000000 0.0451350000000000 0.7658400000000001
0.5913900000000000 0.5451350000000000 0.2658400000000000
0.5913900000000000 0.5451350000000000 0.7658400000000001
0.0657450000000000 0.4062499999999998 0.1995700000000000
0.0657450000000000 0.4062499999999998 0.6995700000000000
0.0657450000000000 0.9062499999999999 0.1995700000000000
0.0657450000000000 0.9062499999999999 0.6995700000000000
0.5657449999999999 0.4062499999999998 0.1995700000000000
0.5657449999999999 0.4062499999999998 0.6995700000000000
0.5657450000000001 0.9062499999999999 0.1995700000000000
0.5657450000000001 0.9062499999999999 0.6995700000000000
0.0611500000000000 0.3883000000000000 0.1794500000000000
0.0611500000000000 0.3883000000000000 0.6794499999999999
0.0611500000000000 0.8883000000000000 0.1794500000000000
0.0611500000000000 0.8883000000000000 0.6794499999999999
0.5611500000000000 0.3883000000000000 0.1794500000000000
0.5611500000000000 0.3883000000000000 0.6794499999999999
0.5611500000000001 0.8883000000000000 0.1794500000000000
0.5611500000000001 0.8883000000000000 0.6794499999999999
0.0451350000000000 0.4086100000000000 0.2341600000000000
0.0451350000000000 0.4086100000000000 0.7341600000000000
0.0451350000000000 0.9086099999999999 0.2341600000000000
0.0451350000000000 0.9086099999999999 0.7341600000000000
0.5451350000000000 0.4086100000000000 0.2341600000000000
0.5451350000000000 0.4086100000000000 0.7341600000000000
0.5451350000000000 0.9086099999999999 0.2341600000000000
0.5451350000000000 0.9086099999999999 0.7341600000000000
0.4062499999999999 0.4342550000000000 0.3004300000000000
0.4062499999999999 0.4342550000000000 0.8004299999999999
0.4062499999999998 0.9342550000000001 0.3004300000000000
0.4062499999999998 0.9342550000000001 0.8004299999999999
0.9062499999999999 0.4342550000000000 0.3004300000000000
0.9062499999999999 0.4342550000000000 0.8004299999999999
0.9062499999999998 0.9342550000000001 0.3004300000000000
0.9062499999999998 0.9342550000000001 0.8004299999999999
0.3883000000000000 0.4388499999999999 0.3205499999999999
0.3883000000000000 0.4388499999999999 0.8205499999999999
0.3883000000000000 0.9388500000000000 0.3205499999999999
0.3883000000000000 0.9388500000000000 0.8205499999999999
0.8883000000000000 0.4388499999999999 0.3205499999999999
0.8883000000000000 0.4388499999999999 0.8205499999999999
0.8883000000000000 0.9388500000000000 0.3205499999999999
0.8883000000000000 0.9388500000000000 0.8205499999999999
0.4086100000000000 0.4548650000000000 0.2658400000000000
0.4086100000000000 0.4548649999999999 0.7658400000000001
0.4086100000000000 0.9548650000000001 0.2658400000000000
0.4086100000000000 0.9548650000000001 0.7658400000000001
0.9086099999999999 0.4548650000000000 0.2658400000000000
0.9086099999999999 0.4548649999999999 0.7658400000000001
0.9086099999999999 0.9548650000000001 0.2658400000000000
0.9086099999999999 0.9548650000000001 0.7658400000000001
0.4342550000000000 0.0937500000000000 0.1995700000000000
0.4342550000000000 0.0937500000000000 0.6995700000000000
0.4342550000000000 0.5937500000000000 0.1995700000000000
0.4342550000000000 0.5937500000000000 0.6995700000000000
0.9342550000000001 0.0937500000000000 0.1995700000000000
0.9342550000000001 0.0937500000000000 0.6995700000000000
0.9342550000000001 0.5937500000000000 0.1995700000000000
0.9342550000000001 0.5937500000000000 0.6995700000000000
0.4388499999999999 0.1117000000000000 0.1794500000000000
0.4388499999999999 0.1117000000000000 0.6794499999999999
0.4388499999999999 0.6117000000000000 0.1794500000000000
0.4388499999999999 0.6117000000000000 0.6794499999999999
0.9388500000000000 0.1117000000000000 0.1794500000000000
0.9388500000000000 0.1117000000000000 0.6794499999999999
0.9388500000000000 0.6117000000000000 0.1794500000000000
0.9388500000000000 0.6117000000000000 0.6794499999999999
0.4793500000000000 0.0371500000000000 0.2898999999999998
0.4793499999999999 0.0371500000000000 0.7898999999999998
0.4793499999999999 0.5371500000000000 0.2898999999999998
0.4793499999999999 0.5371500000000000 0.7898999999999998
0.9793499999999999 0.0371500000000000 0.2898999999999998
0.9793499999999999 0.0371500000000000 0.7898999999999998
0.9793499999999999 0.5371500000000000 0.2898999999999998
0.9793499999999999 0.5371500000000000 0.7898999999999998
0.4529000000000000 0.0682000000000000 0.3114000000000000
0.4529000000000000 0.0682000000000000 0.8114000000000000
0.4529000000000000 0.5681999999999999 0.3114000000000000
0.4529000000000000 0.5681999999999999 0.8114000000000000
0.9529000000000001 0.0682000000000000 0.3114000000000000
0.9529000000000001 0.0682000000000000 0.8114000000000000
0.9529000000000001 0.5681999999999999 0.3114000000000000
0.9529000000000001 0.5681999999999999 0.8114000000000000
0.4362000000000000 0.0262500000000000 0.3019500000000000
0.4362000000000000 0.0262500000000000 0.8019499999999999
0.4362000000000000 0.5262500000000000 0.3019500000000000
0.4362000000000000 0.5262500000000000 0.8019499999999999
0.9361999999999999 0.0262500000000000 0.3019500000000000
0.9361999999999999 0.0262500000000000 0.8019499999999999
0.9361999999999999 0.5262500000000000 0.3019500000000000
0.9361999999999999 0.5262500000000000 0.8019499999999999
0.4548650000000000 0.0913900000000000 0.2341600000000000
0.4548649999999999 0.0913900000000000 0.7341600000000000
0.4548649999999999 0.5913900000000000 0.2341600000000000
0.4548649999999999 0.5913900000000000 0.7341600000000000
0.9548650000000001 0.0913900000000000 0.2341600000000000
0.9548650000000001 0.0913900000000000 0.7341600000000000
0.9548650000000001 0.5913900000000000 0.2341600000000000
0.9548650000000001 0.5913900000000000 0.7341600000000000
0.1995699999999999 0.0937500000000000 0.4342550000000000
0.1995699999999999 0.0937500000000000 0.9342550000000001
0.1995699999999999 0.5937500000000000 0.4342550000000000
0.1995699999999999 0.5937500000000000 0.9342550000000001
0.6995700000000000 0.0937500000000000 0.4342550000000000
0.6995700000000000 0.0937500000000000 0.9342550000000001
0.6995700000000000 0.5937500000000000 0.4342550000000000
0.6995700000000000 0.5937500000000000 0.9342550000000001
0.1794500000000000 0.1117000000000000 0.4388499999999999
0.1794500000000000 0.1117000000000000 0.9388500000000000
0.1794500000000000 0.6117000000000000 0.4388499999999999
0.1794500000000000 0.6117000000000000 0.9388500000000000
0.6794499999999999 0.1117000000000000 0.4388499999999999
0.6794499999999999 0.1117000000000000 0.9388500000000000
0.6794499999999999 0.6117000000000000 0.4388499999999999
0.6794499999999999 0.6117000000000000 0.9388500000000000
0.2341600000000000 0.0913900000000000 0.4548650000000000
0.2341600000000000 0.0913900000000000 0.9548650000000001
0.2341600000000000 0.5913900000000000 0.4548650000000000
0.2341600000000000 0.5913900000000000 0.9548650000000001
0.7341600000000000 0.0913900000000000 0.4548650000000000
0.7341600000000000 0.0913900000000000 0.9548650000000001
0.7341600000000000 0.5913900000000000 0.4548650000000000
0.7341600000000000 0.5913900000000000 0.9548650000000001
0.1995699999999999 0.4062499999999998 0.0657450000000000
0.1995699999999999 0.4062499999999998 0.5657449999999999
0.1995699999999999 0.9062499999999999 0.0657450000000000
0.1995699999999999 0.9062499999999999 0.5657449999999999
0.6995700000000000 0.4062499999999998 0.0657450000000000
0.6995700000000000 0.4062499999999998 0.5657449999999999
0.6995700000000001 0.9062499999999999 0.0657450000000000
0.6995700000000001 0.9062499999999999 0.5657449999999999
0.1794500000000000 0.3883000000000000 0.0611500000000000
0.1794500000000000 0.3883000000000000 0.5611500000000000
0.1794500000000000 0.8883000000000000 0.0611500000000000
0.1794500000000000 0.8883000000000000 0.5611500000000000
0.6794499999999999 0.3883000000000000 0.0611500000000000
0.6794499999999999 0.3883000000000000 0.5611500000000000
0.6794500000000000 0.8883000000000000 0.0611500000000000
0.6794500000000000 0.8883000000000000 0.5611500000000000
0.2898999999999998 0.4628499999999998 0.0206500000000000
0.2898999999999998 0.4628499999999998 0.5206500000000001
0.2898999999999998 0.9628499999999999 0.0206500000000000
0.2898999999999998 0.9628499999999999 0.5206500000000001
0.7898999999999998 0.4628499999999998 0.0206500000000000
0.7898999999999998 0.4628499999999998 0.5206500000000001
0.7898999999999998 0.9628499999999999 0.0206500000000000
0.7898999999999998 0.9628499999999999 0.5206500000000001
0.3114000000000001 0.4318000000000000 0.0471000000000000
0.3114000000000001 0.4318000000000000 0.5471000000000000
0.3114000000000000 0.9318000000000000 0.0471000000000000
0.3114000000000000 0.9318000000000000 0.5471000000000000
0.8114000000000000 0.4318000000000000 0.0471000000000000
0.8114000000000000 0.4318000000000000 0.5471000000000000
0.8114000000000000 0.9318000000000000 0.0471000000000000
0.8114000000000000 0.9318000000000000 0.5471000000000000
0.3019500000000000 0.4737499999999999 0.0638000000000000
0.3019500000000000 0.4737499999999999 0.5638000000000000
0.3019500000000000 0.9737499999999998 0.0638000000000000
0.3019500000000000 0.9737499999999998 0.5638000000000000
0.8019499999999999 0.4737499999999999 0.0638000000000000
0.8019499999999999 0.4737499999999999 0.5638000000000000
0.8019499999999999 0.9737499999999998 0.0638000000000000
0.8019499999999999 0.9737499999999998 0.5638000000000000
0.2341600000000000 0.4086100000000000 0.0451350000000000
0.2341600000000000 0.4086100000000000 0.5451350000000000
0.2341600000000000 0.9086099999999999 0.0451350000000000
0.2341600000000000 0.9086099999999999 0.5451350000000000
0.7341600000000000 0.4086100000000000 0.0451350000000000
0.7341600000000000 0.4086100000000000 0.5451350000000000
0.7341600000000000 0.9086099999999999 0.0451350000000000
0.7341600000000000 0.9086099999999999 0.5451350000000000
0.4062499999999999 0.3004300000000000 0.4342550000000000
0.4062499999999998 0.3004300000000000 0.9342550000000001
0.4062499999999999 0.8004299999999999 0.4342550000000000
0.4062499999999998 0.8004299999999999 0.9342550000000001
0.9062499999999999 0.3004300000000000 0.4342550000000000
0.9062499999999998 0.3004300000000000 0.9342550000000001
0.9062499999999999 0.8004299999999999 0.4342550000000000
0.9062499999999998 0.8004299999999999 0.9342550000000001
0.3883000000000000 0.3205499999999999 0.4388499999999999
0.3883000000000000 0.3205499999999999 0.9388500000000000
0.3883000000000000 0.8205499999999999 0.4388499999999999
0.3883000000000000 0.8205499999999999 0.9388500000000000
0.8883000000000000 0.3205499999999999 0.4388499999999999
0.8883000000000000 0.3205499999999999 0.9388500000000000
0.8883000000000000 0.8205499999999999 0.4388499999999999
0.8883000000000000 0.8205499999999999 0.9388500000000000
0.4086100000000000 0.2658400000000000 0.4548650000000000
0.4086100000000000 0.2658400000000000 0.9548650000000001
0.4086100000000000 0.7658400000000001 0.4548650000000000
0.4086100000000000 0.7658400000000001 0.9548650000000001
0.9086099999999999 0.2658400000000000 0.4548650000000000
0.9086099999999999 0.2658400000000000 0.9548650000000001
0.9086099999999999 0.7658400000000001 0.4548650000000000
0.9086099999999999 0.7658400000000001 0.9548650000000001
0.3004300000000000 0.0937500000000000 0.0657450000000000
0.3004300000000000 0.0937500000000000 0.5657449999999999
0.3004300000000000 0.5937500000000000 0.0657450000000000
0.3004300000000000 0.5937500000000000 0.5657449999999999
0.8004299999999999 0.0937500000000000 0.0657450000000000
0.8004299999999999 0.0937500000000000 0.5657449999999999
0.8004299999999999 0.5937500000000000 0.0657450000000000
0.8004299999999999 0.5937500000000000 0.5657449999999999
0.3205499999999999 0.1117000000000000 0.0611500000000000
0.3205499999999999 0.1117000000000000 0.5611500000000000
0.3205499999999999 0.6117000000000000 0.0611500000000000
0.3205499999999999 0.6117000000000000 0.5611500000000000
0.8205499999999999 0.1117000000000000 0.0611500000000000
0.8205499999999999 0.1117000000000000 0.5611500000000000
0.8205499999999999 0.6117000000000000 0.0611500000000000
0.8205499999999999 0.6117000000000000 0.5611500000000000
0.2101000000000000 0.0371500000000000 0.0206500000000000
0.2101000000000000 0.0371500000000000 0.5206500000000001
0.2101000000000000 0.5371500000000000 0.0206500000000000
0.2101000000000000 0.5371500000000000 0.5206500000000001
0.7101000000000000 0.0371500000000000 0.0206500000000000
0.7101000000000000 0.0371500000000000 0.5206500000000001
0.7101000000000000 0.5371500000000000 0.0206500000000000
0.7101000000000000 0.5371500000000000 0.5206500000000001
0.1886000000000000 0.0682000000000000 0.0471000000000000
0.1886000000000000 0.0682000000000000 0.5471000000000000
0.1886000000000000 0.5681999999999999 0.0471000000000000
0.1886000000000000 0.5681999999999999 0.5471000000000000
0.6886000000000000 0.0682000000000000 0.0471000000000000
0.6886000000000000 0.0682000000000000 0.5471000000000000
0.6886000000000000 0.5681999999999999 0.0471000000000000
0.6886000000000000 0.5681999999999999 0.5471000000000000
0.1980500000000000 0.0262500000000000 0.0638000000000000
0.1980500000000000 0.0262500000000000 0.5638000000000000
0.1980500000000000 0.5262500000000000 0.0638000000000000
0.1980500000000000 0.5262500000000000 0.5638000000000000
0.6980500000000001 0.0262500000000000 0.0638000000000000
0.6980500000000001 0.0262500000000000 0.5638000000000000
0.6980500000000001 0.5262500000000000 0.0638000000000000
0.6980500000000001 0.5262500000000000 0.5638000000000000
0.2658400000000000 0.0913900000000000 0.0451350000000000
0.2658400000000000 0.0913900000000000 0.5451350000000000
0.2658400000000000 0.5913900000000000 0.0451350000000000
0.2658400000000000 0.5913900000000000 0.5451350000000000
0.7658400000000001 0.0913900000000000 0.0451350000000000
0.7658400000000001 0.0913900000000000 0.5451350000000000
0.7658400000000001 0.5913900000000000 0.0451350000000000
0.7658400000000001 0.5913900000000000 0.5451350000000000
0.0937500000000000 0.1995699999999999 0.4342550000000000
0.0937500000000000 0.1995699999999999 0.9342550000000001
0.0937500000000000 0.6995700000000000 0.4342550000000000
0.0937500000000000 0.6995700000000000 0.9342550000000001
0.5937500000000000 0.1995699999999999 0.4342550000000000
0.5937500000000000 0.1995699999999999 0.9342550000000001
0.5937500000000000 0.6995700000000000 0.4342550000000000
0.5937500000000000 0.6995700000000000 0.9342550000000001
0.1117000000000000 0.1794500000000000 0.4388499999999999
0.1117000000000000 0.1794500000000000 0.9388500000000000
0.1117000000000000 0.6794499999999999 0.4388499999999999
0.1117000000000000 0.6794499999999999 0.9388500000000000
0.6117000000000000 0.1794500000000000 0.4388499999999999
0.6117000000000000 0.1794500000000000 0.9388500000000000
0.6117000000000000 0.6794499999999999 0.4388499999999999
0.6117000000000000 0.6794499999999999 0.9388500000000000
0.0913900000000000 0.2341600000000000 0.4548650000000000
0.0913900000000000 0.2341600000000000 0.9548650000000001
0.0913900000000000 0.7341600000000000 0.4548650000000000
0.0913900000000000 0.7341600000000000 0.9548650000000001
0.5913900000000000 0.2341600000000000 0.4548650000000000
0.5913900000000000 0.2341600000000000 0.9548650000000001
0.5913900000000000 0.7341600000000000 0.4548650000000000
0.5913900000000000 0.7341600000000000 0.9548650000000001
0.3004300000000000 0.4062499999999999 0.4342550000000000
0.3004300000000000 0.4062499999999998 0.9342550000000001
0.3004300000000000 0.9062499999999999 0.4342550000000000
0.3004300000000000 0.9062499999999998 0.9342550000000001
0.8004299999999999 0.4062499999999999 0.4342550000000000
0.8004299999999999 0.4062499999999998 0.9342550000000001
0.8004300000000000 0.9062499999999999 0.4342550000000000
0.8004300000000000 0.9062499999999998 0.9342550000000001
0.3205499999999999 0.3883000000000000 0.4388499999999999
0.3205499999999999 0.3883000000000000 0.9388500000000000
0.3205499999999999 0.8883000000000000 0.4388499999999999
0.3205499999999999 0.8883000000000000 0.9388500000000000
0.8205499999999999 0.3883000000000000 0.4388499999999999
0.8205499999999999 0.3883000000000000 0.9388500000000000
0.8205500000000000 0.8883000000000000 0.4388499999999999
0.8205500000000000 0.8883000000000000 0.9388500000000000
0.2658400000000000 0.4086100000000000 0.4548650000000000
0.2658400000000000 0.4086100000000000 0.9548650000000001
0.2658400000000000 0.9086099999999999 0.4548650000000000
0.2658400000000000 0.9086099999999999 0.9548650000000001
0.7658400000000001 0.4086100000000000 0.4548650000000000
0.7658400000000001 0.4086100000000000 0.9548650000000001
0.7658400000000001 0.9086099999999999 0.4548650000000000
0.7658400000000001 0.9086099999999999 0.9548650000000001
0.4062499999999998 0.1995700000000000 0.0657450000000000
0.4062499999999998 0.1995699999999999 0.5657449999999999
0.4062499999999998 0.6995700000000000 0.0657450000000000
0.4062499999999998 0.6995700000000000 0.5657449999999999
0.9062499999999999 0.1995700000000000 0.0657450000000000
0.9062499999999999 0.1995699999999999 0.5657449999999999
0.9062499999999999 0.6995700000000000 0.0657450000000000
0.9062499999999999 0.6995700000000000 0.5657449999999999
0.3883000000000000 0.1794500000000000 0.0611500000000000
0.3883000000000000 0.1794500000000000 0.5611500000000000
0.3883000000000000 0.6794499999999999 0.0611500000000000
0.3883000000000000 0.6794499999999999 0.5611500000000000
0.8883000000000000 0.1794500000000000 0.0611500000000000
0.8883000000000000 0.1794500000000000 0.5611500000000000
0.8883000000000000 0.6794499999999999 0.0611500000000000
0.8883000000000000 0.6794499999999999 0.5611500000000000
0.4086100000000000 0.2341600000000000 0.0451350000000000
0.4086100000000000 0.2341600000000000 0.5451350000000000
0.4086100000000000 0.7341600000000000 0.0451350000000000
0.4086100000000000 0.7341600000000000 0.5451350000000000
0.9086099999999999 0.2341600000000000 0.0451350000000000
0.9086099999999999 0.2341600000000000 0.5451350000000000
0.9086099999999999 0.7341600000000000 0.0451350000000000
0.9086099999999999 0.7341600000000000 0.5451350000000000
0.0937500000000000 0.3004300000000000 0.0657450000000000
0.0937500000000000 0.3004300000000000 0.5657449999999999
0.0937500000000000 0.8004299999999999 0.0657450000000000
0.0937500000000000 0.8004299999999999 0.5657449999999999
0.5937500000000000 0.3004300000000000 0.0657450000000000
0.5937500000000000 0.3004300000000000 0.5657449999999999
0.5937500000000000 0.8004299999999999 0.0657450000000000
0.5937500000000000 0.8004299999999999 0.5657449999999999
0.1117000000000000 0.3205499999999999 0.0611500000000000
0.1117000000000000 0.3205499999999999 0.5611500000000000
0.1117000000000000 0.8205499999999999 0.0611500000000000
0.1117000000000000 0.8205499999999999 0.5611500000000000
0.6117000000000000 0.3205499999999999 0.0611500000000000
0.6117000000000000 0.3205499999999999 0.5611500000000000
0.6117000000000000 0.8205499999999999 0.0611500000000000
0.6117000000000000 0.8205499999999999 0.5611500000000000
0.0913900000000000 0.2658400000000000 0.0451350000000000
0.0913900000000000 0.2658400000000000 0.5451350000000000
0.0913900000000000 0.7658400000000001 0.0451350000000000
0.0913900000000000 0.7658400000000001 0.5451350000000000
0.5913900000000000 0.2658400000000000 0.0451350000000000
0.5913900000000000 0.2658400000000000 0.5451350000000000
0.5913900000000000 0.7658400000000001 0.0451350000000000
0.5913900000000000 0.7658400000000001 0.5451350000000000
0.2921809582172901 0.0471630240178830 0.4528369759821169
0.2921809582172901 0.0471630240178830 0.9528369759821169
0.2921809582172901 0.5471630240178830 0.4528369759821169
0.2921809582172901 0.5471630240178830 0.9528369759821169
0.7921809582172901 0.0471630240178830 0.4528369759821169
0.7921809582172901 0.0471630240178830 0.9528369759821169
0.7921809582172901 0.5471630240178830 0.4528369759821169
0.7921809582172901 0.5471630240178830 0.9528369759821169
0.3189456862274832 0.0703412188968508 0.4587759592127913
0.3189456862274832 0.0703412188968508 0.9587759592127914
0.3189456862274832 0.5703412188968509 0.4587759592127913
0.3189456862274832 0.5703412188968509 0.9587759592127914
0.8189456862274832 0.0703412188968508 0.4587759592127913
0.8189456862274832 0.0703412188968508 0.9587759592127914
0.8189456862274832 0.5703412188968509 0.4587759592127913
0.8189456862274832 0.5703412188968509 0.9587759592127914
0.2971453247819907 0.0121068626775664 0.4587759592127913
0.2971453247819907 0.0121068626775664 0.9587759592127914
0.2971453247819907 0.5121068626775664 0.4587759592127913
0.2971453247819907 0.5121068626775664 0.9587759592127914
0.7971453247819906 0.0121068626775664 0.4587759592127913
0.7971453247819906 0.0121068626775664 0.9587759592127914
0.7971453247819906 0.5121068626775664 0.4587759592127913
0.7971453247819906 0.5121068626775664 0.9587759592127914
0.2971630240178829 0.4578190417827099 0.2971630240178829
0.2971630240178829 0.4578190417827099 0.7971630240178830
0.2971630240178829 0.9578190417827099 0.2971630240178829
0.2971630240178829 0.9578190417827099 0.7971630240178830
0.7971630240178830 0.4578190417827099 0.2971630240178829
0.7971630240178830 0.4578190417827099 0.7971630240178830
0.7971630240178830 0.9578190417827099 0.2971630240178829
0.7971630240178830 0.9578190417827099 0.7971630240178830
0.3203412188968508 0.4310543137725167 0.2912240407872086
0.3203412188968508 0.4310543137725167 0.7912240407872085
0.3203412188968507 0.9310543137725167 0.2912240407872086
0.3203412188968507 0.9310543137725167 0.7912240407872085
0.8203412188968507 0.4310543137725167 0.2912240407872086
0.8203412188968507 0.4310543137725167 0.7912240407872085
0.8203412188968507 0.9310543137725167 0.2912240407872086
0.8203412188968507 0.9310543137725167 0.7912240407872085
0.2621068626775664 0.4528546752180091 0.2912240407872086
0.2621068626775664 0.4528546752180091 0.7912240407872085
0.2621068626775664 0.9528546752180092 0.2912240407872086
0.2621068626775664 0.9528546752180092 0.7912240407872085
0.7621068626775664 0.4528546752180091 0.2912240407872086
0.7621068626775664 0.4528546752180091 0.7912240407872085
0.7621068626775664 0.9528546752180092 0.2912240407872086
0.7621068626775664 0.9528546752180092 0.7912240407872085
0.0471630240178830 0.4528369759821169 0.2921809582172901
0.0471630240178830 0.4528369759821169 0.7921809582172901
0.0471630240178830 0.9528369759821169 0.2921809582172901
0.0471630240178830 0.9528369759821169 0.7921809582172901
0.5471630240178830 0.4528369759821169 0.2921809582172901
0.5471630240178830 0.4528369759821169 0.7921809582172901
0.5471630240178830 0.9528369759821169 0.2921809582172901
0.5471630240178830 0.9528369759821169 0.7921809582172901
0.0192396827017748 0.4367916011273576 0.3080455055047369
0.0192396827017748 0.4367916011273576 0.8080455055047369
0.0192396827017748 0.9367916011273576 0.3080455055047369
0.0192396827017748 0.9367916011273576 0.8080455055047369
0.5192396827017748 0.4367916011273576 0.3080455055047369
0.5192396827017748 0.4367916011273576 0.8080455055047369
0.5192396827017748 0.9367916011273576 0.3080455055047369
0.5192396827017748 0.9367916011273576 0.8080455055047369
0.0632083988726424 0.4807603172982252 0.3080455055047369
0.0632083988726424 0.4807603172982251 0.8080455055047369
0.0632083988726424 0.9807603172982250 0.3080455055047369
0.0632083988726424 0.9807603172982250 0.8080455055047369
0.5632083988726424 0.4807603172982252 0.3080455055047369
0.5632083988726424 0.4807603172982251 0.8080455055047369
0.5632083988726424 0.9807603172982250 0.3080455055047369
0.5632083988726424 0.9807603172982250 0.8080455055047369
0.4528369759821169 0.4528369759821169 0.2078190417827099
0.4528369759821169 0.4528369759821169 0.7078190417827098
0.4528369759821169 0.9528369759821169 0.2078190417827099
0.4528369759821169 0.9528369759821169 0.7078190417827098
0.9528369759821169 0.4528369759821169 0.2078190417827099
0.9528369759821169 0.4528369759821169 0.7078190417827098
0.9528369759821168 0.9528369759821169 0.2078190417827099
0.9528369759821168 0.9528369759821169 0.7078190417827098
0.4367916011273575 0.4807603172982252 0.1919544944952630
0.4367916011273575 0.4807603172982251 0.6919544944952629
0.4367916011273575 0.9807603172982250 0.1919544944952630
0.4367916011273575 0.9807603172982250 0.6919544944952629
0.9367916011273576 0.4807603172982252 0.1919544944952630
0.9367916011273576 0.4807603172982251 0.6919544944952629
0.9367916011273576 0.9807603172982250 0.1919544944952630
0.9367916011273576 0.9807603172982250 0.6919544944952629
0.4807603172982252 0.4367916011273575 0.1919544944952630
0.4807603172982251 0.4367916011273575 0.6919544944952629
0.4807603172982252 0.9367916011273576 0.1919544944952630
0.4807603172982252 0.9367916011273576 0.6919544944952629
0.9807603172982250 0.4367916011273575 0.1919544944952630
0.9807603172982250 0.4367916011273575 0.6919544944952629
0.9807603172982249 0.9367916011273576 0.1919544944952630
0.9807603172982249 0.9367916011273576 0.6919544944952629
0.0471630240178830 0.2921809582172901 0.4528369759821169
0.0471630240178830 0.2921809582172901 0.9528369759821169
0.0471630240178830 0.7921809582172901 0.4528369759821169
0.0471630240178830 0.7921809582172901 0.9528369759821169
0.5471630240178830 0.2921809582172901 0.4528369759821169
0.5471630240178830 0.2921809582172901 0.9528369759821169
0.5471630240178830 0.7921809582172901 0.4528369759821169
0.5471630240178830 0.7921809582172901 0.9528369759821169
0.0121068626775664 0.2971453247819907 0.4587759592127913
0.0121068626775664 0.2971453247819907 0.9587759592127914
0.0121068626775664 0.7971453247819906 0.4587759592127913
0.0121068626775664 0.7971453247819906 0.9587759592127914
0.5121068626775664 0.2971453247819907 0.4587759592127913
0.5121068626775664 0.2971453247819907 0.9587759592127914
0.5121068626775664 0.7971453247819906 0.4587759592127913
0.5121068626775664 0.7971453247819906 0.9587759592127914
0.0703412188968508 0.3189456862274832 0.4587759592127913
0.0703412188968508 0.3189456862274832 0.9587759592127914
0.0703412188968508 0.8189456862274832 0.4587759592127913
0.0703412188968508 0.8189456862274832 0.9587759592127914
0.5703412188968509 0.3189456862274832 0.4587759592127913
0.5703412188968509 0.3189456862274832 0.9587759592127914
0.5703412188968509 0.8189456862274832 0.4587759592127913
0.5703412188968509 0.8189456862274832 0.9587759592127914
0.2028369759821169 0.4578190417827099 0.2028369759821169
0.2028369759821169 0.4578190417827099 0.7028369759821169
0.2028369759821169 0.9578190417827099 0.2028369759821169
0.2028369759821169 0.9578190417827099 0.7028369759821169
0.7028369759821169 0.4578190417827099 0.2028369759821169
0.7028369759821169 0.4578190417827099 0.7028369759821169
0.7028369759821169 0.9578190417827099 0.2028369759821169
0.7028369759821169 0.9578190417827099 0.7028369759821169
0.2378931373224336 0.4528546752180091 0.2087759592127913
0.2378931373224336 0.4528546752180091 0.7087759592127914
0.2378931373224336 0.9528546752180092 0.2087759592127913
0.2378931373224336 0.9528546752180092 0.7087759592127914
0.7378931373224334 0.4528546752180091 0.2087759592127913
0.7378931373224334 0.4528546752180091 0.7087759592127914
0.7378931373224334 0.9528546752180092 0.2087759592127913
0.7378931373224334 0.9528546752180092 0.7087759592127914
0.1796587811031491 0.4310543137725167 0.2087759592127913
0.1796587811031491 0.4310543137725167 0.7087759592127914
0.1796587811031491 0.9310543137725167 0.2087759592127913
0.1796587811031491 0.9310543137725167 0.7087759592127914
0.6796587811031491 0.4310543137725167 0.2087759592127913
0.6796587811031491 0.4310543137725167 0.7087759592127914
0.6796587811031491 0.9310543137725167 0.2087759592127913
0.6796587811031491 0.9310543137725167 0.7087759592127914
0.2028369759821169 0.2971630240178830 0.0421809582172901
0.2028369759821169 0.2971630240178830 0.5421809582172901
0.2028369759821169 0.7971630240178831 0.0421809582172901
0.2028369759821169 0.7971630240178831 0.5421809582172901
0.7028369759821169 0.2971630240178830 0.0421809582172901
0.7028369759821169 0.2971630240178830 0.5421809582172901
0.7028369759821169 0.7971630240178831 0.0421809582172901
0.7028369759821169 0.7971630240178831 0.5421809582172901
0.2307603172982252 0.3132083988726425 0.0580455055047370
0.2307603172982251 0.3132083988726425 0.5580455055047370
0.2307603172982251 0.8132083988726424 0.0580455055047370
0.2307603172982251 0.8132083988726424 0.5580455055047370
0.7307603172982251 0.3132083988726425 0.0580455055047370
0.7307603172982251 0.3132083988726425 0.5580455055047370
0.7307603172982251 0.8132083988726424 0.0580455055047370
0.7307603172982251 0.8132083988726424 0.5580455055047370
0.1867916011273575 0.2692396827017748 0.0580455055047370
0.1867916011273575 0.2692396827017748 0.5580455055047370
0.1867916011273575 0.7692396827017749 0.0580455055047370
0.1867916011273575 0.7692396827017749 0.5580455055047370
0.6867916011273575 0.2692396827017748 0.0580455055047370
0.6867916011273575 0.2692396827017748 0.5580455055047370
0.6867916011273575 0.7692396827017749 0.0580455055047370
0.6867916011273575 0.7692396827017749 0.5580455055047370
0.2028369759821169 0.2028369759821169 0.4578190417827099
0.2028369759821169 0.2028369759821169 0.9578190417827099
0.2028369759821169 0.7028369759821169 0.4578190417827099
0.2028369759821169 0.7028369759821169 0.9578190417827099
0.7028369759821169 0.2028369759821169 0.4578190417827099
0.7028369759821169 0.2028369759821169 0.9578190417827099
0.7028369759821169 0.7028369759821169 0.4578190417827099
0.7028369759821169 0.7028369759821169 0.9578190417827099
0.1867916011273575 0.2307603172982251 0.4419544944952629
0.1867916011273575 0.2307603172982251 0.9419544944952629
0.1867916011273575 0.7307603172982251 0.4419544944952629
0.1867916011273575 0.7307603172982250 0.9419544944952629
0.6867916011273576 0.2307603172982251 0.4419544944952629
0.6867916011273576 0.2307603172982251 0.9419544944952629
0.6867916011273576 0.7307603172982251 0.4419544944952629
0.6867916011273576 0.7307603172982250 0.9419544944952629
0.2307603172982251 0.1867916011273575 0.4419544944952629
0.2307603172982251 0.1867916011273575 0.9419544944952629
0.2307603172982251 0.6867916011273576 0.4419544944952629
0.2307603172982251 0.6867916011273576 0.9419544944952629
0.7307603172982251 0.1867916011273575 0.4419544944952629
0.7307603172982250 0.1867916011273575 0.9419544944952629
0.7307603172982251 0.6867916011273576 0.4419544944952629
0.7307603172982250 0.6867916011273576 0.9419544944952629
0.4528369759821169 0.2921809582172901 0.0471630240178830
0.4528369759821169 0.2921809582172901 0.5471630240178830
0.4528369759821169 0.7921809582172901 0.0471630240178830
0.4528369759821169 0.7921809582172901 0.5471630240178830
0.9528369759821169 0.2921809582172901 0.0471630240178830
0.9528369759821169 0.2921809582172901 0.5471630240178830
0.9528369759821169 0.7921809582172901 0.0471630240178830
0.9528369759821169 0.7921809582172901 0.5471630240178830
0.4296587811031491 0.3189456862274832 0.0412240407872086
0.4296587811031491 0.3189456862274832 0.5412240407872085
0.4296587811031491 0.8189456862274832 0.0412240407872086
0.4296587811031491 0.8189456862274832 0.5412240407872085
0.9296587811031491 0.3189456862274832 0.0412240407872086
0.9296587811031491 0.3189456862274832 0.5412240407872085
0.9296587811031491 0.8189456862274832 0.0412240407872086
0.9296587811031491 0.8189456862274832 0.5412240407872085
0.4878931373224336 0.2971453247819907 0.0412240407872086
0.4878931373224336 0.2971453247819907 0.5412240407872085
0.4878931373224336 0.7971453247819906 0.0412240407872086
0.4878931373224335 0.7971453247819906 0.5412240407872085
0.9878931373224336 0.2971453247819907 0.0412240407872086
0.9878931373224336 0.2971453247819907 0.5412240407872085
0.9878931373224336 0.7971453247819906 0.0412240407872086
0.9878931373224336 0.7971453247819906 0.5412240407872085
0.4578190417827099 0.2971630240178829 0.2971630240178829
0.4578190417827099 0.2971630240178829 0.7971630240178830
0.4578190417827099 0.7971630240178830 0.2971630240178829
0.4578190417827099 0.7971630240178830 0.7971630240178830
0.9578190417827099 0.2971630240178829 0.2971630240178829
0.9578190417827099 0.2971630240178829 0.7971630240178830
0.9578190417827099 0.7971630240178830 0.2971630240178829
0.9578190417827099 0.7971630240178830 0.7971630240178830
0.4528546752180091 0.2621068626775664 0.2912240407872086
0.4528546752180091 0.2621068626775664 0.7912240407872085
0.4528546752180091 0.7621068626775664 0.2912240407872086
0.4528546752180091 0.7621068626775664 0.7912240407872085
0.9528546752180092 0.2621068626775664 0.2912240407872086
0.9528546752180092 0.2621068626775664 0.7912240407872085
0.9528546752180092 0.7621068626775664 0.2912240407872086
0.9528546752180092 0.7621068626775664 0.7912240407872085
0.4310543137725167 0.3203412188968507 0.2912240407872086
0.4310543137725167 0.3203412188968507 0.7912240407872085
0.4310543137725167 0.8203412188968507 0.2912240407872086
0.4310543137725167 0.8203412188968507 0.7912240407872085
0.9310543137725167 0.3203412188968507 0.2912240407872086
0.9310543137725167 0.3203412188968507 0.7912240407872085
0.9310543137725167 0.8203412188968507 0.2912240407872086
0.9310543137725167 0.8203412188968507 0.7912240407872085
0.0471630240178830 0.2078190417827099 0.0471630240178830
0.0471630240178830 0.2078190417827099 0.5471630240178831
0.0471630240178830 0.7078190417827098 0.0471630240178830
0.0471630240178830 0.7078190417827098 0.5471630240178831
0.5471630240178831 0.2078190417827099 0.0471630240178830
0.5471630240178831 0.2078190417827099 0.5471630240178831
0.5471630240178831 0.7078190417827098 0.0471630240178830
0.5471630240178831 0.7078190417827098 0.5471630240178831
0.0703412188968509 0.1810543137725167 0.0412240407872086
0.0703412188968509 0.1810543137725167 0.5412240407872085
0.0703412188968509 0.6810543137725167 0.0412240407872086
0.0703412188968509 0.6810543137725167 0.5412240407872085
0.5703412188968509 0.1810543137725167 0.0412240407872086
0.5703412188968509 0.1810543137725167 0.5412240407872085
0.5703412188968509 0.6810543137725167 0.0412240407872086
0.5703412188968509 0.6810543137725167 0.5412240407872085
0.0121068626775664 0.2028546752180092 0.0412240407872086
0.0121068626775664 0.2028546752180092 0.5412240407872085
0.0121068626775664 0.7028546752180092 0.0412240407872086
0.0121068626775664 0.7028546752180092 0.5412240407872085
0.5121068626775664 0.2028546752180092 0.0412240407872086
0.5121068626775664 0.2028546752180092 0.5412240407872085
0.5121068626775664 0.7028546752180092 0.0412240407872086
0.5121068626775664 0.7028546752180092 0.5412240407872085
0.0421809582172901 0.2971630240178830 0.2028369759821169
0.0421809582172901 0.2971630240178830 0.7028369759821169
0.0421809582172901 0.7971630240178831 0.2028369759821169
0.0421809582172901 0.7971630240178831 0.7028369759821169
0.5421809582172901 0.2971630240178830 0.2028369759821169
0.5421809582172901 0.2971630240178830 0.7028369759821169
0.5421809582172901 0.7971630240178831 0.2028369759821169
0.5421809582172901 0.7971630240178831 0.7028369759821169
0.0689456862274832 0.3203412188968509 0.2087759592127913
0.0689456862274832 0.3203412188968509 0.7087759592127914
0.0689456862274832 0.8203412188968507 0.2087759592127913
0.0689456862274832 0.8203412188968507 0.7087759592127914
0.5689456862274832 0.3203412188968509 0.2087759592127913
0.5689456862274832 0.3203412188968509 0.7087759592127914
0.5689456862274832 0.8203412188968507 0.2087759592127913
0.5689456862274832 0.8203412188968507 0.7087759592127914
0.0471453247819908 0.2621068626775664 0.2087759592127913
0.0471453247819908 0.2621068626775664 0.7087759592127914
0.0471453247819908 0.7621068626775664 0.2087759592127913
0.0471453247819908 0.7621068626775664 0.7087759592127914
0.5471453247819907 0.2621068626775664 0.2087759592127913
0.5471453247819907 0.2621068626775664 0.7087759592127914
0.5471453247819907 0.7621068626775664 0.2087759592127913
0.5471453247819907 0.7621068626775664 0.7087759592127914
