 energy: -131.061825979239 gnorm: 0.006538984347 xtb: 6.7.1 (edcfbbe)
    1.00000000000000
   43.13537576234133   -0.47755768360736    0.90883565159718
  -20.51545482259002   36.59083531653367   -0.14795937821926
   -1.29477357338425    0.64974450695843   37.43297723335442
 C    Cl   H    N    O    Zn  
 240 18 146 126 61 24
Direct
    0.32266838030617    0.30743555529093    0.48669067030972
    1.03287263460445    0.36074985921560    0.42528819960632
    1.01009633404729    0.24625291075471    0.40405302064497
    1.00593263740604    0.30431161875385    0.38347640489074
    0.90305603156584    0.51767619357077    0.31973303373001
    1.06298349559641    0.43822143690991    0.26472938110729
    0.89424307064179    0.34639492936028    0.48662356421849
    0.91113140947175    0.34405524098662    0.60447485303986
    0.92208509911471    0.38200312754452    0.54549766876891
    0.38566582071256    0.10822761101999    0.41422612005362
    0.28996036900272    0.11973997656871    0.38670151906742
    0.35070844089552    0.12534016736374    0.36725487098519
    0.67487733414640    0.26039241065767    0.31577675338038
    0.77877522796579    0.63178173760810    0.55240021155648
    0.53215050313622    0.26287884751716    0.48009102444514
    0.56358351780808    0.25120233054036    0.53536296599142
    0.34822161522819    0.37399498485543    0.90759497116617
    0.23626847158797    0.28901617919000    0.87883412642743
    0.29330012812058    0.35295411327148    0.86509718564412
    0.51350483438953    0.67501569461230    0.84125807566300
    0.51474276413475    0.48483455991268    0.76919765931095
    0.33775005026898    0.50411518629372   -0.00754626829472
    0.33081676996270    0.49196642480155    0.11260240762241
    0.36865845265565    0.50714694641756    0.05373647692129
    0.12435105825529    0.85272238241520    0.95658415616166
    0.13240499679866    0.96329680095396    0.94188775758922
    0.14672978737388    0.91348908676418    0.91865280346669
    0.56078184697697    0.27803296860185    0.59603062904568
    0.25644804524177    0.69011475138959    0.90776739009601
    0.81941899133763    0.64698078124111    0.60844645378307
    0.71426751244101    0.70213516375869    0.25353466734783
    0.28857256388929    0.26753121910725   -0.02343192284436
    0.60733145520386    0.42877028729170    0.09791343068102
    0.47321424831347    0.45337630154049    0.18110642701548
    0.52663640755626    0.32056480566872    0.94949803176834
    0.54788088945347    0.34013442168190    0.83184172581467
    0.52376135478857    0.35310915803472    0.88935900145658
    0.79622542533841    0.07653091235981   -0.03239173506868
    0.88912504441919    0.06059118856990   -0.05542268221444
    0.85766651188680    0.08287086839108   -0.01245704022380
    0.74089378859925    0.24279957515273    0.13506386423515
    0.73265813638394    0.04643956923623    0.19849469852657
    0.85142336049821    0.25848284062387    0.95778034811993
    0.80867657904951    0.64424004815591    0.48866543028655
    0.85344094249329    0.26264155573783    0.83740379346021
    1.08955385001126    0.84301423667571    0.01853514342723
    1.09733568567223    0.95306243505604    0.00263244974253
    1.07593446728342    0.89350959956607    0.04128214582233
    0.91772058595169    0.56427033736910    0.12758472683157
    1.11141328036492    0.79862207737295    0.21326234951321
    0.92122104426692    0.69728584147517    0.97661494149175
    0.93098326356956    0.71515065910894    0.85739522552451
    0.96139378395812    0.72105354307526    0.91905424627490
    0.77964458660842    0.77059560708985    0.41986266541632
    0.88751464565012    0.87017588487871    0.40023902457426
    0.83642027151738    0.80573435138963    0.37961985445872
    0.63818985068068    0.47683110740882    0.34812398172242
    0.82896503514151    0.22476675164998    0.89649221006894
    0.08145466181248    0.72781795743081    0.78275559849775
    0.27139015275264    0.84490333801263    0.99201692754305
    0.27543370861553    0.84421622339058    0.11186390455223
    1.01666916302262    0.57806416600328    0.09496079920164
    0.65682964262669    0.14477781323944    0.09544942982031
    0.43981960958691    0.34563836105710    0.21826475407093
    0.82218902959860    0.14798060027953    0.22354241999033
    1.00900765227515    0.78074309924145    0.24051567667452
    0.72241138228243    0.80377978397051    0.72312422090404
    0.34453633530101    1.04788323916330    0.74043700569934
    0.16496927683300    0.47309550646820    0.74082492731064
    0.42238661171028    0.48961805398805    0.74099868140802
    0.18303049050452    0.76077451199774    0.73912667000812
    0.62310415778787    0.94268643849603    0.71587487511021
    0.75225438907184    0.63098468684346    0.22562622986714
    0.59877238227449    0.51941920849806    0.05941987490957
    0.95980627175678    0.40587821531719    0.22583748647805
    0.48523027685658    0.26371345399364    0.38076112270731
    0.87324660037628    0.31156708762207    0.38040704372277
    0.83573017260045    0.66152462793891    0.37884390298738
    0.66193686351288    0.88655220519981    0.87809123893212
    0.28686876690079    0.88221126830379    0.88413166312487
    0.30890496087758    0.51099857386440    0.88537588129479
    0.27256814207557    0.47495196343267    0.59936482680962
    0.26525763965588    0.88526314590909    0.59214039489133
    0.62455806340334    0.86729906906944    0.56018262845298
    0.87591333015474    0.67262825582932    0.08026052271409
    0.88032362613861    0.29093743109729    0.06457737202251
    0.51531927909852    0.27479303545320    0.05370889842186
    0.51858592131619    0.20393178592979    0.21735129314531
    0.49996512518541    1.01274148276245    0.60469182807933
    0.12267211274907    0.59829780897157    0.58100587311708
    0.54024011622211    0.61554701718738    0.58621019899430
    0.24753237482697    0.80900881821000    0.05274424778080
    0.76696245069920    1.04813579115262    0.90430460980528
    0.85971275388177    1.03091417404815    0.88280638039628
    0.79874088906454    1.02490401836129    0.86200188160062
    0.47569810774861    0.90373461679453    0.81416282940944
    0.70107156058446    1.05048561253397    0.74340093047271
    0.63049739837366    0.89070867928804   -0.01692014302670
    0.62281169967290    0.88118718350055    0.10261042994066
    0.61050120615589    0.90635055262664    0.04232759541308
    0.42229801195539    0.40544361762622    0.49408606779676
    0.69863190090190    1.08132589998778    0.47568613693935
    1.06072834277650    0.72396820380593    0.47923416789174
    0.73616573488503    0.73493734139990   -0.01811564666005
    0.46822519989240    1.08821864243423   -0.03191565091233
    0.07932321431126    0.43886163112807   -0.00047099714185
    0.68045193391829    0.69703329401122    0.46893418799029
    0.45674573976152    1.08459013324938    0.47277384726378
    0.06947123022431    0.46232553883809    0.47599430350344
    0.44699327165557    0.42916297760316    0.96240884304755
    0.69844451740345    0.07630063392480    0.95783440993618
    1.09242230487398    0.74581080568114    0.99851714095391
    0.55749284828200    0.49557926296893    0.38653258125407
    0.64931770974373    0.15342182147561    0.34858597601369
    1.00383544711769    0.59877829975439    0.35588301542124
    0.58699587731112    0.64490439236771    0.88269340715887
    0.50822841273140    1.01364320965487    0.83659074349642
    0.14794228564814    0.60804101198374    0.91643273101348
    0.23440324024862    0.24677281774445   -0.06613618559026
    0.34611215904690    0.33160538886821   -0.03621488098990
    0.44674268486080    0.09437230694619    0.24952906618068
    0.24472572018935    0.47543260459509    0.37159231239246
    0.37011176447768    1.08794748598532    0.96040670760254
    0.27624785362834    1.10062908550707    0.98804464619537
    0.30699130119957    1.07918104878228    0.94323683037572
    0.42043655995489    0.91230183262394    0.80754790607409
    0.44028779118734    1.14954810657710    0.75202994173587
    0.32266243945759    0.91599140538177   -0.01036742636027
    0.32672777695119    0.91415934748728    0.11017318306480
    0.35041895053644    0.95003927167902    0.04990200527663
    0.08510286606524    0.34557894006201    0.96995638337008
    0.07073258165732    0.23260644379113    0.96746618520294
    0.09951545821660    0.29876497546085    0.94027895242266
    0.25274814789101    0.62659471052571    0.90602226397201
    0.67497314154287    0.82541093555617    0.04528183757537
    0.07365573811682    0.38310043093340    0.78678949852904
    0.26222192288950    0.47246640002809    0.11040429080415
    0.23065222833418    0.46835764450865    0.05001522265220
    0.32206816521770    0.34318807359116    0.54487940965469
    0.20683645210593    0.25868409586131    0.56353191094912
    0.26412936844074    0.31920359653697    0.58311113414066
    0.46196266632687    0.63773537940397    0.62537493430448
    0.50026761200273    0.46674117577778    0.70287816795292
    0.30870544503409    0.48487183107107    0.49341517680951
    0.31089955050229    0.48668710246609    0.37326583124850
    0.34302509428300    0.49154465402887    0.43364437539969
    0.09001552422294    0.83037969667322    0.51493139355140
    0.10617625951838    0.94493295540095    0.51508562011373
    0.26833968877043    0.48488947015003   -0.00932351665664
    0.65409731772195    0.84048837436342    0.10376174858178
    0.66349408675486    0.85062325359282   -0.01579287533063
    0.71110037295482    0.70370989256586    0.76266818817408
    0.20820020409983    0.22175689840606    0.50776034518375
    0.26511030736409    0.24601662673882    0.46858498097425
    0.57816204653043    0.41551193185217    0.34603400229119
    0.46521585279630    0.45121760039129    0.24967460948451
    0.49689609522551    0.30009660233785    0.48645409922582
    0.52652089534665    0.31499466481186    0.60245162890618
    0.49388844615324    0.32568441433859    0.54837989525389
    0.79681527550714    0.08167811207038    0.47705053975207
    0.88463864607954    0.05908559678086    0.50947620630401
    0.86123299937611    0.09170433386369    0.46620204612144
    0.73266952435543    0.25624761444026    0.31279047311276
    0.73371481118927    0.05358344643356    0.26710435468739
    0.85495763286110    0.27261495961092    0.48749995600985
    0.87314893972826    0.27151101159616    0.60588919592210
    0.21022889465654    0.46949073083146    0.43067777185116
    1.05058249676888    0.81742462794133    0.45551174953831
    1.06520019479400    0.93067117468024    0.45800721063640
    1.03725052751589    0.86738679381954    0.42769838136952
    0.90620993406067    0.58069856381608    0.31250760227757
    1.11358734125010    0.81652762811373    0.27934686958330
    0.87994374756640    0.67472737772204    0.48209980562222
    0.88939914456535    0.67468916063908    0.60176959676884
    0.91992759704638    0.68981886950949    0.53895003082342
    0.82982623332509    0.83877679636523    0.99114214659886
    0.92948462435101    0.93284427283524    1.03627021890777
    0.88222292526786    0.90741521250304    0.98560323862369
    0.57653730003462    0.73275723398638    0.83951239062213
    0.11845610881892    0.89495478409952    0.54428431446150
    0.23032765324791    0.68044089380127    0.56664907841008
    0.84405034759305    0.23529330765806    0.54783887791935
    0.24486788872340    0.83951408217587    0.48942925148805
    0.55408124950588    0.27526588990123   -0.04934820545354
    0.57327415801197    0.29409469917314    0.83257719408253
    0.57675285026171    0.26136695290863    0.89204279773465
    0.77482747524910    0.79945681659040    0.48122298508562
    0.88253694811836    0.89844108947897    0.46090353936315
    0.82667689789935    0.86370691453196    0.50157426087296
    0.52241660496988    0.69901293460485    0.62324876402061
    0.69622285618563    0.69680239528681    0.69514732471396
    0.63328391576211    0.83322190764609    0.45789042743740
    0.63997695722611    0.83093519424567    0.33847031293455
    0.64859498413730    0.80838000441263    0.40169928537166
    0.35944288218471    1.08543613688344    0.48048191696268
    0.68467749536347    0.24988000823170    0.13097626898177
    0.26354268385459    1.09558945224823    0.45157325264599
    0.41151424387831    0.91189267923699    0.63784928931842
    0.42828157422652    1.13803863734819    0.68422391085271
    0.29684580846991    0.90990102518679    0.48359140201254
    0.29665495183870    0.89767236984827    0.36447067752347
    0.32277009821651    0.93855026532523    0.42041875280784
    0.06322651852841    0.35862725485282    0.48781209230832
    0.04148563836882    0.24491320904413    0.46505763257690
    0.06808979628938    0.30047411358514    0.50712481880201
    0.22732912163968    0.61714896377875    0.56892499175510
    0.06644035109452    0.37878665341402    0.71804030419528
    0.24203341508568    0.47431555828737    0.49172641195686
    0.07570625211513    0.72730142808417    0.71384608861432
    0.29766940121916    1.07853230797439    0.49877469331691
    0.36926846554854    0.13844835403080    0.06746347744863
    0.45317095023276    0.09630701659170    0.18071001116175
    0.40083345436765    0.11688570591156    0.02307922232023
    0.24692802632437    0.82780776580022    0.37107097609533
    0.22050100580894    0.79828091348856    0.43306789884980
    0.75646969661166    1.03902519602377    0.53171673863165
    0.84457846808060    1.01623886250017    0.56307789543401
    0.78042018530457    1.00611766779304    0.57458066862804
    0.46412524302948    0.90062706047631    0.62535185059579
    0.69408504892161    1.04907576933475    0.67464264755089
    0.61011909840714    0.88187825932719    0.45051218379185
    0.61609213676427    0.87804582448887    0.33131174619291
    0.60175403895830    0.90428554754919    0.38657722841022
    0.82555870012003    0.79649524103965    0.04830745817559
    0.30689016205304    0.13035140474323    0.04937023966141
    0.87413844808070    0.82198834271334    0.09831667379022
    0.67057946955586    0.48621537891602    0.09861168525586
    0.92646417810638    0.89026382452595    0.09153867814160
    0.72390773339899    0.70790443068606    0.18505240627958
    0.92214493615372    0.36903977103533    0.89832628586223
    0.89978843414530    0.33429445995155    0.83804043219598
    1.06374429943414    0.43128627353580    0.19630359074826
    0.90901520409816    0.50007238858201    0.11450795009614
    1.01302368075718    0.25890169977609    0.05330076111688
    0.89744950468960    0.33125256878820   -0.04203156024216
    1.04177423541217    0.32633828363131    0.02686298982362
    0.82025611742809    0.66201584632147    0.90796621295586
    0.86111246932422    0.68584443573875    0.85153485439767
    0.85020242684673    0.66770964767511   -0.02953770435266
    1.02812048283766    0.21257621012894    0.02351391473849
    0.60301408257992    0.90365753618601    0.17702628714494
    0.97585869614310    0.17506779606210    0.35416025637756
    0.89790507762338    0.99813119703278    0.83412449544468
    0.15651602777925    1.03802251729352    0.89504494890560
    0.36841224509956    0.49866767374917    0.18962449592040
    0.16647787787373    0.26233369835615    0.82865717062786
    0.24795249630550    0.14575391299827    0.33190853312704
    0.95651949955626    0.91697613453231    0.34940866777238
    0.24522395131332    0.80188149860545    0.18789960959707
    0.66241836826040    0.80253499977784    0.26939414886238
    0.59529529073576    0.27362532251680    0.75808104238558
    0.26667392299152    0.15711538813854    0.10264331814673
    0.93018715855644    0.38035699571732    0.76370372180432
    0.98989735773906    0.92151104302529    0.15019664684686
    0.87439038921529    0.97436481554227    0.61450985198563
    0.13213834849365    0.23224675976941    0.60472321216825
    0.93946789063305    0.68862389811632    0.67092241282648
    0.20443080573644    0.46751689394233    0.29624399924196
    0.84193187368164    0.78340013829077    0.33442972490640
    0.68635325688834    0.48793044875743    0.32817978682538
    0.69406004515963    0.72760847233181    0.28303510051551
    0.79872186914181    0.63886943788935    0.65867689753201
    0.72534154472467    0.61266050530986    0.55658784268528
    0.98182726322255    0.30470594074847    0.33662861356450
    0.86201687365158    0.46765578256067    0.30571966311529
    0.37052195864760    0.14392312772774    0.31742335047913
    0.93239176675609    0.37033212285241    0.65092365405312
    0.95365487309670    0.43765961630275    0.54375146423572
    1.01522464103263    0.74504458184150    0.92388064186317
    0.66842469996684    0.30410570130850    0.30221459120488
    0.42189896049564    1.04836943061021    0.28149479714192
    0.58382059605840    0.26951959279515    0.64030681643259
    0.10481789424547    0.45345689711300    0.29899076713420
    0.96037708926583    0.73392555386299    0.81178661335022
    1.08705512400034    0.99293945134512    0.01822805761527
    0.88016747371183    0.57528602467389    0.14697040101030
    0.15899374399376    0.45878556348879    0.42857292768339
    0.18948226866293    0.19713247389667   -0.05818067523453
    0.28761527139963    0.23585029073661    0.01907168042607
    0.59308996755618    0.37793972993335    0.11889582003443
    0.48817683960619    0.49692188178712    0.14650790015991
    0.54632502455472    0.36385681763899    0.78419223380661
    0.50116296445595    0.38554193517491    0.88864809039925
    0.93703224318274    0.06530319543733   -0.04189479732557
    0.87839011120429    0.10366686286909    0.03604367426152
    0.79077980678414    0.28141058374159    0.15016527893488
    0.69284011240136    1.00614452605359    0.16927199334254
    0.83883985559548    0.23757797957981    0.78936108848715
    0.79333529488472    0.17004814615055    0.89653156324073
    0.58641398860286    0.21913852524696    0.53094214844720
    1.04808509405109    0.88443224628493    0.08732207989027
    0.15079225577846    0.79633933790934    0.18601679533510
    0.29478258269460    0.38473382578880    0.82238491485580
    0.17528844833063    0.92259622714462    0.87306288360153
    0.55673285046386    0.48973682382907    0.79895368137598
    1.08120905035266    0.69243324465075    1.00218792491613
    0.46852335627560    0.25179781618008    0.32929949695093
    0.88073452846823    0.31299451759914    0.32673902564321
    0.83134936487631    0.66588061555887    0.32489359055177
    0.67339399916018    0.89879748922038    0.82522857811239
    0.27853654972234    0.88313736844682    0.83030807770230
    0.65369515765023    0.07865924127270    0.97010364179678
    0.31218790814466    0.52301814558155    0.83193879937220
    0.26465233499179    0.88908435206235    0.64630506022725
    0.63215376074956    0.87781391788987    0.61330305129866
    0.87049294696910    0.66940105775087    0.13449168055727
    0.88854633266586    0.28911749441498    0.11817805703424
    0.49873807214803    0.25939089369196    0.10524135837863
    1.02295053882670    0.34048665134516    0.69099606868048
    0.27184411459700    0.47375423530644    0.65376466083627
    0.49781261012474    0.46820605888405    0.97563724791352
    0.08106066009138    0.51474863380398    0.48522387051240
    0.50092126732005    1.08082088820959    0.48557238011321
    0.42108368533434    0.52188177565718    0.05573287941628
    0.29995175754915    0.74067748462916    0.89821035284625
    1.04220952567910    0.71219449308749    0.81994770503575
    0.20700411230980    0.75594072332048    0.05463300485809
    0.77601986687286    1.00055927789978    0.81532901927280
    0.47860537000504    0.85747298792213    0.80604457542847
    0.73250347924390    0.09537651064135    0.77324248441413
    0.58981278459069    0.94055635613899    0.04220312859423
    0.47247346762827    0.44708235789149    0.48256522580477
    0.65724511915822    0.08845285175551    0.45954716964529
    1.05903497782930    0.67478133636774    0.47509543417040
    0.68839264579155    0.69353577092225   -0.03583168995753
    0.51150357120334    1.08321071840857   -0.04408620028336
    0.08894168587121    0.49177484932769    0.00008450231781
    0.63071314107309    0.65295924290062    0.47751249029045
    0.46686811862137    0.66970070346082    0.82157050243431
    0.26886596191716    0.60700018329181    0.57074003653880
    0.71612485467729    0.49022987370539    0.11968699715631
    0.04486613680229    0.19938258645913    0.47824877506033
    0.70753737123506    0.66416455626133    0.79802901893442
    0.66219755581522    0.82235888318578    0.15207143098166
    0.70138863422048    0.79672759856314    0.04555565847399
    0.22728016127006    1.09434248189221    0.97711816543751
    0.28339209161138    1.05509324099184    0.89661023650378
    0.36940034191239    0.87332528069912    0.79534568165013
    0.58883507132153    0.78295173610212    0.81852134007917
    0.48634615775149    0.18880596231023    0.77487799288596
    0.38868621526680    1.00387863361220    0.04782449145288
    0.08038799354398    0.19458797160842    0.94555716627986
    0.13258285130322    0.31492640112318    0.89731576519487
    0.29307287747769    0.61620722761579    0.89571583906084
    1.03750310519983    0.34980706968504    0.82445684078669
    0.23525572135355    0.46162066885838    0.15743598913754
    0.34584149920844    0.93871081985932    0.15789365462184
    0.88452548057498    0.93864448444224    0.94214453269376
    0.96838472197416    0.98683221399627    1.03542069102367
    0.97377636131368    0.71354682816318    0.53540918034159
    0.09318018713731    0.30038368686681    0.55337157483531
    0.16388250335903    0.17271951489752    0.49724300264996
    0.26607113454218    0.21914587239288    0.42466647146228
    0.56936593080067    0.36831566632980    0.32318755343819
    0.47177018182655    0.49281884814188    0.28122306750592
    0.46544348283576    0.35161859014403    0.55483250960914
    0.93433227031811    0.06593459223484    0.50291208712563
    0.89105792755940    0.12442982567527    0.42470718380488
    0.78192597511497    0.29682717946176    0.29678032111106
    0.69581828521945    1.01966414674055    0.30315237616981
    0.81482702058557    0.17959003779843    0.54897677242840
    1.05640595648262    0.97092954026732    0.43753065690511
    1.00590984680115    0.85594231498236    0.38356007450182
    0.86719690800363    0.59020643518262    0.29300099843372
    0.15524367138033    0.83283138432063    0.31399333765110
    0.17783116007591    0.45184149538598    0.04733368828952
    0.26311964404478    0.34723656342345    0.62599306321567
    0.37955139179716    0.39777803581969    0.35967038014963
    0.52705239924453    0.45120639517460    0.66961447420255
    0.95984341522859    0.42327065490651    0.89864428655780
    0.39245312305453    0.16164793817820    0.11437077784609
    0.67993230615497    0.29402947312336    0.14417263954710
    0.43283694967770    1.05271787524340    0.14762332918093
    0.59252048990592    0.22305415499717    0.89155235123754
    0.92364079501449    0.94823133338528    0.47510723858796
    0.82188939079650    0.88458244076309    0.54810124392160
    0.53282744080020    0.74948534159029    0.63945020885207
    0.67798372993636    0.65080478603026    0.66564561980617
    0.66993426433082    0.77503391785156    0.40628480842649
    0.21548520618718    1.09047656391552    0.46395081497910
    0.36124217873420    0.87401814211916    0.65442720251982
    0.46175949732010    0.16799265085600    0.64327534422328
    0.36173421197288    0.99183063073081    0.41491025889560
    0.41423043013134    0.62857500927061    0.64498111836594
    0.10628286208327    0.44190961619191    0.16509319321487
    0.86361695677558    0.45047121752649    0.12112529706438
    0.27768611746068    1.05999346303944    0.54864511778185
    0.76663098923496    0.64108411174901    0.90365424438935
    0.97958072131276    0.24270283510791    0.09601536924735
    0.39374273849670    0.50043741518230    0.43608089967425
    0.33581976837204    0.49080641254903    0.32616392412072
    0.27469977666077    0.73139954353961    0.56633021806515
    1.03025223969370    0.71209623574298    0.68429044549131
    0.22930284930535    0.79723215403466    0.32633889087366
    0.18087434543867    0.74498419455034    0.43817147083399
    0.15077772228303    0.90678669274787    0.58762113975601
    0.46509481416472    0.85274628586012    0.63185438296285
    0.71996368611526    0.09260113752093    0.63973785446949
    0.60950879745588    0.89361314534531    0.28115545593507
    0.58625751297452    0.94272033316599    0.38191317114929
    0.87104775977353    0.79053381199645    0.14185117803245
    0.75012285609436    0.97299484607670    0.61550479768770
    0.71207725819951    0.73768342740681    0.14921260800690
    0.34476552441235    0.31281159472844    0.32477412781922
    0.48767221325440    0.16112558624513    0.27181225442850
    0.52376391300365    0.24177627618010    0.41318708685819
    0.41211337943542    0.43426521545613    0.90934944136425
    0.52073814076888    0.62146243249582    0.86868990114791
    0.12392460299700    0.78990160524517    0.94613058694773
    0.36074813019465    0.51956393353038    0.92493495639187
    0.14793887612081    0.74884395987711    0.79754713885631
    0.25131993824553    0.82659491499541    0.92513223641643
    0.62382507388960    0.19665379696653    0.33863672788793
    0.70586747843136    1.04932373937419    0.90069222208354
    0.46622167470580    0.49915184470319    0.79192965234815
    0.44650118957399    0.10654019669391    0.41206756642760
    0.71900115249163    0.70677024923697    0.41439071244222
    0.99861082908897    0.42293748387712    0.28248796334910
    0.96348068205856    0.52932710634120    0.34715823623882
    1.03833137546897    0.42677316542516    0.42038195101843
    0.78348272226250    0.63633678559675    0.42295123324136
    0.73143249603100    0.65415446464345    0.27808787654472
    0.62484866657935    0.52599720405391    0.37326392652140
    0.93482515533722    0.69865165558874    0.04626196371343
    0.98455514974764    0.61262874624105    0.11466738953422
    1.07143514577444    0.77648000743612    0.04276535848623
    0.84244361485030    0.23547709422395    0.02545715359564
    0.78746548180568    0.10557610631169    0.17170481636250
    0.72345605753349    0.17781870509872    0.11227901002939
    0.52954214321391    0.96655673210403    0.83301132102897
    0.90399409109205    0.36831461271339    0.41884568811744
    0.65659130194450    0.98457388978506    0.76847062340108
    0.72695251612377    0.87096901057837    0.72072429362635
    0.52086068973745    0.53236884197941    0.39547648976216
    0.13950128825628    1.01510217703799    0.54101259101819
    0.99915896214615    0.14114965618744    0.04925759587846
    0.52435637016461    0.34216026620132    0.66800719631512
    0.86942582972802    0.23455581048044    0.66928438786835
    0.31680754601762    0.92882404693571    0.29672010575141
    0.83186248205575    0.68296830604717    0.78481703104842
    0.57005469547625    0.27648735487453    0.21941434082366
    0.88882040661395    0.38443424679894    0.22132513184848
    0.77212741745239    0.57834843209146    0.22852513200254
    0.57149138786544    0.87007619993460    0.72212455201813
    0.25339103888585    0.77952859423391    0.73408164265089
    0.36691305996441    0.50375215702574    0.74511305451887
    0.22884516605720    0.53748783886543    0.73490006497333
    0.29532637741989    0.97606875274415    0.76176090014624
    0.75236201994597    0.09338902562777   -0.00120198546000
    0.93511765084745    0.74170011198530    0.24828351605742
    0.88007176498465    0.21713082093661    0.21686840886656
    0.41896587139341    0.27275705878480    0.21988392991650
    0.61753161187209    0.07429976890963    0.07272738281600
    1.08803124336680    0.60739825319263    0.08191777682500
    0.57162347745587    0.56553861378327    0.04876127399518
    0.54333993618867    1.08581759243353    0.58842912488541
    0.05074999838898    0.56520963117084    0.59288505696697
    0.57370826788676    0.57675358474782    0.57031752554551
    0.07518040667650    0.57602853866705    0.91881956659927
    0.54968092150404    1.08586062801213    0.85378014822438
    0.61441682324099    0.59932598561822    0.89622004896631
    1.07122628392634    0.63093119970990    0.38442409159180
    0.60922193150904    0.08070031874595    0.36835630749036
    0.63014367186893    0.91117408506223    0.91534230171857
    0.50323942936252    0.31855900960061    0.01470559994917
    0.19128535498492    0.67772429809072    0.91443837120088
    0.56319497777844    0.44948081902401    0.07285409732765
    0.32544845026238    0.48471482872013    0.56124099112505
    0.44306891583501    0.47025592424977    0.68573770175596
    0.47365712271383    0.58672328914616    0.60180323666345
    0.38571407847846    0.40364310432926    0.54742079229363
    0.25286741497808    0.48993555016325    0.92333053927583
    0.13465336727266    0.44161227946486    0.80020138141270
    0.18536988636121    0.57611309492833    0.91062676087340
    0.10687487810375    0.41525019020534    0.95495210650217
    0.33058426410496    0.93710777066433    0.92122110312674
    0.38904171325879    1.09292054141958    0.78656914411493
    0.44099961873480    0.98051051425914    0.82203112532743
    0.41373813394440    1.07133060121353    0.92822995312430
    0.68194425597495    0.84928924502510    0.91762780441786
    0.72714699920882    0.77015545691820    0.77953937364396
    0.62188261959969    0.71423623632367    0.86592621961117
    0.77329665339671    0.79823897172523    0.95123116728951
    0.89438253642510    0.68513296717112    0.41245282923464
    1.04950226122265    0.80307881569699    0.29694538807880
    0.96864008783667    0.63085024588525    0.33522857332380
    1.03374424038744    0.75108944350720    0.43518728762131
    0.84264181440822    0.25325364002841    0.41939615050729
    0.78875686081428    0.11722896203685    0.28210765203940
    0.71672909751247    0.18998037875561    0.33414141982565
    0.75884340789887    0.10661951146360    0.44378390740655
    0.46862176274484    0.29956589821293    0.42270723926356
    0.44474252659463    0.38423226798600    0.27223921160347
    0.52862469838644    0.42738366894981    0.37039172926182
    0.38610391086227    0.34816109795422    0.45696961647920
    0.45710952801619    0.38760902049353    0.16224692143092
    0.09338023494844    0.76956521782004    0.52840906998030
    0.16513849145048    0.66793954892262    0.57359982968469
    1.04655807245327    0.77543557967602    0.18966206699057
    0.22694069646945    0.82680216656469    0.55748198011607
    0.40844233367949    0.36805289530757   -0.00364206672635
    0.13866440994313    0.74776523159679    0.68746317613496
    0.22201288784303    0.46922557616259    0.55943242856242
    0.12326181333473    0.43501145066206    0.68996049223734
    0.16058114489096    0.56665684343481    0.57840645332487
    0.08502536801385    0.42265297839446    0.51727168926574
    0.30795637329707    0.93618637808948    0.54943920264427
    0.37009917319245    1.07429882903768    0.67699896023999
    0.43402097577427    0.98146827399150    0.62421697797120
    0.64106829484152    0.82546704231888    0.52760970459365
    0.70280524601470    0.75888038851384    0.67131232938292
    0.57039395022472    0.68475946637626    0.59867070592519
    0.71256605917409    0.75223785343060    0.50956946350600
    0.54667734900066    0.24893164143502    0.01731669054851
    0.40492246123118    1.07126669411418    0.51476546458192
    0.63310785051576    0.18900978850939    0.10568576566373
    0.69562401974413    1.04054094440175    0.52840987005272
    0.49801039892444    0.16420331302949    0.16140504308817
    0.64551562391945    0.98235857821572    0.65803785675504
    0.60530930501693    0.90145734700574    0.51559121871708
    0.76604641809765    0.73236242642429    0.04009076008287
    0.66452827293327    0.54171689899994    0.07459601017843
    0.74726031516060    0.66360773728553    0.16854762363050
    0.51826711512672    0.96315913437942    0.60392072290958
    1.03970189088604    0.38697187357710    0.04352176611078
    0.46152540574293    0.11496817046179    0.02554771169231
    0.97051089530847    0.50899382650138    0.09442280592523
    0.99960320009747    0.41148947652858    0.17286069791180
    0.91270105507762    0.34897257176865    0.02592860346122
    0.82447403869444    0.65308205878487    0.03636017218691
    1.05036689680250    0.61281341874888    0.93178606044626
    0.38049650897262    0.56370132084783    0.75749953003802
    0.57502550900600    0.53707978713283    0.90926502591888
    0.58220907780056    0.30621705970650    0.27385610519087
    0.56235512742313    1.06320822350531    0.40897780761763
    0.08252501144818    0.60036002102680    0.43168920246136
    0.77040434794736    0.55000536702422    0.28360231182371
    0.55118950669936    0.59197723270125    0.41738791116042
    0.90359186127508    0.68193584086454    0.22666786744645
    0.12617253708533    0.67020600796700    0.09049192304560
    0.28596036716447    0.78759648547416    0.78667311370644
    0.85837115243923    0.38388343933737    0.27254166619302
    0.60149117939282    0.10347199217295    0.88763241325548
    0.33328168227536    0.35402953197584    0.33814944374850
    0.78076600086101    0.62875637267950    0.76803322782657
    0.85932505204072    0.73515272105390    0.74713990074192
    0.37523910010622    0.94953134532718    0.27757716204519
    0.27441518800809    0.93364047016499    0.26087737562820
    0.92274153826463    0.25170194808134    0.70029701040547
    0.81366653424131    0.18815468876681    0.68990365863839
    0.47235686949653    0.31034864232970    0.70244190850446
    0.57454287131285    0.39617560241707    0.68680735115472
    1.01700283264474    0.10257953854175    0.02344572991405
    0.95656941222019    0.12090987531169    0.09489765331046
    0.12588999923324    1.05807641311044    0.51493099817017
    0.18167216477714    1.02981943620276    0.58670079616549
    0.91950162629216    0.23043835299725    0.16938718726224
    0.55841330359410    0.84213680873857    0.77898795542368
    0.63425571492730    1.03159817779248    0.09205572521657
    1.01976053068343    0.50271770151230    0.60918774330584
    0.50997711524305    0.54091978118518    0.05366709308843
    0.46043475335525    0.50273075277582    0.37962992140591
    0.42801112168012    0.24740842258355    0.16913770130025
    0.62351580646071    1.03872705395803    0.34457189401965
    0.88787978473335    0.26058633287498    0.25877517024646
    0.11490324991290    0.68815238807140    0.36129371238944
    0.90655694916786    0.77063476192454    0.27414567237346
    0.67620023132035    0.62396031072451    0.89267375455267
    0.74975038707915    0.90865106825187    0.77000678509307
    0.53159057638013    0.12762767650494    0.83484110399161
    0.29959089441109    0.92756874022184    0.73729618607842
    1.04055106164756    0.51325992849975    0.90790453048800
    0.25686233706155    0.56811549095370    0.78697427710910
    0.30843404969487    0.45529443902848    0.73715630148699
    1.02280746302287    0.60057005868218    0.58584445792808
    0.39302177039528    0.23853575094043    0.27215568350237
    0.59435314106293    0.10396075654137    0.55356463725844
    0.25337359590874    0.55964771833533    0.67836409866077
    0.27871344766985    0.78717956817573    0.67754624976857
    0.25038727453628    0.96653423556042    0.80272952616455
    0.52767878572969    0.12783323287424    0.60943137215660
    0.70720028601228    0.88816141379438    0.66946912704839
    0.63506661792691    0.60355298983173    0.58103883214809
    0.53973862971935    0.51786544818723    0.54737758248320
    0.56913450046322    1.05929038636074    0.03433274473935
    0.86068105865306    0.36702711514364    0.16598794806664
    0.10834345487859    0.56843856229060    0.06283378894018
    0.79027640118312    0.56340523616803    0.17605796393607
    0.54222118570686    0.83818213110704    0.67087817525952
    0.60034263969403    0.30633868453220    0.16679431755450
    0.61101283449445    0.62799909434020    0.03680527952187
    0.46845161228703    0.36835487028372    0.06819187234565
    0.78738099511977    0.14775408508886    0.08093069016130
    1.00861986863306    0.71301134515418    0.11135420367018
    0.52981640934485    0.17109987622118    0.36078618969167
    0.97686941468257    0.44946925769531    0.36878428631931
    0.44078081267997    0.52880946271691    0.87454236328452
    0.16732639344084    0.74913316519929    0.89304626969692
    0.61955609236324    0.97982335266370    0.85882928093071
    0.70275936546004    0.62091729599896    0.37136907591452
    0.14121562795493    0.46935675247908    0.59504377345848
    0.54482278586005    0.17464737803918    0.07583796823888
    0.66361342973854    0.76358795398243    0.58333035551334
    0.98264456952580    0.42636633662882    0.07817179319835
    0.73978426168422    0.63776842738961    0.07449667238880
    0.60479590329293    0.97583240660236    0.56779330973704
    0.40695754148274    0.48590602438026    0.59991981903461
    0.16811197420616    0.48205632674690    0.88914841639528
    0.37781715490652    1.01329500963767    0.84875954722490
    0.71798945187965    0.79527089685509    0.87263880105845
    0.97667294638756    0.72288655082728    0.35343391709348
    0.78904749282367    0.16857011478626    0.36364572602168
    0.42910419554890    0.35100231492640    0.36969222538519
    0.37330025174611    1.01925035288138    0.60081507738096
    0.14607869647754    0.74327865401958    0.58994201500951
