# Zn-MOF-11
1.000000
 27.4038000000000004   0.0000000000000000         0.0000000000
 12.4952791807587236  25.0561768670900307         0.0000000000
  7.9511529046443892   8.8547108585519627        40.5768290912
Zn Zn Zn O O O O O N C C O O N C C N C C O O N C C C C C C N C C H C H C C C C H N C H C C H C H C C H C H C H N O C H N H H C H C H C H C C C H C C H C C H C H C H C H C H C H C H C H C H C H C H C H C H C H C H C H C H O O O O N N C C H H H C C H H H C H H H C H H H C H H H C H H H O 
8 8 8 8 8 8 8 8 8 8 8 8 8 8 8 8 8 8 8 8 8 8 8 8 8 8 8 8 8 8 8 8 8 8 8 8 8 8 8 8 8 8 8 8 8 8 8 8 8 8 8 8 8 8 8 8 8 8 8 8 8 8 8 8 8 8 8 8 8 8 8 8 8 8 8 8 8 8 8 8 8 8 8 8 8 8 8 8 8 8 8 8 8 8 8 8 8 8 8 8 8 8 8 8 8 8 8 8 8 8 8 8 8 8 8 8 8 8 8 8 8 8 8 8 8 8 8 8 8 8 8 8 8 8 8 8 8 8 8 8 8 8 
Direct
0.4300650000000000 0.1150650000000000 0.2027050000000000
0.4300650000000000 0.1150650000000000 0.7027050000000000
0.4300650000000001 0.6150650000000000 0.2027050000000000
0.4300650000000001 0.6150649999999999 0.7027050000000000
0.9300649999999999 0.1150650000000000 0.2027050000000000
0.9300649999999998 0.1150650000000000 0.7027050000000000
0.9300649999999999 0.6150650000000000 0.2027050000000000
0.9300650000000000 0.6150649999999999 0.7027050000000000
0.4451749999999999 0.0881550000000000 0.1225100000000000
0.4451750000000000 0.0881550000000000 0.6225100000000000
0.4451749999999999 0.5881550000000000 0.1225100000000000
0.4451749999999999 0.5881550000000000 0.6225100000000000
0.9451750000000000 0.0881550000000000 0.1225100000000000
0.9451749999999999 0.0881550000000000 0.6225100000000000
0.9451750000000000 0.5881550000000000 0.1225100000000000
0.9451749999999999 0.5881550000000000 0.6225100000000000
0.4856350000000000 0.1041200000000000 0.0382600000000000
0.4856350000000001 0.1041200000000000 0.5382600000000000
0.4856349999999999 0.6041200000000000 0.0382600000000000
0.4856349999999999 0.6041199999999999 0.5382600000000000
0.9856349999999999 0.1041200000000000 0.0382600000000000
0.9856350000000000 0.1041200000000000 0.5382600000000000
0.9856350000000003 0.6041200000000000 0.0382600000000000
0.9856350000000003 0.6041199999999999 0.5382600000000000
0.4004000000000000 0.0591000000000000 0.2108300000000000
0.4004000000000000 0.0591000000000000 0.7108300000000002
0.4003999999999999 0.5591000000000000 0.2108300000000000
0.4003999999999999 0.5590999999999999 0.7108300000000002
0.9004000000000000 0.0591000000000000 0.2108300000000000
0.9004000000000001 0.0591000000000000 0.7108300000000002
0.9004000000000000 0.5591000000000000 0.2108300000000000
0.9003999999999999 0.5590999999999999 0.7108300000000002
0.0187450000000000 0.0494450000000000 0.1362300000000000
0.0187450000000000 0.0494450000000000 0.6362300000000002
0.0187450000000000 0.5494450000000000 0.1362300000000000
0.0187450000000001 0.5494449999999999 0.6362300000000002
0.5187450000000000 0.0494450000000000 0.1362300000000000
0.5187450000000000 0.0494450000000000 0.6362300000000002
0.5187450000000000 0.5494450000000000 0.1362300000000000
0.5187450000000001 0.5494449999999999 0.6362300000000002
0.4372850000000000 0.0360700000000000 0.1033150000000000
0.4372850000000000 0.0360700000000000 0.6033150000000000
0.4372850000000001 0.5360700000000000 0.1033150000000000
0.4372850000000000 0.5360699999999998 0.6033150000000000
0.9372850000000000 0.0360700000000000 0.1033150000000000
0.9372850000000000 0.0360700000000000 0.6033150000000000
0.9372849999999999 0.5360700000000000 0.1033150000000000
0.9372850000000000 0.5360699999999998 0.6033150000000000
0.4273800000000001 0.0775150000000000 0.0504950000000000
0.4273800000000000 0.0775150000000000 0.5504950000000001
0.4273800000000001 0.5775149999999999 0.0504950000000000
0.4273800000000000 0.5775150000000000 0.5504950000000001
0.9273800000000000 0.0775150000000000 0.0504950000000000
0.9273800000000001 0.0775150000000000 0.5504950000000001
0.9273800000000002 0.5775149999999999 0.0504950000000000
0.9273800000000001 0.5775150000000000 0.5504950000000001
0.4465050000000001 0.1786350000000000 0.0460300000000000
0.4465050000000002 0.1786349999999999 0.5460300000000000
0.4465050000000000 0.6786350000000000 0.0460300000000000
0.4465050000000002 0.6786349999999999 0.5460300000000000
0.9465049999999999 0.1786350000000000 0.0460300000000000
0.9465049999999998 0.1786349999999999 0.5460300000000000
0.9465049999999999 0.6786350000000000 0.0460300000000000
0.9465049999999998 0.6786349999999999 0.5460300000000000
0.4765500000000000 0.1054500000000000 0.3685300000000000
0.4765500000000000 0.1054500000000000 0.8685300000000001
0.4765500000000001 0.6054500000000000 0.3685300000000000
0.4765500000000000 0.6054500000000000 0.8685300000000001
0.9765500000000000 0.1054500000000000 0.3685300000000000
0.9765499999999998 0.1054500000000000 0.8685300000000001
0.9765500000000000 0.6054500000000000 0.3685300000000000
0.9765500000000003 0.6054500000000000 0.8685300000000001
0.4216500000000001 0.0437000000000000 0.0756700000000000
0.4216500000000001 0.0437000000000000 0.5756700000000000
0.4216500000000001 0.5437000000000000 0.0756700000000000
0.4216500000000001 0.5436999999999999 0.5756700000000000
0.9216500000000002 0.0437000000000000 0.0756700000000000
0.9216500000000002 0.0437000000000000 0.5756700000000000
0.9216500000000003 0.5437000000000000 0.0756700000000000
0.9216500000000002 0.5436999999999999 0.5756700000000000
0.0348000000000000 0.0563500000000000 0.1600500000000001
0.0348000000000000 0.0563500000000000 0.6600500000000000
0.0348000000000000 0.5563500000000000 0.1600500000000001
0.0348000000000000 0.5563500000000001 0.6600500000000000
0.5347999999999999 0.0563500000000000 0.1600500000000001
0.5348000000000001 0.0563500000000000 0.6600500000000000
0.5348000000000001 0.5563500000000000 0.1600500000000001
0.5347999999999999 0.5563500000000001 0.6600500000000000
0.3877100000000001 0.0988650000000000 0.1586200000000000
0.3877099999999999 0.0988650000000000 0.6586200000000000
0.3877100000000000 0.5988650000000000 0.1586200000000000
0.3877100000000001 0.5988650000000000 0.6586200000000000
0.8877100000000000 0.0988650000000000 0.1586200000000000
0.8877100000000001 0.0988650000000000 0.6586200000000000
0.8877100000000002 0.5988650000000000 0.1586200000000000
0.8877100000000002 0.5988650000000000 0.6586200000000000
0.4232000000000001 0.1629650000000000 0.0996900000000000
0.4232000000000001 0.1629649999999999 0.5996900000000001
0.4232000000000001 0.6629650000000000 0.0996900000000000
0.4232000000000001 0.6629650000000000 0.5996900000000001
0.9232000000000000 0.1629650000000000 0.0996900000000000
0.9232000000000000 0.1629649999999999 0.5996900000000001
0.9232000000000000 0.6629650000000000 0.0996900000000000
0.9231999999999998 0.6629650000000000 0.5996900000000001
0.4863500000000000 0.1148500000000000 0.4887700000000000
0.4863500000000001 0.1148500000000000 0.9887699999999999
0.4863500000000001 0.6148500000000000 0.4887700000000000
0.4863500000000001 0.6148500000000000 0.9887699999999999
0.9863500000000001 0.1148500000000000 0.4887700000000000
0.9863499999999998 0.1148500000000000 0.9887699999999999
0.9863500000000001 0.6148500000000000 0.4887700000000000
0.9863499999999998 0.6148500000000000 0.9887699999999999
0.3396500000000001 0.4510000000000000 0.0659900000000000
0.3396500000000001 0.4510000000000000 0.5659900000000001
0.3396500000000000 0.9510000000000002 0.0659900000000000
0.3396500000000000 0.9510000000000001 0.5659900000000001
0.8396500000000001 0.4510000000000000 0.0659900000000000
0.8396500000000000 0.4510000000000000 0.5659900000000001
0.8396499999999998 0.9510000000000002 0.0659900000000000
0.8396500000000000 0.9510000000000001 0.5659900000000001
0.3938000000000000 0.0104500000000000 0.0719950000000000
0.3938000000000000 0.0104499999999999 0.5719950000000001
0.3937999999999999 0.5104500000000000 0.0719950000000000
0.3938000000000000 0.5104499999999998 0.5719950000000001
0.8937999999999999 0.0104500000000000 0.0719950000000000
0.8937999999999999 0.0104499999999999 0.5719950000000001
0.8937999999999999 0.5104500000000000 0.0719950000000000
0.8937999999999998 0.5104499999999998 0.5719950000000001
0.4563000000000001 0.1033000000000000 0.2478900000000000
0.4563000000000000 0.1033000000000000 0.7478900000000001
0.4562999999999999 0.6032999999999998 0.2478900000000000
0.4563000000000001 0.6032999999999999 0.7478900000000001
0.9562999999999999 0.1033000000000000 0.2478900000000000
0.9563000000000001 0.1033000000000000 0.7478900000000001
0.9563000000000003 0.6032999999999998 0.2478900000000000
0.9563000000000001 0.6032999999999999 0.7478900000000001
0.3939500000000000 0.2537000000000000 0.0702200000000000
0.3939500000000000 0.2537000000000000 0.5702200000000001
0.3939500000000000 0.7537000000000000 0.0702200000000000
0.3939499999999999 0.7537000000000000 0.5702200000000001
0.8939500000000000 0.2537000000000000 0.0702200000000000
0.8939500000000000 0.2537000000000000 0.5702200000000001
0.8939500000000001 0.7537000000000000 0.0702200000000000
0.8939500000000000 0.7537000000000000 0.5702200000000001
0.2526999999999999 0.4501499999999999 0.0603200000000000
0.2527000000000000 0.4501499999999999 0.5603200000000000
0.2527000000000000 0.9501499999999999 0.0603200000000000
0.2527000000000000 0.9501499999999998 0.5603200000000000
0.7527000000000000 0.4501499999999999 0.0603200000000000
0.7527000000000000 0.4501499999999999 0.5603200000000000
0.7527000000000001 0.9501499999999999 0.0603200000000000
0.7527000000000003 0.9501499999999998 0.5603200000000000
0.0046000000000000 0.0852000000000000 0.1796450000000000
0.0046000000000000 0.0852000000000000 0.6796450000000001
0.0046000000000000 0.5851999999999999 0.1796450000000000
0.0046000000000001 0.5851999999999998 0.6796450000000001
0.5045999999999999 0.0852000000000000 0.1796450000000000
0.5046000000000002 0.0852000000000000 0.6796450000000001
0.5046000000000000 0.5851999999999999 0.1796450000000000
0.5046000000000002 0.5851999999999998 0.6796450000000001
0.4128999999999999 0.1930500000000000 0.1852750000000000
0.4128999999999999 0.1930499999999999 0.6852750000000001
0.4128999999999999 0.6930499999999999 0.1852750000000000
0.4128999999999998 0.6930499999999999 0.6852750000000001
0.9129000000000002 0.1930500000000000 0.1852750000000000
0.9129000000000003 0.1930499999999999 0.6852750000000001
0.9129000000000004 0.6930499999999999 0.1852750000000000
0.9129000000000003 0.6930499999999999 0.6852750000000001
0.3088500000000001 0.4226500000000000 0.0632850000000000
0.3088500000000001 0.4226500000000000 0.5632850000000001
0.3088500000000000 0.9226500000000000 0.0632850000000000
0.3088500000000001 0.9226499999999997 0.5632850000000001
0.8088500000000001 0.4226500000000000 0.0632850000000000
0.8088500000000002 0.4226500000000000 0.5632850000000001
0.8088499999999998 0.9226500000000000 0.0632850000000000
0.8088500000000001 0.9226499999999997 0.5632850000000001
0.2874500000000000 0.3878499999999999 0.1867500000000000
0.2874500000000000 0.3878500000000000 0.6867500000000001
0.2874500000000000 0.8878500000000000 0.1867500000000000
0.2874500000000000 0.8878500000000000 0.6867500000000001
0.7874500000000002 0.3878499999999999 0.1867500000000000
0.7874500000000000 0.3878500000000000 0.6867500000000001
0.7874500000000002 0.8878500000000000 0.1867500000000000
0.7874500000000002 0.8878500000000000 0.6867500000000001
0.1399000000000000 0.0078000000000000 0.0538800000000000
0.1399000000000000 0.0078000000000000 0.5538800000000000
0.1399000000000000 0.5077999999999999 0.0538800000000000
0.1399000000000001 0.5077999999999999 0.5538800000000000
0.6399000000000001 0.0078000000000000 0.0538800000000000
0.6399000000000000 0.0078000000000000 0.5538800000000000
0.6399000000000001 0.5077999999999999 0.0538800000000000
0.6399000000000002 0.5077999999999999 0.5538800000000000
0.0947000000000000 0.0281500000000000 0.1645300000000000
0.0947000000000000 0.0281500000000000 0.6645300000000002
0.0947000000000000 0.5281499999999999 0.1645300000000000
0.0947000000000001 0.5281499999999999 0.6645300000000002
0.5947000000000001 0.0281500000000000 0.1645300000000000
0.5947000000000000 0.0281500000000000 0.6645300000000002
0.5947000000000001 0.5281499999999999 0.1645300000000000
0.5947000000000000 0.5281499999999999 0.6645300000000002
0.3813000000000000 0.0656000000000000 0.1846500000000000
0.3813000000000001 0.0656000000000000 0.6846500000000000
0.3813000000000000 0.5656000000000000 0.1846500000000000
0.3813000000000000 0.5655999999999999 0.6846500000000000
0.8813000000000000 0.0656000000000000 0.1846500000000000
0.8813000000000001 0.0656000000000000 0.6846500000000000
0.8813000000000000 0.5656000000000000 0.1846500000000000
0.8813000000000000 0.5655999999999999 0.6846500000000000
0.2051500000000001 0.4737999999999999 0.1754650000000000
0.2051500000000000 0.4737999999999999 0.6754650000000000
0.2051500000000001 0.9737999999999999 0.1754650000000000
0.2051500000000002 0.9738000000000000 0.6754650000000000
0.7051500000000001 0.4737999999999999 0.1754650000000000
0.7051499999999999 0.4737999999999999 0.6754650000000000
0.7051499999999998 0.9737999999999999 0.1754650000000000
0.7051500000000001 0.9738000000000000 0.6754650000000000
0.2903500000000001 0.4762000000000000 0.1832500000000000
0.2903500000000002 0.4762000000000000 0.6832500000000000
0.2903500000000000 0.9761999999999998 0.1832500000000000
0.2903500000000001 0.9762000000000000 0.6832500000000000
0.7903500000000001 0.4762000000000000 0.1832500000000000
0.7903500000000001 0.4762000000000000 0.6832500000000000
0.7903500000000002 0.9761999999999998 0.1832500000000000
0.7903500000000001 0.9762000000000000 0.6832500000000000
0.2615000000000000 0.4454000000000000 0.1819100000000000
0.2615000000000000 0.4454000000000000 0.6819100000000000
0.2615000000000000 0.9454000000000000 0.1819100000000000
0.2615000000000001 0.9453999999999999 0.6819100000000000
0.7615000000000002 0.4454000000000000 0.1819100000000000
0.7615000000000001 0.4454000000000000 0.6819100000000000
0.7615000000000002 0.9454000000000000 0.1819100000000000
0.7615000000000001 0.9453999999999999 0.6819100000000000
0.4236500000000001 0.1936000000000000 0.0722500000000000
0.4236500000000000 0.1936000000000000 0.5722500000000000
0.4236500000000001 0.6935999999999999 0.0722500000000000
0.4236500000000001 0.6935999999999998 0.5722500000000000
0.9236500000000001 0.1936000000000000 0.0722500000000000
0.9236500000000000 0.1936000000000000 0.5722500000000000
0.9236500000000001 0.6935999999999999 0.0722500000000000
0.9236500000000001 0.6935999999999998 0.5722500000000000
0.1305500000000000 0.4908500000000000 0.1457250000000000
0.1305500000000000 0.4908500000000000 0.6457250000000001
0.1305500000000000 0.9908500000000000 0.1457250000000000
0.1305500000000000 0.9908499999999999 0.6457250000000001
0.6305499999999999 0.4908500000000000 0.1457250000000000
0.6305499999999999 0.4908500000000000 0.6457250000000001
0.6305499999999998 0.9908500000000000 0.1457250000000000
0.6305499999999999 0.9908499999999999 0.6457250000000001
0.1177050000000001 0.4839995000000000 0.1293380000000000
0.1177050000000001 0.4839995000000000 0.6293380000000000
0.1177049999999999 0.9839994999999999 0.1293380000000000
0.1177049999999999 0.9839995000000000 0.6293380000000000
0.6177049999999999 0.4839995000000000 0.1293380000000000
0.6177049999999999 0.4839995000000000 0.6293380000000000
0.6177049999999998 0.9839994999999999 0.1293380000000000
0.6177049999999999 0.9839995000000000 0.6293380000000000
0.1699500000000000 0.0109500000000000 0.1938000000000000
0.1699500000000000 0.0109500000000000 0.6938000000000001
0.1699500000000000 0.5109499999999999 0.1938000000000000
0.1699500000000000 0.5109500000000000 0.6938000000000001
0.6699499999999999 0.0109500000000000 0.1938000000000000
0.6699500000000000 0.0109500000000000 0.6938000000000001
0.6699500000000000 0.5109499999999999 0.1938000000000000
0.6699500000000000 0.5109500000000000 0.6938000000000001
0.1829035000000000 0.0180740000000000 0.2100305000000000
0.1829035000000001 0.0180740000000000 0.7100305000000000
0.1829035000000000 0.5180739999999999 0.2100305000000000
0.1829035000000000 0.5180739999999999 0.7100305000000000
0.6829035000000001 0.0180740000000000 0.2100305000000000
0.6829035000000000 0.0180740000000000 0.7100305000000000
0.6829035000000000 0.5180739999999999 0.2100305000000000
0.6829035000000001 0.5180739999999999 0.7100305000000000
0.3371500000000001 0.3650000000000000 0.0658800000000000
0.3371499999999999 0.3650000000000000 0.5658799999999999
0.3371500000000001 0.8650000000000000 0.0658800000000000
0.3371499999999999 0.8649999999999999 0.5658799999999999
0.8371500000000002 0.3650000000000000 0.0658800000000000
0.8371500000000002 0.3650000000000000 0.5658799999999999
0.8371500000000002 0.8650000000000000 0.0658800000000000
0.8371500000000002 0.8649999999999999 0.5658799999999999
0.4909999999999999 0.1219500000000000 0.4213200000000000
0.4910000000000000 0.1219499999999999 0.9213200000000000
0.4909999999999999 0.6219500000000000 0.4213200000000000
0.4910000000000000 0.6219499999999999 0.9213200000000000
0.9910000000000001 0.1219500000000000 0.4213200000000000
0.9910000000000000 0.1219499999999999 0.9213200000000000
0.9909999999999999 0.6219500000000000 0.4213200000000000
0.9910000000000000 0.6219499999999999 0.9213200000000000
0.3487999999999999 0.0353500000000000 0.1840650000000000
0.3487999999999999 0.0353500000000000 0.6840649999999999
0.3487999999999999 0.5353500000000000 0.1840650000000000
0.3487999999999999 0.5353500000000000 0.6840649999999999
0.8488000000000000 0.0353500000000000 0.1840650000000000
0.8488000000000000 0.0353500000000000 0.6840649999999999
0.8487999999999999 0.5353500000000000 0.1840650000000000
0.8488000000000000 0.5353500000000000 0.6840649999999999
0.3829500000000000 0.4752000000000000 0.0991400000000000
0.3829500000000000 0.4751999999999998 0.5991400000000000
0.3829500000000001 0.9752000000000002 0.0991400000000000
0.3829500000000000 0.9752000000000000 0.5991400000000000
0.8829499999999999 0.4752000000000000 0.0991400000000000
0.8829500000000001 0.4751999999999998 0.5991400000000000
0.8829499999999997 0.9752000000000002 0.0991400000000000
0.8829499999999996 0.9752000000000000 0.5991400000000000
0.3939095000000000 0.4710799999999999 0.1195970000000000
0.3939095000000001 0.4710799999999999 0.6195970000000001
0.3939095000000000 0.9710799999999998 0.1195970000000000
0.3939095000000000 0.9710799999999999 0.6195970000000001
0.8939095000000000 0.4710799999999999 0.1195970000000000
0.8939095000000001 0.4710799999999999 0.6195970000000001
0.8939095000000001 0.9710799999999998 0.1195970000000000
0.8939095000000000 0.9710799999999999 0.6195970000000001
0.0222500000000000 0.1481500000000000 0.3342350000000000
0.0222500000000000 0.1481499999999999 0.8342350000000001
0.0222500000000001 0.6481500000000000 0.3342350000000000
0.0222500000000001 0.6481500000000000 0.8342350000000001
0.5222500000000001 0.1481500000000000 0.3342350000000000
0.5222500000000000 0.1481499999999999 0.8342350000000001
0.5222500000000001 0.6481500000000000 0.3342350000000000
0.5222500000000002 0.6481500000000000 0.8342350000000001
0.3431500000000001 0.3615500000000000 0.1786000000000000
0.3431500000000000 0.3615499999999999 0.6786000000000001
0.3431500000000001 0.8615499999999999 0.1786000000000000
0.3431500000000000 0.8615500000000001 0.6786000000000001
0.8431500000000000 0.3615500000000000 0.1786000000000000
0.8431500000000001 0.3615499999999999 0.6786000000000001
0.8431500000000002 0.8615499999999999 0.1786000000000000
0.8431500000000001 0.8615500000000001 0.6786000000000001
0.3639144999999999 0.3817119999999999 0.1708865000000000
0.3639144999999999 0.3817119999999999 0.6708864999999999
0.3639145000000000 0.8817119999999999 0.1708865000000000
0.3639145000000000 0.8817119999999998 0.6708864999999999
0.8639145000000000 0.3817119999999999 0.1708865000000000
0.8639144999999999 0.3817119999999999 0.6708864999999999
0.8639145000000000 0.8817119999999999 0.1708865000000000
0.8639145000000003 0.8817119999999998 0.6708864999999999
0.4965500000000000 0.1264000000000000 0.3859150000000000
0.4965500000000000 0.1264000000000000 0.8859150000000001
0.4965500000000000 0.6264000000000001 0.3859150000000000
0.4965500000000002 0.6264000000000001 0.8859150000000001
0.9965499999999999 0.1264000000000000 0.3859150000000000
0.9965500000000003 0.1264000000000000 0.8859150000000001
0.9965499999999999 0.6264000000000001 0.3859150000000000
0.9965500000000000 0.6264000000000001 0.8859150000000001
0.0097500000000000 0.1214500000000000 0.2774700000000000
0.0097500000000000 0.1214499999999999 0.7774700000000001
0.0097500000000001 0.6214500000000001 0.2774700000000000
0.0097500000000001 0.6214499999999999 0.7774700000000001
0.5097500000000001 0.1214500000000000 0.2774700000000000
0.5097500000000001 0.1214499999999999 0.7774700000000001
0.5097500000000001 0.6214500000000001 0.2774700000000000
0.5097500000000003 0.6214499999999999 0.7774700000000001
0.0380080000000000 0.1314755000000000 0.2769705000000000
0.0380080000000001 0.1314754999999999 0.7769705000000000
0.0380080000000000 0.6314755000000000 0.2769705000000000
0.0380080000000000 0.6314754999999999 0.7769705000000000
0.5380080000000000 0.1314755000000000 0.2769705000000000
0.5380080000000000 0.1314754999999999 0.7769705000000000
0.5380079999999999 0.6314755000000000 0.2769705000000000
0.5380080000000000 0.6314754999999999 0.7769705000000000
0.3536000000000001 0.4887499999999999 0.2087000000000000
0.3536000000000001 0.4887500000000000 0.7087000000000000
0.3536000000000000 0.9887500000000000 0.2087000000000000
0.3536000000000001 0.9887499999999999 0.7087000000000000
0.8535999999999999 0.4887499999999999 0.2087000000000000
0.8536000000000000 0.4887500000000000 0.7087000000000000
0.8535999999999999 0.9887500000000000 0.2087000000000000
0.8535999999999999 0.9887499999999999 0.7087000000000000
0.3759990000000001 0.4777209999999999 0.2256890000000000
0.3759989999999999 0.4777210000000001 0.7256890000000000
0.3759990000000001 0.9777210000000001 0.2256890000000000
0.3759990000000002 0.9777210000000001 0.7256890000000000
0.8759990000000001 0.4777209999999999 0.2256890000000000
0.8759990000000000 0.4777210000000001 0.7256890000000000
0.8759990000000001 0.9777210000000001 0.2256890000000000
0.8759990000000000 0.9777210000000001 0.7256890000000000
0.4813000000000001 0.1101500000000000 0.3071250000000000
0.4813000000000000 0.1101500000000000 0.8071250000000001
0.4813000000000001 0.6101500000000000 0.3071250000000000
0.4813000000000001 0.6101500000000000 0.8071250000000001
0.9813000000000001 0.1101500000000000 0.3071250000000000
0.9813000000000002 0.1101500000000000 0.8071250000000001
0.9813000000000001 0.6101500000000000 0.3071250000000000
0.9813000000000002 0.6101500000000000 0.8071250000000001
0.3143500000000000 0.0517000000000000 0.1598550000000000
0.3143500000000000 0.0517000000000000 0.6598550000000001
0.3143500000000000 0.5517000000000000 0.1598550000000000
0.3143500000000000 0.5517000000000000 0.6598550000000001
0.8143500000000001 0.0517000000000000 0.1598550000000000
0.8143500000000001 0.0517000000000000 0.6598550000000001
0.8143500000000000 0.5517000000000000 0.1598550000000000
0.8143500000000002 0.5517000000000000 0.6598550000000001
0.3110975000000000 0.0825060000000000 0.1434255000000000
0.3110975000000000 0.0825060000000000 0.6434255000000001
0.3110975000000000 0.5825059999999999 0.1434255000000000
0.3110975000000001 0.5825060000000000 0.6434255000000001
0.8110975000000000 0.0825060000000000 0.1434255000000000
0.8110975000000000 0.0825060000000000 0.6434255000000001
0.8110975000000000 0.5825059999999999 0.1434255000000000
0.8110975000000001 0.5825060000000000 0.6434255000000001
0.1705500000000000 0.0331000000000000 0.0582500000000000
0.1705500000000000 0.0331000000000000 0.5582500000000000
0.1705500000000000 0.5330999999999999 0.0582500000000000
0.1705500000000000 0.5331000000000000 0.5582500000000000
0.6705500000000001 0.0331000000000000 0.0582500000000000
0.6705500000000001 0.0331000000000000 0.5582500000000000
0.6705500000000001 0.5330999999999999 0.0582500000000000
0.6705500000000001 0.5331000000000000 0.5582500000000000
0.1533850000000000 0.0699189999999999 0.0590395000000000
0.1533850000000000 0.0699190000000000 0.5590395000000000
0.1533850000000000 0.5699190000000000 0.0590395000000000
0.1533849999999999 0.5699190000000000 0.5590395000000000
0.6533850000000001 0.0699189999999999 0.0590395000000000
0.6533850000000000 0.0699190000000000 0.5590395000000000
0.6533850000000000 0.5699190000000000 0.0590395000000000
0.6533850000000000 0.5699190000000000 0.5590395000000000
0.4964000000000001 0.1178500000000000 0.2491350000000000
0.4964000000000000 0.1178500000000000 0.7491350000000001
0.4964000000000000 0.6178499999999999 0.2491350000000000
0.4964000000000001 0.6178499999999999 0.7491350000000001
0.9964000000000000 0.1178500000000000 0.2491350000000000
0.9964000000000001 0.1178500000000000 0.7491350000000001
0.9963999999999997 0.6178499999999999 0.2491350000000000
0.9964000000000001 0.6178499999999999 0.7491350000000001
0.0160125000000000 0.1259015000000000 0.2295470000000000
0.0160125000000000 0.1259014999999999 0.7295469999999999
0.0160125000000000 0.6259014999999999 0.2295470000000000
0.0160125000000001 0.6259014999999999 0.7295469999999999
0.5160125000000000 0.1259015000000000 0.2295470000000000
0.5160125000000000 0.1259014999999999 0.7295469999999999
0.5160125000000000 0.6259014999999999 0.2295470000000000
0.5160125000000002 0.6259014999999999 0.7295469999999999
0.0240500000000000 0.1521999999999999 0.3655950000000000
0.0240500000000000 0.1521999999999999 0.8655950000000001
0.0240499999999999 0.6522000000000001 0.3655950000000000
0.0240499999999999 0.6522000000000000 0.8655950000000001
0.5240500000000000 0.1521999999999999 0.3655950000000000
0.5240499999999999 0.1521999999999999 0.8655950000000001
0.5240499999999999 0.6522000000000001 0.3655950000000000
0.5240500000000001 0.6522000000000000 0.8655950000000001
0.3416500000000000 0.1851500000000000 0.2154100000000000
0.3416500000000000 0.1851499999999999 0.7154100000000000
0.3416500000000000 0.6851499999999998 0.2154100000000000
0.3416500000000001 0.6851499999999998 0.7154100000000000
0.8416500000000001 0.1851500000000000 0.2154100000000000
0.8416500000000000 0.1851499999999999 0.7154100000000000
0.8416500000000002 0.6851499999999998 0.2154100000000000
0.8416500000000002 0.6851499999999998 0.7154100000000000
0.2219500000000000 0.4241500000000000 0.0562700000000000
0.2219499999999999 0.4241500000000000 0.5562700000000000
0.2219500000000000 0.9241499999999999 0.0562700000000000
0.2219500000000000 0.9241500000000000 0.5562700000000000
0.7219500000000000 0.4241500000000000 0.0562700000000000
0.7219500000000002 0.4241500000000000 0.5562700000000000
0.7219500000000000 0.9241499999999999 0.0562700000000000
0.7219500000000000 0.9241500000000000 0.5562700000000000
0.2389975000000000 0.3873205000000000 0.0555475000000000
0.2389975000000001 0.3873204999999999 0.5555475000000000
0.2389975000000000 0.8873205000000000 0.0555475000000000
0.2389975000000001 0.8873204999999997 0.5555475000000000
0.7389975000000000 0.3873205000000000 0.0555475000000000
0.7389975000000000 0.3873204999999999 0.5555475000000000
0.7389975000000001 0.8873205000000000 0.0555475000000000
0.7389975000000001 0.8873204999999997 0.5555475000000000
0.4435500000000000 0.0767000000000000 0.3803700000000000
0.4435500000000000 0.0767000000000000 0.8803700000000000
0.4435500000000001 0.5766999999999999 0.3803700000000000
0.4435500000000000 0.5766999999999999 0.8803700000000000
0.9435500000000000 0.0767000000000000 0.3803700000000000
0.9435500000000000 0.0767000000000000 0.8803700000000000
0.9435499999999998 0.5766999999999999 0.3803700000000000
0.9435500000000000 0.5766999999999999 0.8803700000000000
0.4335695000000001 0.0704675000000000 0.4010505000000000
0.4335695000000001 0.0704675000000000 0.9010505000000000
0.4335695000000002 0.5704674999999999 0.4010505000000000
0.4335695000000002 0.5704675000000001 0.9010505000000000
0.9335694999999998 0.0704675000000000 0.4010505000000000
0.9335695000000001 0.0704675000000000 0.9010505000000000
0.9335695000000002 0.5704674999999999 0.4010505000000000
0.9335694999999998 0.5704675000000001 0.9010505000000000
0.4333404999999999 0.0653340000000000 0.3669320000000001
0.4333404999999999 0.0653339999999999 0.8669320000000001
0.4333405000000000 0.5653340000000000 0.3669320000000001
0.4333405000000000 0.5653339999999999 0.8669320000000001
0.9333405000000000 0.0653340000000000 0.3669320000000001
0.9333405000000000 0.0653339999999999 0.8669320000000001
0.9333404999999998 0.5653340000000000 0.3669320000000001
0.9333405000000002 0.5653339999999999 0.8669320000000001
0.3678500000000001 0.3054500000000000 0.1819350000000000
0.3678500000000000 0.3054500000000000 0.6819350000000000
0.3678500000000002 0.8054499999999998 0.1819350000000000
0.3678500000000000 0.8054500000000000 0.6819350000000000
0.8678500000000001 0.3054500000000000 0.1819350000000000
0.8678500000000000 0.3054500000000000 0.6819350000000000
0.8678500000000000 0.8054499999999998 0.1819350000000000
0.8678499999999999 0.8054500000000000 0.6819350000000000
0.4049415000000000 0.2881545000000000 0.1758260000000000
0.4049415000000000 0.2881544999999999 0.6758260000000000
0.4049415000000000 0.7881544999999999 0.1758260000000000
0.4049415000000000 0.7881545000000000 0.6758260000000000
0.9049415000000003 0.2881545000000000 0.1758260000000000
0.9049415000000005 0.2881544999999999 0.6758260000000000
0.9049415000000000 0.7881544999999999 0.1758260000000000
0.9049415000000003 0.7881545000000000 0.6758260000000000
0.1152000000000000 0.0378500000000000 0.1881000000000000
0.1152000000000000 0.0378500000000000 0.6880999999999999
0.1152000000000000 0.5378500000000002 0.1881000000000000
0.1152000000000000 0.5378499999999999 0.6880999999999999
0.6152000000000001 0.0378500000000000 0.1881000000000000
0.6152000000000001 0.0378500000000000 0.6880999999999999
0.6152000000000001 0.5378500000000002 0.1881000000000000
0.6152000000000002 0.5378499999999999 0.6880999999999999
0.0916290000000000 0.0631985000000000 0.2005940000000000
0.0916290000000000 0.0631985000000000 0.7005940000000001
0.0916289999999999 0.5631984999999999 0.2005940000000000
0.0916290000000000 0.5631984999999998 0.7005940000000001
0.5916290000000000 0.0631985000000000 0.2005940000000000
0.5916290000000000 0.0631985000000000 0.7005940000000001
0.5916290000000001 0.5631984999999999 0.2005940000000000
0.5916290000000002 0.5631984999999998 0.7005940000000001
0.1667500000000000 0.4523500000000000 0.0533450000000000
0.1667500000000001 0.4523499999999999 0.5533450000000000
0.1667499999999999 0.9523499999999999 0.0533450000000000
0.1667500000000000 0.9523499999999998 0.5533450000000000
0.6667500000000001 0.4523500000000000 0.0533450000000000
0.6667500000000002 0.4523499999999999 0.5533450000000000
0.6667500000000002 0.9523499999999999 0.0533450000000000
0.6667500000000002 0.9523499999999998 0.5533450000000000
0.1468270000000000 0.4341749999999999 0.0509560000000000
0.1468270000000000 0.4341750000000000 0.5509560000000000
0.1468270000000000 0.9341749999999998 0.0509560000000000
0.1468270000000000 0.9341750000000000 0.5509560000000000
0.6468270000000002 0.4341749999999999 0.0509560000000000
0.6468270000000000 0.4341750000000000 0.5509560000000000
0.6468270000000002 0.9341749999999998 0.0509560000000000
0.6468270000000000 0.9341750000000000 0.5509560000000000
0.4929000000000001 0.1205000000000000 0.3360800000000000
0.4929000000000001 0.1205000000000000 0.8360799999999999
0.4929000000000000 0.6204999999999999 0.3360800000000000
0.4929000000000001 0.6205000000000001 0.8360799999999999
0.9929000000000001 0.1205000000000000 0.3360800000000000
0.9929000000000000 0.1205000000000000 0.8360799999999999
0.9929000000000001 0.6204999999999999 0.3360800000000000
0.9928999999999996 0.6205000000000001 0.8360799999999999
0.3378500000000000 0.2750000000000000 0.1942500000000000
0.3378499999999999 0.2749999999999999 0.6942500000000001
0.3378500000000000 0.7749999999999999 0.1942500000000000
0.3378500000000002 0.7749999999999998 0.6942500000000001
0.8378500000000000 0.2750000000000000 0.1942500000000000
0.8378500000000000 0.2749999999999999 0.6942500000000001
0.8378500000000001 0.7749999999999999 0.1942500000000000
0.8378499999999999 0.7749999999999998 0.6942500000000001
0.3252500000000000 0.4594500000000000 0.2077500000000000
0.3252500000000000 0.4594499999999999 0.7077500000000001
0.3252500000000000 0.9594500000000000 0.2077500000000000
0.3252500000000000 0.9594499999999998 0.7077500000000001
0.8252500000000002 0.4594500000000000 0.2077500000000000
0.8252500000000000 0.4594499999999999 0.7077500000000001
0.8252500000000002 0.9594500000000000 0.2077500000000000
0.8252500000000004 0.9594499999999998 0.7077500000000001
0.3295065000000001 0.4279129999999999 0.2237330000000000
0.3295065000000001 0.4279129999999999 0.7237330000000001
0.3295065000000000 0.9279129999999999 0.2237330000000000
0.3295065000000000 0.9279130000000000 0.7237330000000001
0.8295065000000000 0.4279129999999999 0.2237330000000000
0.8295064999999999 0.4279129999999999 0.7237330000000001
0.8295064999999998 0.9279129999999999 0.2237330000000000
0.8295064999999997 0.9279130000000000 0.7237330000000001
0.0804500000000000 0.0384000000000000 0.0503250000000000
0.0804500000000000 0.0383999999999999 0.5503250000000000
0.0804500000000000 0.5383999999999999 0.0503250000000000
0.0804500000000000 0.5383999999999999 0.5503250000000000
0.5804500000000000 0.0384000000000000 0.0503250000000000
0.5804500000000001 0.0383999999999999 0.5503250000000000
0.5804500000000001 0.5383999999999999 0.0503250000000000
0.5804500000000000 0.5383999999999999 0.5503250000000000
0.3519000000000001 0.4848999999999999 0.0386550000000000
0.3519000000000001 0.4849000000000000 0.5386550000000000
0.3518999999999999 0.9848999999999999 0.0386550000000000
0.3519000000000000 0.9849000000000000 0.5386550000000000
0.8519000000000000 0.4848999999999999 0.0386550000000000
0.8519000000000001 0.4849000000000000 0.5386550000000000
0.8518999999999999 0.9848999999999999 0.0386550000000000
0.8518999999999999 0.9849000000000000 0.5386550000000000
0.3424015000000000 0.4875435000000000 0.0180530000000000
0.3424015000000000 0.4875434999999999 0.5180530000000001
0.3424015000000000 0.9875434999999999 0.0180530000000000
0.3424015000000002 0.9875434999999999 0.5180530000000001
0.8424015000000001 0.4875435000000000 0.0180530000000000
0.8424014999999999 0.4875434999999999 0.5180530000000001
0.8424014999999999 0.9875434999999999 0.0180530000000000
0.8424015000000000 0.9875434999999999 0.5180530000000001
0.3655000000000000 0.2136000000000000 0.1986500000000000
0.3655000000000002 0.2136000000000000 0.6986500000000000
0.3654999999999999 0.7135999999999999 0.1986500000000000
0.3654999999999999 0.7135999999999998 0.6986500000000000
0.8654999999999998 0.2136000000000000 0.1986500000000000
0.8655000000000000 0.2136000000000000 0.6986500000000000
0.8654999999999999 0.7135999999999999 0.1986500000000000
0.8655000000000002 0.7135999999999998 0.6986500000000000
0.4745000000000000 0.0857500000000000 0.4440800000000000
0.4745000000000000 0.0857500000000000 0.9440800000000000
0.4744999999999998 0.5857500000000001 0.4440800000000000
0.4744999999999999 0.5857500000000000 0.9440800000000000
0.9745000000000000 0.0857500000000000 0.4440800000000000
0.9744999999999999 0.0857500000000000 0.9440800000000000
0.9744999999999998 0.5857500000000001 0.4440800000000000
0.9744999999999999 0.5857500000000000 0.9440800000000000
0.4644725000000001 0.0627525000000000 0.4371800000000001
0.4644725000000000 0.0627525000000000 0.9371800000000000
0.4644725000000000 0.5627525000000000 0.4371800000000001
0.4644725000000000 0.5627525000000000 0.9371800000000000
0.9644725000000003 0.0627525000000000 0.4371800000000001
0.9644725000000002 0.0627525000000000 0.9371800000000000
0.9644724999999998 0.5627525000000000 0.4371800000000001
0.9644725000000002 0.5627525000000000 0.9371800000000000
0.3782499999999999 0.0149000000000000 0.0420450000000000
0.3782499999999999 0.0149000000000000 0.5420450000000001
0.3782500000000000 0.5148999999999999 0.0420450000000000
0.3782500000000000 0.5148999999999999 0.5420450000000001
0.8782500000000000 0.0149000000000000 0.0420450000000000
0.8782500000000001 0.0149000000000000 0.5420450000000001
0.8782500000000000 0.5148999999999999 0.0420450000000000
0.8782500000000002 0.5148999999999999 0.5420450000000001
0.3856059999999999 0.0386130000000000 0.0236780000000000
0.3856060000000000 0.0386130000000000 0.5236780000000000
0.3856059999999999 0.5386130000000000 0.0236780000000000
0.3856060000000000 0.5386130000000001 0.5236780000000000
0.8856060000000000 0.0386130000000000 0.0236780000000000
0.8856060000000000 0.0386130000000000 0.5236780000000000
0.8856060000000000 0.5386130000000000 0.0236780000000000
0.8856059999999999 0.5386130000000001 0.5236780000000000
0.2841500000000001 0.0233000000000000 0.1592800000000000
0.2841500000000000 0.0233000000000000 0.6592800000000001
0.2841500000000001 0.5233000000000000 0.1592800000000000
0.2841500000000000 0.5232999999999999 0.6592800000000001
0.7841500000000000 0.0233000000000000 0.1592800000000000
0.7841500000000001 0.0233000000000000 0.6592800000000001
0.7841500000000001 0.5233000000000000 0.1592800000000000
0.7841500000000001 0.5232999999999999 0.6592800000000001
0.2600470000000000 0.0355895000000000 0.1430620000000001
0.2600470000000000 0.0355894999999999 0.6430620000000000
0.2600470000000000 0.5355895000000001 0.1430620000000001
0.2600470000000000 0.5355895000000002 0.6430620000000000
0.7600469999999999 0.0355895000000000 0.1430620000000001
0.7600469999999999 0.0355894999999999 0.6430620000000000
0.7600470000000000 0.5355895000000001 0.1430620000000001
0.7600469999999997 0.5355895000000002 0.6430620000000000
0.3555500000000000 0.4460499999999999 0.0955500000000000
0.3555500000000000 0.4460499999999999 0.5955500000000000
0.3555500000000000 0.9460499999999999 0.0955500000000000
0.3555500000000000 0.9460499999999998 0.5955500000000000
0.8555500000000000 0.4460499999999999 0.0955500000000000
0.8555500000000000 0.4460499999999999 0.5955500000000000
0.8555500000000001 0.9460499999999999 0.0955500000000000
0.8555500000000000 0.9460499999999998 0.5955500000000000
0.3478950000000001 0.4225330000000000 0.1139055000000000
0.3478950000000000 0.4225329999999999 0.6139055000000000
0.3478950000000002 0.9225329999999998 0.1139055000000000
0.3478950000000001 0.9225329999999998 0.6139055000000000
0.8478950000000002 0.4225330000000000 0.1139055000000000
0.8478950000000001 0.4225329999999999 0.6139055000000000
0.8478950000000002 0.9225329999999998 0.1139055000000000
0.8478950000000003 0.9225329999999998 0.6139055000000000
0.1848500000000000 0.4642499999999999 0.1514000000000000
0.1848500000000000 0.4642499999999999 0.6514000000000000
0.1848500000000000 0.9642500000000001 0.1514000000000000
0.1848500000000002 0.9642499999999998 0.6514000000000000
0.6848500000000001 0.4642499999999999 0.1514000000000000
0.6848500000000002 0.4642499999999999 0.6514000000000000
0.6848500000000001 0.9642500000000001 0.1514000000000000
0.6848500000000003 0.9642499999999998 0.6514000000000000
0.2085660000000000 0.4392030000000000 0.1387870000000000
0.2085660000000001 0.4392029999999999 0.6387870000000000
0.2085660000000000 0.9392029999999999 0.1387870000000000
0.2085660000000000 0.9392029999999998 0.6387870000000000
0.7085659999999998 0.4392030000000000 0.1387870000000000
0.7085659999999999 0.4392029999999999 0.6387870000000000
0.7085660000000000 0.9392029999999999 0.1387870000000000
0.7085659999999999 0.9392029999999998 0.6387870000000000
0.3917000000000000 0.2898000000000000 0.0406000000000000
0.3917000000000000 0.2897999999999999 0.5406000000000000
0.3916999999999999 0.7898000000000002 0.0406000000000000
0.3917000000000000 0.7898000000000001 0.5406000000000000
0.8916999999999999 0.2898000000000000 0.0406000000000000
0.8916999999999998 0.2897999999999999 0.5406000000000000
0.8916999999999998 0.7898000000000002 0.0406000000000000
0.8916999999999998 0.7898000000000001 0.5406000000000000
0.4093130000000000 0.2766695000000000 0.0216605000000000
0.4093130000000001 0.2766695000000000 0.5216605000000001
0.4093129999999999 0.7766694999999999 0.0216605000000000
0.4093129999999999 0.7766694999999999 0.5216605000000001
0.9093130000000000 0.2766695000000000 0.0216605000000000
0.9093130000000000 0.2766695000000000 0.5216605000000001
0.9093130000000001 0.7766694999999999 0.0216605000000000
0.9093130000000000 0.7766694999999999 0.5216605000000001
0.4728000000000001 0.0834500000000000 0.4767950000000000
0.4728000000000000 0.0834500000000000 0.9767950000000002
0.4727999999999999 0.5834500000000000 0.4767950000000000
0.4728000000000000 0.5834500000000000 0.9767950000000002
0.9727999999999999 0.0834500000000000 0.4767950000000000
0.9728000000000000 0.0834500000000000 0.9767950000000002
0.9728000000000001 0.5834500000000000 0.4767950000000000
0.9728000000000000 0.5834500000000000 0.9767950000000002
0.4614680000000000 0.0584425000000000 0.4916955000000001
0.4614680000000000 0.0584425000000000 0.9916955000000002
0.4614680000000000 0.5584425000000000 0.4916955000000001
0.4614680000000001 0.5584424999999998 0.9916955000000002
0.9614680000000002 0.0584425000000000 0.4916955000000001
0.9614680000000001 0.0584425000000000 0.9916955000000002
0.9614680000000000 0.5584425000000000 0.4916955000000001
0.9614679999999999 0.5584424999999998 0.9916955000000002
0.2257000000000000 0.0053500000000000 0.0614500000000000
0.2257000000000001 0.0053500000000000 0.5614500000000000
0.2257000000000000 0.5053500000000000 0.0614500000000000
0.2257000000000000 0.5053500000000000 0.5614500000000000
0.7257000000000000 0.0053500000000000 0.0614500000000000
0.7257000000000000 0.0053500000000000 0.5614500000000000
0.7257000000000000 0.5053500000000000 0.0614500000000000
0.7257000000000000 0.5053500000000000 0.5614500000000000
0.2452925000000000 0.0234664999999999 0.0644185000000000
0.2452925000000000 0.0234664999999999 0.5644185000000000
0.2452925000000000 0.5234664999999999 0.0644185000000000
0.2452925000000000 0.5234664999999999 0.5644185000000000
0.7452925000000000 0.0234664999999999 0.0644185000000000
0.7452925000000001 0.0234664999999999 0.5644185000000000
0.7452924999999998 0.5234664999999999 0.0644185000000000
0.7452925000000000 0.5234664999999999 0.5644185000000000
0.3638999999999999 0.3447499999999999 0.0386000000000000
0.3639000000000000 0.3447499999999999 0.5386000000000001
0.3638999999999998 0.8447500000000001 0.0386000000000000
0.3638999999999998 0.8447499999999999 0.5386000000000001
0.8639000000000000 0.3447499999999999 0.0386000000000000
0.8639000000000000 0.3447499999999999 0.5386000000000001
0.8639000000000000 0.8447500000000001 0.0386000000000000
0.8638999999999999 0.8447499999999999 0.5386000000000001
0.3632480000000001 0.3686814999999999 0.0183835000000000
0.3632480000000001 0.3686814999999999 0.5183835000000000
0.3632480000000002 0.8686815000000000 0.0183835000000000
0.3632480000000000 0.8686814999999999 0.5183835000000000
0.8632480000000001 0.3686814999999999 0.0183835000000000
0.8632480000000002 0.3686814999999999 0.5183835000000000
0.8632480000000001 0.8686815000000000 0.0183835000000000
0.8632480000000002 0.8686814999999999 0.5183835000000000
0.2577500000000000 0.3567999999999999 0.1997000000000000
0.2577500000000000 0.3568000000000000 0.6997000000000000
0.2577500000000000 0.8568000000000000 0.1997000000000000
0.2577500000000000 0.8567999999999998 0.6997000000000000
0.7577500000000000 0.3567999999999999 0.1997000000000000
0.7577500000000000 0.3568000000000000 0.6997000000000000
0.7577499999999999 0.8568000000000000 0.1997000000000000
0.7577500000000000 0.8567999999999998 0.6997000000000000
0.2206620000000001 0.3738020000000000 0.2059390000000000
0.2206620000000001 0.3738020000000000 0.7059390000000000
0.2206620000000001 0.8738020000000000 0.2059390000000000
0.2206620000000000 0.8738020000000000 0.7059390000000000
0.7206620000000002 0.3738020000000000 0.2059390000000000
0.7206620000000002 0.3738020000000000 0.7059390000000000
0.7206619999999999 0.8738020000000000 0.2059390000000000
0.7206619999999998 0.8738020000000000 0.7059390000000000
0.2828000000000000 0.3014500000000000 0.2033000000000000
0.2828000000000000 0.3014500000000000 0.7033000000000001
0.2828000000000001 0.8014499999999999 0.2033000000000000
0.2828000000000000 0.8014499999999998 0.7033000000000001
0.7828000000000001 0.3014500000000000 0.2033000000000000
0.7827999999999999 0.3014500000000000 0.7033000000000001
0.7827999999999999 0.8014499999999999 0.2033000000000000
0.7827999999999999 0.8014499999999998 0.7033000000000001
0.2624290000000001 0.2810530000000000 0.2119745000000000
0.2624290000000001 0.2810530000000000 0.7119745000000001
0.2624290000000000 0.7810529999999999 0.2119745000000000
0.2624290000000001 0.7810529999999999 0.7119745000000001
0.7624290000000000 0.2810530000000000 0.2119745000000000
0.7624290000000000 0.2810530000000000 0.7119745000000001
0.7624289999999999 0.7810529999999999 0.2119745000000000
0.7624290000000000 0.7810529999999999 0.7119745000000001
0.0043500000000000 0.1482000000000000 0.4668000000000000
0.0043500000000000 0.1481999999999999 0.9668000000000000
0.0043499999999999 0.6482000000000001 0.4668000000000000
0.0043500000000000 0.6481999999999999 0.9668000000000000
0.5043500000000001 0.1482000000000000 0.4668000000000000
0.5043500000000000 0.1481999999999999 0.9668000000000000
0.5043499999999999 0.6482000000000001 0.4668000000000000
0.5043500000000000 0.6481999999999999 0.9668000000000000
0.0153324999999999 0.1698185000000000 0.4744135000000000
0.0153325000000000 0.1698184999999999 0.9744135000000000
0.0153325000000000 0.6698184999999999 0.4744135000000000
0.0153325000000000 0.6698184999999999 0.9744135000000000
0.5153325000000000 0.1698185000000000 0.4744135000000000
0.5153325000000000 0.1698184999999999 0.9744135000000000
0.5153324999999999 0.6698184999999999 0.4744135000000000
0.5153325000000000 0.6698184999999999 0.9744135000000000
0.4301000000000000 0.0908500000000000 0.2762000000000000
0.4301000000000000 0.0908500000000000 0.7762000000000000
0.4301000000000000 0.5908500000000000 0.2762000000000000
0.4301000000000000 0.5908499999999999 0.7762000000000000
0.9300999999999999 0.0908500000000000 0.2762000000000000
0.9301000000000000 0.0908500000000000 0.7762000000000000
0.9301000000000001 0.5908500000000000 0.2762000000000000
0.9301000000000000 0.5908499999999999 0.7762000000000000
0.4029370000000000 0.0795570000000000 0.2760605000000000
0.4029369999999999 0.0795570000000000 0.7760605000000000
0.4029370000000000 0.5795570000000000 0.2760605000000000
0.4029370000000000 0.5795569999999999 0.7760605000000000
0.9029370000000001 0.0795570000000000 0.2760605000000000
0.9029370000000000 0.0795570000000000 0.7760605000000000
0.9029369999999999 0.5795570000000000 0.2760605000000000
0.9029369999999998 0.5795569999999999 0.7760605000000000
0.4407000000000001 0.0936500000000000 0.3048000000000000
0.4407000000000001 0.0936499999999999 0.8048000000000001
0.4407000000000000 0.5936499999999999 0.3048000000000000
0.4406999999999999 0.5936500000000000 0.8048000000000001
0.9407000000000000 0.0936500000000000 0.3048000000000000
0.9406999999999999 0.0936499999999999 0.8048000000000001
0.9407000000000001 0.5936499999999999 0.3048000000000000
0.9406999999999999 0.5936500000000000 0.8048000000000001
0.4207585000000000 0.0844685000000000 0.3238950000000000
0.4207584999999999 0.0844685000000000 0.8238950000000002
0.4207585000000001 0.5844684999999999 0.3238950000000000
0.4207585000000001 0.5844684999999999 0.8238950000000002
0.9207585000000001 0.0844685000000000 0.3238950000000000
0.9207585000000001 0.0844685000000000 0.8238950000000002
0.9207585000000001 0.5844684999999999 0.3238950000000000
0.9207585000000001 0.5844684999999999 0.8238950000000002
0.0077500000000000 0.1526500000000000 0.4337500000000000
0.0077500000000000 0.1526500000000000 0.9337500000000001
0.0077500000000000 0.6526500000000000 0.4337500000000000
0.0077500000000001 0.6526499999999997 0.9337500000000001
0.5077500000000000 0.1526500000000000 0.4337500000000000
0.5077500000000000 0.1526500000000000 0.9337500000000001
0.5077500000000000 0.6526500000000000 0.4337500000000000
0.5077500000000000 0.6526499999999997 0.9337500000000001
0.0213415000000000 0.1763755000000000 0.4194560000000000
0.0213415000000000 0.1763755000000000 0.9194560000000002
0.0213415000000000 0.6763755000000000 0.4194560000000000
0.0213415000000001 0.6763755000000000 0.9194560000000002
0.5213414999999999 0.1763755000000000 0.4194560000000000
0.5213415000000000 0.1763755000000000 0.9194560000000002
0.5213415000000001 0.6763755000000000 0.4194560000000000
0.5213415000000000 0.6763755000000000 0.9194560000000002
0.3398999999999999 0.3293500000000000 0.0954500000000000
0.3399000000000000 0.3293499999999999 0.5954500000000000
0.3399000000000000 0.8293499999999999 0.0954500000000000
0.3398999999999999 0.8293499999999998 0.5954500000000000
0.8399000000000000 0.3293500000000000 0.0954500000000000
0.8398999999999999 0.3293499999999999 0.5954500000000000
0.8399000000000000 0.8293499999999999 0.0954500000000000
0.8399000000000001 0.8293499999999998 0.5954500000000000
0.3225120000000001 0.3425329999999999 0.1144040000000000
0.3225120000000001 0.3425330000000000 0.6144040000000000
0.3225120000000001 0.8425329999999999 0.1144040000000000
0.3225120000000001 0.8425330000000000 0.6144040000000000
0.8225120000000001 0.3425329999999999 0.1144040000000000
0.8225120000000000 0.3425330000000000 0.6144040000000000
0.8225120000000004 0.8425329999999999 0.1144040000000000
0.8225120000000002 0.8425330000000000 0.6144040000000000
0.3683499999999999 0.2737499999999999 0.0974000000000000
0.3683500000000001 0.2737499999999999 0.5974000000000000
0.3683500000000002 0.7737499999999998 0.0974000000000000
0.3683500000000001 0.7737499999999999 0.5974000000000000
0.8683500000000000 0.2737499999999999 0.0974000000000000
0.8683500000000000 0.2737499999999999 0.5974000000000000
0.8683499999999998 0.7737499999999998 0.0974000000000000
0.8683499999999997 0.7737499999999999 0.5974000000000000
0.3698730000000001 0.2498210000000000 0.1177405000000000
0.3698730000000001 0.2498210000000000 0.6177405000000001
0.3698730000000000 0.7498210000000000 0.1177405000000000
0.3698729999999999 0.7498210000000000 0.6177405000000001
0.8698730000000000 0.2498210000000000 0.1177405000000000
0.8698729999999999 0.2498210000000000 0.6177405000000001
0.8698730000000000 0.7498210000000000 0.1177405000000000
0.8698729999999999 0.7498210000000000 0.6177405000000001
0.0598000000000000 0.0887500000000000 0.0475400000000000
0.0598000000000000 0.0887500000000000 0.5475400000000000
0.0598000000000000 0.5887499999999999 0.0475400000000000
0.0598000000000000 0.5887500000000000 0.5475400000000000
0.5597999999999999 0.0887500000000000 0.0475400000000000
0.5598000000000000 0.0887500000000000 0.5475400000000000
0.5597999999999999 0.5887499999999999 0.0475400000000000
0.5598000000000000 0.5887500000000000 0.5475400000000000
0.0521000000000000 0.0162500000000000 0.0486950000000000
0.0521000000000000 0.0162500000000000 0.5486950000000000
0.0521000000000000 0.5162499999999999 0.0486950000000000
0.0521000000000000 0.5162500000000000 0.5486950000000000
0.5521000000000000 0.0162500000000000 0.0486950000000000
0.5521000000000001 0.0162500000000000 0.5486950000000000
0.5521000000000000 0.5162499999999999 0.0486950000000000
0.5521000000000001 0.5162500000000000 0.5486950000000000
0.3801499999999999 0.3630000000000000 0.2711500000000000
0.3801499999999999 0.3629999999999999 0.7711500000000000
0.3801500000000000 0.8629999999999999 0.2711500000000000
0.3801500000000000 0.8630000000000000 0.7711500000000000
0.8801499999999999 0.3630000000000000 0.2711500000000000
0.8801500000000000 0.3629999999999999 0.7711500000000000
0.8801500000000000 0.8629999999999999 0.2711500000000000
0.8801499999999999 0.8630000000000000 0.7711500000000000
0.2003500000000000 0.3342499999999999 0.0260500000000000
0.2003500000000000 0.3342499999999999 0.5260500000000000
0.2003500000000001 0.8342500000000000 0.0260500000000000
0.2003500000000001 0.8342499999999999 0.5260500000000000
0.7003500000000001 0.3342499999999999 0.0260500000000000
0.7003500000000000 0.3342499999999999 0.5260500000000000
0.7003499999999999 0.8342500000000000 0.0260500000000000
0.7003500000000001 0.8342499999999999 0.5260500000000000
0.3347000000000000 0.3121499999999999 0.2800500000000001
0.3346999999999999 0.3121500000000000 0.7800500000000001
0.3346999999999999 0.8121499999999999 0.2800500000000001
0.3347000000000000 0.8121500000000001 0.7800500000000001
0.8347000000000000 0.3121499999999999 0.2800500000000001
0.8346999999999999 0.3121500000000000 0.7800500000000001
0.8347000000000001 0.8121499999999999 0.2800500000000001
0.8346999999999999 0.8121500000000001 0.7800500000000001
0.2236499999999999 0.3354499999999999 0.4730000000000000
0.2236500000000000 0.3354500000000001 0.9730000000000000
0.2236500000000000 0.8354499999999999 0.4730000000000000
0.2236500000000000 0.8354500000000000 0.9730000000000000
0.7236500000000000 0.3354499999999999 0.4730000000000000
0.7236500000000001 0.3354500000000001 0.9730000000000000
0.7236500000000001 0.8354499999999999 0.4730000000000000
0.7236500000000000 0.8354500000000000 0.9730000000000000
0.3734000000000001 0.3206499999999999 0.2738000000000000
0.3734000000000001 0.3206500000000000 0.7738000000000002
0.3734000000000000 0.8206499999999999 0.2738000000000000
0.3734000000000000 0.8206499999999998 0.7738000000000002
0.8734000000000001 0.3206499999999999 0.2738000000000000
0.8734000000000000 0.3206500000000000 0.7738000000000002
0.8734000000000000 0.8206499999999999 0.2738000000000000
0.8734000000000001 0.8206499999999998 0.7738000000000002
0.4252000000000000 0.2682499999999999 0.2656000000000000
0.4252000000000000 0.2682499999999999 0.7656000000000001
0.4252000000000001 0.7682499999999999 0.2656000000000000
0.4252000000000000 0.7682499999999999 0.7656000000000001
0.9252000000000001 0.2682499999999999 0.2656000000000000
0.9252000000000000 0.2682499999999999 0.7656000000000001
0.9251999999999999 0.7682499999999999 0.2656000000000000
0.9251999999999998 0.7682499999999999 0.7656000000000001
0.4568924999999999 0.2760859999999999 0.2604840000000000
0.4568924999999999 0.2760859999999999 0.7604840000000000
0.4568925000000000 0.7760859999999999 0.2604840000000000
0.4568925000000000 0.7760860000000001 0.7604840000000000
0.9568924999999999 0.2760859999999999 0.2604840000000000
0.9568924999999998 0.2760859999999999 0.7604840000000000
0.9568924999999999 0.7760859999999999 0.2604840000000000
0.9568925000000000 0.7760860000000001 0.7604840000000000
0.4309870000000000 0.2383635000000000 0.2843140000000001
0.4309870000000000 0.2383635000000000 0.7843140000000001
0.4309870000000001 0.7383635000000000 0.2843140000000001
0.4309870000000000 0.7383634999999998 0.7843140000000001
0.9309870000000001 0.2383635000000000 0.2843140000000001
0.9309870000000000 0.2383635000000000 0.7843140000000001
0.9309870000000001 0.7383635000000000 0.2843140000000001
0.9309870000000002 0.7383634999999998 0.7843140000000001
0.4191080000000001 0.2586620000000000 0.2470190000000000
0.4191080000000000 0.2586619999999999 0.7470190000000000
0.4191080000000000 0.7586619999999999 0.2470190000000000
0.4191080000000000 0.7586620000000001 0.7470190000000000
0.9191080000000001 0.2586620000000000 0.2470190000000000
0.9191079999999998 0.2586619999999999 0.7470190000000000
0.9191079999999999 0.7586619999999999 0.2470190000000000
0.9191080000000000 0.7586620000000001 0.7470190000000000
0.1949500000000000 0.3217500000000000 0.4985000000000000
0.1949500000000001 0.3217499999999999 0.9984999999999999
0.1949500000000001 0.8217500000000000 0.4985000000000000
0.1949500000000002 0.8217500000000000 0.9984999999999999
0.6949500000000001 0.3217500000000000 0.4985000000000000
0.6949500000000001 0.3217499999999999 0.9984999999999999
0.6949500000000001 0.8217500000000000 0.4985000000000000
0.6949500000000001 0.8217500000000000 0.9984999999999999
0.2812000000000001 0.3648500000000000 0.2876000000000000
0.2811999999999999 0.3648500000000000 0.7876000000000001
0.2811999999999998 0.8648500000000001 0.2876000000000000
0.2811999999999999 0.8648499999999999 0.7876000000000001
0.7812000000000000 0.3648500000000000 0.2876000000000000
0.7812000000000001 0.3648500000000000 0.7876000000000001
0.7812000000000002 0.8648500000000001 0.2876000000000000
0.7812000000000001 0.8648499999999999 0.7876000000000001
0.2500220000000001 0.3562050000000000 0.2926360000000000
0.2500220000000001 0.3562049999999999 0.7926360000000001
0.2500220000000000 0.8562049999999999 0.2926360000000000
0.2500220000000000 0.8562049999999998 0.7926360000000001
0.7500220000000000 0.3562050000000000 0.2926360000000000
0.7500219999999999 0.3562049999999999 0.7926360000000001
0.7500220000000000 0.8562049999999999 0.2926360000000000
0.7500220000000001 0.8562049999999998 0.7926360000000001
0.2862480000000001 0.3755830000000000 0.3060035000000000
0.2862479999999999 0.3755830000000001 0.8060035000000000
0.2862480000000001 0.8755829999999999 0.3060035000000000
0.2862479999999999 0.8755830000000000 0.8060035000000000
0.7862479999999999 0.3755830000000000 0.3060035000000000
0.7862480000000001 0.3755830000000001 0.8060035000000000
0.7862480000000002 0.8755829999999999 0.3060035000000000
0.7862480000000001 0.8755830000000000 0.8060035000000000
0.2752995000000000 0.3942904999999999 0.2685760000000000
0.2752995000000001 0.3942904999999998 0.7685760000000000
0.2752994999999999 0.8942905000000001 0.2685760000000000
0.2752994999999999 0.8942904999999999 0.7685760000000000
0.7752995000000000 0.3942904999999999 0.2685760000000000
0.7752995000000003 0.3942904999999998 0.7685760000000000
0.7752995000000003 0.8942905000000001 0.2685760000000000
0.7752995000000001 0.8942904999999999 0.7685760000000000
0.1602500000000000 0.2918999999999999 0.0010000000000000
0.1602499999999999 0.2918999999999999 0.5010000000000001
0.1602500000000000 0.7919000000000000 0.0010000000000000
0.1602500000000001 0.7918999999999999 0.5010000000000001
0.6602500000000001 0.2918999999999999 0.0010000000000000
0.6602500000000000 0.2918999999999999 0.5010000000000001
0.6602500000000000 0.7919000000000000 0.0010000000000000
0.6602499999999999 0.7918999999999999 0.5010000000000001
0.1435155000000000 0.2872945000000000 0.0230330000000000
0.1435155000000000 0.2872944999999999 0.5230330000000000
0.1435155000000000 0.7872944999999998 0.0230330000000000
0.1435155000000000 0.7872945000000000 0.5230330000000000
0.6435155000000000 0.2872945000000000 0.0230330000000000
0.6435154999999999 0.2872944999999999 0.5230330000000000
0.6435155000000004 0.7872944999999998 0.0230330000000000
0.6435155000000001 0.7872945000000000 0.5230330000000000
0.1323255000000000 0.3125705000000000 0.4857940000000001
0.1323255000000001 0.3125705000000000 0.9857940000000002
0.1323255000000001 0.8125704999999999 0.4857940000000001
0.1323255000000001 0.8125705000000001 0.9857940000000002
0.6323255000000000 0.3125705000000000 0.4857940000000001
0.6323255000000000 0.3125705000000000 0.9857940000000002
0.6323255000000001 0.8125704999999999 0.4857940000000001
0.6323255000000000 0.8125705000000001 0.9857940000000002
0.1826000000000000 0.2567635000000001 0.4957950000000000
0.1826000000000001 0.2567635000000000 0.9957950000000001
0.1826000000000000 0.7567635000000000 0.4957950000000000
0.1826000000000001 0.7567634999999999 0.9957950000000001
0.6826000000000000 0.2567635000000001 0.4957950000000000
0.6826000000000002 0.2567635000000000 0.9957950000000001
0.6826000000000000 0.7567635000000000 0.4957950000000000
0.6826000000000000 0.7567634999999999 0.9957950000000001
0.2583500000000000 0.3601000000000000 0.4734000000000000
0.2583500000000001 0.3600999999999999 0.9734000000000002
0.2583500000000000 0.8600999999999999 0.4734000000000000
0.2583500000000001 0.8600999999999999 0.9734000000000002
0.7583500000000001 0.3601000000000000 0.4734000000000000
0.7583500000000001 0.3600999999999999 0.9734000000000002
0.7583499999999999 0.8600999999999999 0.4734000000000000
0.7583500000000001 0.8600999999999999 0.9734000000000002
0.2755560000000000 0.3666745000000000 0.4516770000000000
0.2755560000000000 0.3666745000000000 0.9516770000000000
0.2755560000000000 0.8666745000000000 0.4516770000000000
0.2755560000000000 0.8666744999999998 0.9516770000000000
0.7755560000000000 0.3666745000000000 0.4516770000000000
0.7755559999999999 0.3666745000000000 0.9516770000000000
0.7755560000000000 0.8666745000000000 0.4516770000000000
0.7755559999999999 0.8666744999999998 0.9516770000000000
0.2373000000000000 0.3941689999999999 0.4802315000000000
0.2373000000000001 0.3941689999999998 0.9802315000000000
0.2372999999999999 0.8941690000000000 0.4802315000000000
0.2372999999999999 0.8941690000000000 0.9802315000000000
0.7373000000000001 0.3941689999999999 0.4802315000000000
0.7373000000000003 0.3941689999999998 0.9802315000000000
0.7372999999999998 0.8941690000000000 0.4802315000000000
0.7373000000000000 0.8941690000000000 0.9802315000000000
0.2858380000000000 0.3363564999999999 0.4884900000000000
0.2858380000000000 0.3363565000000000 0.9884900000000000
0.2858380000000001 0.8363564999999997 0.4884900000000000
0.2858380000000001 0.8363564999999999 0.9884900000000000
0.7858380000000003 0.3363564999999999 0.4884900000000000
0.7858380000000000 0.3363565000000000 0.9884900000000000
0.7858380000000000 0.8363564999999997 0.4884900000000000
0.7858380000000003 0.8363564999999999 0.9884900000000000
0.3298499999999999 0.2590999999999999 0.2856500000000000
0.3298499999999999 0.2590999999999999 0.7856500000000001
0.3298500000000000 0.7590999999999999 0.2856500000000000
0.3298500000000000 0.7590999999999997 0.7856500000000001
0.8298500000000002 0.2590999999999999 0.2856500000000000
0.8298499999999999 0.2590999999999999 0.7856500000000001
0.8298500000000000 0.7590999999999999 0.2856500000000000
0.8298500000000001 0.7590999999999997 0.7856500000000001
0.2920810000000000 0.2653340000000000 0.2903915000000001
0.2920810000000000 0.2653340000000000 0.7903915000000000
0.2920810000000000 0.7653339999999998 0.2903915000000001
0.2920810000000001 0.7653340000000001 0.7903915000000000
0.7920810000000000 0.2653340000000000 0.2903915000000001
0.7920810000000001 0.2653340000000000 0.7903915000000000
0.7920810000000003 0.7653339999999998 0.2903915000000001
0.7920810000000001 0.7653340000000001 0.7903915000000000
0.3441260000000000 0.2442385000000000 0.2661890000000000
0.3441260000000000 0.2442384999999999 0.7661890000000001
0.3441260000000000 0.7442384999999999 0.2661890000000000
0.3441259999999999 0.7442385000000001 0.7661890000000001
0.8441259999999999 0.2442385000000000 0.2661890000000000
0.8441259999999999 0.2442384999999999 0.7661890000000001
0.8441259999999999 0.7442384999999999 0.2661890000000000
0.8441260000000000 0.7442385000000001 0.7661890000000001
0.3502395000000000 0.2338005000000000 0.3038805000000000
0.3502395000000000 0.2338005000000000 0.8038805000000000
0.3502395000000000 0.7338004999999999 0.3038805000000000
0.3502395000000001 0.7338005000000001 0.8038805000000000
0.8502395000000000 0.2338005000000000 0.3038805000000000
0.8502394999999999 0.2338005000000000 0.8038805000000000
0.8502395000000000 0.7338004999999999 0.3038805000000000
0.8502395000000001 0.7338005000000001 0.8038805000000000
0.2118000000000000 0.3202500000000000 0.4421500000000000
0.2118000000000000 0.3202500000000000 0.9421500000000000
0.2118000000000000 0.8202499999999999 0.4421500000000000
0.2118000000000000 0.8202499999999999 0.9421500000000000
0.7117999999999998 0.3202500000000000 0.4421500000000000
0.7118000000000000 0.3202500000000000 0.9421500000000000
0.7117999999999999 0.8202499999999999 0.4421500000000000
0.7118000000000000 0.8202499999999999 0.9421500000000000
0.2328910000000000 0.3301825000000000 0.4228475000000000
0.2328910000000000 0.3301825000000001 0.9228475000000002
0.2328909999999999 0.8301824999999999 0.4228475000000000
0.2328909999999998 0.8301825000000000 0.9228475000000002
0.7328909999999998 0.3301825000000000 0.4228475000000000
0.7328910000000000 0.3301825000000001 0.9228475000000002
0.7328910000000001 0.8301824999999999 0.4228475000000000
0.7328910000000000 0.8301825000000000 0.9228475000000002
0.2218220000000000 0.2816814999999999 0.4465940000000000
0.2218220000000002 0.2816815000000000 0.9465939999999999
0.2218220000000000 0.7816814999999999 0.4465940000000000
0.2218220000000001 0.7816814999999999 0.9465939999999999
0.7218220000000000 0.2816814999999999 0.4465940000000000
0.7218220000000001 0.2816815000000000 0.9465939999999999
0.7218219999999999 0.7816814999999999 0.4465940000000000
0.7218220000000001 0.7816814999999999 0.9465939999999999
0.1735920000000000 0.3397780000000000 0.4386190000000000
0.1735920000000000 0.3397779999999999 0.9386190000000001
0.1735920000000001 0.8397779999999999 0.4386190000000000
0.1735920000000001 0.8397779999999999 0.9386190000000001
0.6735920000000000 0.3397780000000000 0.4386190000000000
0.6735920000000000 0.3397779999999999 0.9386190000000001
0.6735920000000001 0.8397779999999999 0.4386190000000000
0.6735920000000003 0.8397779999999999 0.9386190000000001
0.1501000000000000 0.3294000000000000 0.0948000000000000
0.1501000000000001 0.3294000000000000 0.5948000000000000
0.1501000000000001 0.8293999999999999 0.0948000000000000
0.1501000000000001 0.8293999999999999 0.5948000000000000
0.6501000000000000 0.3294000000000000 0.0948000000000000
0.6501000000000000 0.3294000000000000 0.5948000000000000
0.6501000000000000 0.8293999999999999 0.0948000000000000
0.6501000000000000 0.8293999999999999 0.5948000000000000
