# MFU_4I_Cu_MFU4l_HCOO
1.000000
 30.9220000000000006   0.0000000000000000         0.0000000000
  0.0000000000000019  30.9220000000000006         0.0000000000
  0.0000000000000019   0.0000000000000019        30.9220000000
Cu N C N C C O Zn O C H H 
1 1 1 1 1 1 1 1 1 1 1 1 
Direct
0.3145999999999999 0.3145999999999999 0.1853860000000000
0.3393000000000000 0.2746000000000000 0.2253990000000000
0.3820000000000000 0.2662000000000000 0.2337870000000000
0.3141000000000000 0.2500000000000000 0.2500000000000000
0.4207000000000000 0.2809000000000000 0.2190980000000000
0.4614000000000000 0.2661000000000000 0.2339110000000000
0.5000000000000000 0.2820000000000000 0.2180450000000000
0.2500000000000001 0.2500000000000000 0.2500000000000000
0.3565999999999999 0.3565999999999999 0.1967000000000000
0.1434000000000000 0.1434000000000000 0.1433900000000000
0.4204530000000000 0.3021660000000000 0.1978340000000000
0.1250920000000000 0.1250920000000000 0.1250920000000000
