# Co-MOF-10_CUK-1Co_500mpa
1.000000
 39.2051999999999978   0.0000000000000000         0.0000000000
  0.0000000000000017  27.6041999999999987         0.0000000000
 -5.4271712622064587   0.0000000000000024        32.6625841025
Co Co O H O O O O N C C H C C H C C H C 
18 18 18 18 18 18 18 18 18 18 18 18 18 18 18 18 18 18 18 
Direct
0.2885750000000001 0.1821333333333333 0.1763833333333334
0.2885750000000000 0.1821333333333333 0.5097166666666668
0.2885750000000000 0.1821333333333333 0.8430500000000001
0.2885750000000001 0.5154666666666666 0.1763833333333334
0.2885750000000000 0.5154666666666667 0.5097166666666668
0.2885750000000000 0.5154666666666666 0.8430500000000001
0.2885750000000001 0.8488000000000002 0.1763833333333334
0.2885750000000001 0.8488000000000002 0.5097166666666668
0.2885750000000000 0.8488000000000002 0.8430500000000001
0.7885750000000001 0.1821333333333333 0.1763833333333334
0.7885750000000001 0.1821333333333333 0.5097166666666668
0.7885750000000001 0.1821333333333333 0.8430500000000001
0.7885750000000001 0.5154666666666666 0.1763833333333334
0.7885750000000001 0.5154666666666667 0.5097166666666668
0.7885750000000001 0.5154666666666666 0.8430500000000001
0.7885750000000001 0.8488000000000002 0.1763833333333334
0.7885750000000001 0.8488000000000002 0.5097166666666668
0.7885750000000001 0.8488000000000002 0.8430500000000001
0.0000000000000000 0.2866333333333334 0.0833333333333333
0.0000000000000000 0.2866333333333334 0.4166666666666667
0.0000000000000000 0.2866333333333334 0.7500000000000000
0.0000000000000000 0.6199666666666667 0.0833333333333333
0.0000000000000000 0.6199666666666667 0.4166666666666667
0.0000000000000000 0.6199666666666666 0.7500000000000000
0.0000000000000000 0.9533000000000001 0.0833333333333333
0.0000000000000000 0.9533000000000001 0.4166666666666667
0.0000000000000000 0.9533000000000000 0.7500000000000000
0.5000000000000001 0.2866333333333334 0.0833333333333333
0.5000000000000000 0.2866333333333334 0.4166666666666667
0.5000000000000000 0.2866333333333334 0.7500000000000000
0.5000000000000001 0.6199666666666667 0.0833333333333333
0.5000000000000000 0.6199666666666667 0.4166666666666667
0.5000000000000000 0.6199666666666666 0.7500000000000000
0.5000000000000000 0.9533000000000001 0.0833333333333333
0.5000000000000000 0.9533000000000001 0.4166666666666667
0.4999999999999999 0.9533000000000000 0.7500000000000000
0.2604000000000000 0.1258666666666667 0.1475333333333333
0.2604000000000001 0.1258666666666667 0.4808666666666668
0.2604000000000000 0.1258666666666667 0.8142000000000001
0.2604000000000000 0.4592000000000001 0.1475333333333333
0.2604000000000000 0.4592000000000001 0.4808666666666668
0.2604000000000000 0.4592000000000001 0.8142000000000001
0.2604000000000001 0.7925333333333335 0.1475333333333333
0.2604000000000001 0.7925333333333335 0.4808666666666668
0.2604000000000001 0.7925333333333335 0.8142000000000001
0.7604000000000001 0.1258666666666667 0.1475333333333333
0.7604000000000000 0.1258666666666667 0.4808666666666668
0.7604000000000000 0.1258666666666667 0.8142000000000001
0.7604000000000001 0.4592000000000001 0.1475333333333333
0.7604000000000000 0.4592000000000001 0.4808666666666668
0.7604000000000000 0.4592000000000001 0.8142000000000001
0.7604000000000001 0.7925333333333335 0.1475333333333333
0.7604000000000000 0.7925333333333335 0.4808666666666668
0.7604000000000000 0.7925333333333335 0.8142000000000001
0.2650000000000001 0.1013333333333333 0.1580000000000000
0.2650000000000001 0.1013333333333334 0.4913333333333334
0.2650000000000001 0.1013333333333333 0.8246666666666668
0.2650000000000000 0.4346666666666668 0.1580000000000000
0.2650000000000000 0.4346666666666668 0.4913333333333334
0.2650000000000000 0.4346666666666668 0.8246666666666668
0.2650000000000001 0.7680000000000000 0.1580000000000000
0.2650000000000001 0.7680000000000000 0.4913333333333334
0.2650000000000001 0.7680000000000000 0.8246666666666668
0.7650000000000001 0.1013333333333333 0.1580000000000000
0.7650000000000001 0.1013333333333334 0.4913333333333334
0.7650000000000000 0.1013333333333333 0.8246666666666668
0.7650000000000001 0.4346666666666668 0.1580000000000000
0.7650000000000001 0.4346666666666668 0.4913333333333334
0.7650000000000000 0.4346666666666668 0.8246666666666668
0.7650000000000001 0.7680000000000000 0.1580000000000000
0.7650000000000001 0.7680000000000000 0.4913333333333334
0.7650000000000000 0.7680000000000000 0.8246666666666668
0.3100000000000000 0.2105000000000000 0.1268000000000000
0.3100000000000000 0.2105000000000000 0.4601333333333333
0.3100000000000000 0.2105000000000000 0.7934666666666668
0.3100000000000001 0.5438333333333333 0.1268000000000000
0.3100000000000000 0.5438333333333334 0.4601333333333333
0.3100000000000001 0.5438333333333333 0.7934666666666668
0.3100000000000000 0.8771666666666668 0.1268000000000000
0.3100000000000000 0.8771666666666668 0.4601333333333333
0.3100000000000001 0.8771666666666668 0.7934666666666668
0.8100000000000002 0.2105000000000000 0.1268000000000000
0.8100000000000002 0.2105000000000000 0.4601333333333333
0.8100000000000001 0.2105000000000000 0.7934666666666668
0.8100000000000002 0.5438333333333333 0.1268000000000000
0.8100000000000002 0.5438333333333334 0.4601333333333333
0.8100000000000001 0.5438333333333333 0.7934666666666668
0.8100000000000002 0.8771666666666668 0.1268000000000000
0.8100000000000002 0.8771666666666668 0.4601333333333333
0.8100000000000001 0.8771666666666668 0.7934666666666668
0.2837500000000000 0.1762666666666667 0.0698333333333333
0.2837500000000000 0.1762666666666667 0.4031666666666667
0.2837500000000000 0.1762666666666667 0.7364999999999999
0.2837500000000000 0.5096000000000001 0.0698333333333333
0.2837500000000000 0.5096000000000001 0.4031666666666667
0.2837499999999999 0.5095999999999999 0.7364999999999999
0.2837500000000000 0.8429333333333334 0.0698333333333333
0.2837500000000001 0.8429333333333334 0.4031666666666667
0.2837500000000001 0.8429333333333333 0.7364999999999999
0.7837499999999999 0.1762666666666667 0.0698333333333333
0.7837499999999999 0.1762666666666667 0.4031666666666667
0.7837499999999999 0.1762666666666667 0.7364999999999999
0.7837499999999999 0.5096000000000001 0.0698333333333333
0.7837499999999999 0.5096000000000001 0.4031666666666667
0.7837499999999999 0.5095999999999999 0.7364999999999999
0.7837499999999999 0.8429333333333334 0.0698333333333333
0.7837499999999999 0.8429333333333334 0.4031666666666667
0.7837499999999999 0.8429333333333333 0.7364999999999999
0.4343500000000001 0.2574000000000001 0.1298333333333333
0.4343500000000001 0.2574000000000000 0.4631666666666667
0.4343500000000001 0.2574000000000001 0.7965000000000000
0.4343500000000001 0.5907333333333333 0.1298333333333333
0.4343500000000001 0.5907333333333333 0.4631666666666667
0.4343500000000001 0.5907333333333334 0.7965000000000000
0.4343500000000000 0.9240666666666666 0.1298333333333333
0.4343500000000000 0.9240666666666666 0.4631666666666667
0.4343500000000000 0.9240666666666666 0.7965000000000000
0.9343500000000000 0.2574000000000001 0.1298333333333333
0.9343500000000000 0.2574000000000000 0.4631666666666667
0.9343500000000000 0.2574000000000001 0.7965000000000000
0.9343500000000000 0.5907333333333333 0.1298333333333333
0.9343500000000000 0.5907333333333333 0.4631666666666667
0.9343500000000000 0.5907333333333334 0.7965000000000000
0.9343500000000000 0.9240666666666666 0.1298333333333333
0.9343500000000000 0.9240666666666666 0.4631666666666667
0.9343500000000000 0.9240666666666666 0.7965000000000000
0.4599000000000000 0.2358666666666667 0.0772333333333333
0.4599000000000000 0.2358666666666667 0.4105666666666667
0.4599000000000000 0.2358666666666667 0.7439000000000000
0.4599000000000000 0.5692000000000000 0.0772333333333333
0.4599000000000000 0.5692000000000002 0.4105666666666667
0.4599000000000000 0.5692000000000000 0.7439000000000000
0.4598999999999999 0.9025333333333335 0.0772333333333333
0.4599000000000000 0.9025333333333335 0.4105666666666667
0.4599000000000000 0.9025333333333334 0.7439000000000000
0.9599000000000002 0.2358666666666667 0.0772333333333333
0.9599000000000000 0.2358666666666667 0.4105666666666667
0.9599000000000000 0.2358666666666667 0.7439000000000000
0.9599000000000002 0.5692000000000000 0.0772333333333333
0.9599000000000000 0.5692000000000002 0.4105666666666667
0.9599000000000000 0.5692000000000000 0.7439000000000000
0.9599000000000002 0.9025333333333335 0.0772333333333333
0.9599000000000000 0.9025333333333335 0.4105666666666667
0.9599000000000000 0.9025333333333334 0.7439000000000000
0.3368000000000000 0.1876333333333333 0.0314000000000000
0.3368000000000000 0.1876333333333333 0.3647333333333334
0.3368000000000000 0.1876333333333333 0.6980666666666667
0.3368000000000000 0.5209666666666667 0.0314000000000000
0.3368000000000000 0.5209666666666667 0.3647333333333334
0.3367999999999999 0.5209666666666667 0.6980666666666667
0.3368000000000000 0.8543000000000001 0.0314000000000000
0.3368000000000000 0.8543000000000001 0.3647333333333334
0.3368000000000000 0.8542999999999999 0.6980666666666667
0.8368000000000000 0.1876333333333333 0.0314000000000000
0.8368000000000002 0.1876333333333333 0.3647333333333334
0.8368000000000002 0.1876333333333333 0.6980666666666667
0.8368000000000000 0.5209666666666667 0.0314000000000000
0.8368000000000002 0.5209666666666667 0.3647333333333334
0.8368000000000002 0.5209666666666667 0.6980666666666667
0.8368000000000000 0.8543000000000001 0.0314000000000000
0.8368000000000002 0.8543000000000001 0.3647333333333334
0.8368000000000002 0.8542999999999999 0.6980666666666667
0.4342000000000000 0.2403000000000000 0.0956000000000000
0.4342000000000000 0.2403000000000000 0.4289333333333333
0.4342000000000000 0.2403000000000000 0.7622666666666666
0.4342000000000000 0.5736333333333334 0.0956000000000000
0.4342000000000000 0.5736333333333334 0.4289333333333333
0.4342000000000000 0.5736333333333333 0.7622666666666666
0.4341999999999999 0.9069666666666667 0.0956000000000000
0.4342000000000000 0.9069666666666667 0.4289333333333333
0.4342000000000000 0.9069666666666667 0.7622666666666666
0.9341999999999999 0.2403000000000000 0.0956000000000000
0.9341999999999999 0.2403000000000000 0.4289333333333333
0.9341999999999999 0.2403000000000000 0.7622666666666666
0.9341999999999999 0.5736333333333334 0.0956000000000000
0.9341999999999999 0.5736333333333334 0.4289333333333333
0.9341999999999999 0.5736333333333333 0.7622666666666666
0.9341999999999999 0.9069666666666667 0.0956000000000000
0.9341999999999999 0.9069666666666667 0.4289333333333333
0.9341999999999999 0.9069666666666667 0.7622666666666666
0.3712000000000000 0.2206333333333334 0.0914666666666667
0.3712000000000000 0.2206333333333334 0.4248000000000001
0.3712000000000000 0.2206333333333334 0.7581333333333334
0.3712000000000001 0.5539666666666667 0.0914666666666667
0.3712000000000000 0.5539666666666668 0.4248000000000001
0.3712000000000000 0.5539666666666667 0.7581333333333334
0.3712000000000000 0.8873000000000002 0.0914666666666667
0.3712000000000000 0.8873000000000002 0.4248000000000001
0.3712000000000000 0.8873000000000002 0.7581333333333334
0.8712000000000001 0.2206333333333334 0.0914666666666667
0.8712000000000000 0.2206333333333334 0.4248000000000001
0.8712000000000000 0.2206333333333334 0.7581333333333334
0.8712000000000001 0.5539666666666667 0.0914666666666667
0.8712000000000000 0.5539666666666668 0.4248000000000001
0.8712000000000000 0.5539666666666667 0.7581333333333334
0.8712000000000001 0.8873000000000002 0.0914666666666667
0.8712000000000000 0.8873000000000002 0.4248000000000001
0.8712000000000000 0.8873000000000002 0.7581333333333334
0.3728690000000001 0.2311476666666667 0.1183960000000000
0.3728690000000000 0.2311476666666667 0.4517293333333334
0.3728690000000000 0.2311476666666667 0.7850626666666667
0.3728690000000001 0.5644810000000000 0.1183960000000000
0.3728690000000000 0.5644810000000001 0.4517293333333334
0.3728690000000001 0.5644810000000000 0.7850626666666667
0.3728690000000001 0.8978143333333335 0.1183960000000000
0.3728690000000000 0.8978143333333335 0.4517293333333334
0.3728690000000000 0.8978143333333335 0.7850626666666667
0.8728690000000000 0.2311476666666667 0.1183960000000000
0.8728690000000001 0.2311476666666667 0.4517293333333334
0.8728690000000000 0.2311476666666667 0.7850626666666667
0.8728690000000000 0.5644810000000000 0.1183960000000000
0.8728690000000001 0.5644810000000001 0.4517293333333334
0.8728690000000000 0.5644810000000000 0.7850626666666667
0.8728690000000000 0.8978143333333335 0.1183960000000000
0.8728690000000001 0.8978143333333335 0.4517293333333334
0.8728690000000000 0.8978143333333335 0.7850626666666667
0.4002000000000000 0.2205666666666667 0.0724666666666667
0.4002000000000001 0.2205666666666667 0.4058000000000000
0.4002000000000000 0.2205666666666667 0.7391333333333334
0.4002000000000001 0.5538999999999999 0.0724666666666667
0.4002000000000001 0.5539000000000001 0.4058000000000000
0.4002000000000001 0.5538999999999999 0.7391333333333334
0.4002000000000000 0.8872333333333333 0.0724666666666667
0.4002000000000000 0.8872333333333333 0.4058000000000000
0.4002000000000000 0.8872333333333332 0.7391333333333334
0.9002000000000001 0.2205666666666667 0.0724666666666667
0.9002000000000001 0.2205666666666667 0.4058000000000000
0.9002000000000000 0.2205666666666667 0.7391333333333334
0.9002000000000001 0.5538999999999999 0.0724666666666667
0.9002000000000001 0.5539000000000001 0.4058000000000000
0.9002000000000000 0.5538999999999999 0.7391333333333334
0.9002000000000001 0.8872333333333333 0.0724666666666667
0.9002000000000001 0.8872333333333333 0.4058000000000000
0.9002000000000000 0.8872333333333332 0.7391333333333334
0.3650500000000000 0.1891000000000000 0.0137666666666667
0.3650500000000000 0.1891000000000000 0.3471000000000001
0.3650500000000000 0.1891000000000000 0.6804333333333333
0.3650500000000000 0.5224333333333333 0.0137666666666667
0.3650500000000000 0.5224333333333333 0.3471000000000001
0.3650500000000000 0.5224333333333333 0.6804333333333333
0.3650500000000000 0.8557666666666668 0.0137666666666667
0.3650500000000000 0.8557666666666668 0.3471000000000001
0.3650500000000000 0.8557666666666667 0.6804333333333333
0.8650500000000001 0.1891000000000000 0.0137666666666667
0.8650500000000000 0.1891000000000000 0.3471000000000001
0.8650500000000000 0.1891000000000000 0.6804333333333333
0.8650500000000001 0.5224333333333333 0.0137666666666667
0.8650500000000000 0.5224333333333333 0.3471000000000001
0.8650500000000000 0.5224333333333333 0.6804333333333333
0.8650500000000001 0.8557666666666668 0.0137666666666667
0.8650500000000000 0.8557666666666668 0.3471000000000001
0.8650500000000000 0.8557666666666667 0.6804333333333333
0.3629380000000000 0.1790143333333334 0.3200206666666667
0.3629380000000000 0.1790143333333334 0.6533540000000001
0.3629380000000000 0.1790143333333334 0.9866873333333334
0.3629380000000000 0.5123476666666669 0.3200206666666667
0.3629380000000000 0.5123476666666668 0.6533540000000001
0.3629380000000000 0.5123476666666668 0.9866873333333334
0.3629379999999999 0.8456810000000000 0.3200206666666667
0.3629380000000000 0.8456809999999999 0.6533540000000001
0.3629380000000000 0.8456810000000000 0.9866873333333334
0.8629380000000000 0.1790143333333334 0.3200206666666667
0.8629380000000000 0.1790143333333334 0.6533540000000001
0.8629380000000000 0.1790143333333334 0.9866873333333334
0.8629380000000000 0.5123476666666669 0.3200206666666667
0.8629380000000000 0.5123476666666668 0.6533540000000001
0.8629380000000000 0.5123476666666668 0.9866873333333334
0.8629380000000000 0.8456810000000000 0.3200206666666667
0.8629380000000000 0.8456809999999999 0.6533540000000001
0.8629380000000000 0.8456810000000000 0.9866873333333334
0.3398500000000000 0.2050333333333333 0.0704000000000000
0.3398500000000000 0.2050333333333333 0.4037333333333333
0.3398500000000000 0.2050333333333333 0.7370666666666668
0.3398500000000000 0.5383666666666668 0.0704000000000000
0.3398500000000000 0.5383666666666668 0.4037333333333333
0.3398500000000000 0.5383666666666667 0.7370666666666668
0.3398500000000000 0.8717000000000001 0.0704000000000000
0.3398500000000000 0.8717000000000001 0.4037333333333333
0.3398500000000000 0.8717000000000000 0.7370666666666668
0.8398500000000000 0.2050333333333333 0.0704000000000000
0.8398500000000000 0.2050333333333333 0.4037333333333333
0.8398500000000001 0.2050333333333333 0.7370666666666668
0.8398500000000000 0.5383666666666668 0.0704000000000000
0.8398500000000000 0.5383666666666668 0.4037333333333333
0.8398500000000001 0.5383666666666667 0.7370666666666668
0.8398500000000000 0.8717000000000001 0.0704000000000000
0.8398500000000000 0.8717000000000001 0.4037333333333333
0.8398500000000001 0.8717000000000000 0.7370666666666668
0.3971000000000001 0.2045333333333334 0.0329000000000000
0.3971000000000000 0.2045333333333334 0.3662333333333334
0.3971000000000000 0.2045333333333334 0.6995666666666668
0.3971000000000001 0.5378666666666667 0.0329000000000000
0.3971000000000001 0.5378666666666667 0.3662333333333334
0.3971000000000001 0.5378666666666666 0.6995666666666668
0.3971000000000001 0.8712000000000001 0.0329000000000000
0.3971000000000000 0.8712000000000001 0.3662333333333334
0.3971000000000000 0.8712000000000000 0.6995666666666668
0.8971000000000001 0.2045333333333334 0.0329000000000000
0.8971000000000000 0.2045333333333334 0.3662333333333334
0.8970999999999999 0.2045333333333334 0.6995666666666668
0.8971000000000001 0.5378666666666667 0.0329000000000000
0.8971000000000000 0.5378666666666667 0.3662333333333334
0.8970999999999999 0.5378666666666666 0.6995666666666668
0.8971000000000001 0.8712000000000001 0.0329000000000000
0.8971000000000000 0.8712000000000001 0.3662333333333334
0.8970999999999999 0.8712000000000000 0.6995666666666668
0.4160895000000001 0.2040266666666667 0.0193113333333333
0.4160895000000000 0.2040266666666667 0.3526446666666667
0.4160895000000001 0.2040266666666667 0.6859780000000000
0.4160895000000001 0.5373599999999999 0.0193113333333333
0.4160895000000000 0.5373599999999999 0.3526446666666667
0.4160895000000001 0.5373599999999999 0.6859780000000000
0.4160895000000000 0.8706933333333333 0.0193113333333333
0.4160894999999999 0.8706933333333333 0.3526446666666667
0.4160895000000000 0.8706933333333332 0.6859780000000000
0.9160895000000001 0.2040266666666667 0.0193113333333333
0.9160895000000000 0.2040266666666667 0.3526446666666667
0.9160895000000000 0.2040266666666667 0.6859780000000000
0.9160895000000001 0.5373599999999999 0.0193113333333333
0.9160895000000000 0.5373599999999999 0.3526446666666667
0.9160895000000000 0.5373599999999999 0.6859780000000000
0.9160895000000001 0.8706933333333333 0.0193113333333333
0.9160895000000000 0.8706933333333333 0.3526446666666667
0.9160895000000000 0.8706933333333332 0.6859780000000000
0.3090000000000001 0.1960666666666667 0.0909333333333333
0.3090000000000000 0.1960666666666667 0.4242666666666666
0.3090000000000000 0.1960666666666667 0.7576000000000002
0.3090000000000001 0.5294000000000001 0.0909333333333333
0.3090000000000001 0.5294000000000001 0.4242666666666666
0.3090000000000001 0.5294000000000000 0.7576000000000002
0.3090000000000001 0.8627333333333335 0.0909333333333333
0.3090000000000000 0.8627333333333335 0.4242666666666666
0.3090000000000001 0.8627333333333335 0.7576000000000002
0.8090000000000001 0.1960666666666667 0.0909333333333333
0.8089999999999999 0.1960666666666667 0.4242666666666666
0.8089999999999999 0.1960666666666667 0.7576000000000002
0.8090000000000001 0.5294000000000001 0.0909333333333333
0.8089999999999999 0.5294000000000001 0.4242666666666666
0.8089999999999999 0.5294000000000000 0.7576000000000002
0.8090000000000001 0.8627333333333335 0.0909333333333333
0.8089999999999999 0.8627333333333335 0.4242666666666666
0.8089999999999999 0.8627333333333335 0.7576000000000002
