# MFU_4I_Cu_MFU4l
1.000000
 31.0196000000000005   0.0000000000000000         0.0000000000
  0.0000000000000019  31.0196000000000005         0.0000000000
  0.0000000000000019   0.0000000000000019        31.0196000000
Zn Cl Zn N C N C C O H 
1 1 1 1 1 1 1 1 1 1 
Direct
0.3172600000000000 0.3172600000000000 0.1827400000000000
0.3554000000000000 0.3554000000000000 0.1446440000000000
0.2500000000000001 0.2500000000000001 0.2500000000000001
0.3405000000000000 0.2750000000000000 0.2249770000000000
0.3823000000000000 0.2668000000000000 0.2332260000000000
0.3157000000000000 0.2500000000000001 0.2500000000000001
0.4210000000000000 0.2829000000000000 0.2170650000000000
0.4609000000000000 0.2666000000000001 0.2334290000000000
0.5000000000000001 0.2828000000000001 0.2171670000000000
0.4209360000000000 0.3041300000000000 0.1958700000000000
