 Entering Gaussian System
 *********************************************
 Gaussian 98:
 frequency output generated by the xtb code
 *********************************************
                         Standard orientation:
 --------------------------------------------------------------------
  Center     Atomic     Atomic              Coordinates (Angstroms)
  Number     Number      Type              X           Y           Z
 --------------------------------------------------------------------
    1          7             0        3.342541   -0.121548    0.053733
    2          6             0        2.186419   -0.081837    0.036430
    3          6             0        0.797048   -0.029197    0.013253
    4          7             0        0.044909   -0.085488    1.138254
    5          6             0       -1.209459   -0.006606    0.672448
    6          6             0       -1.182977    0.094597   -0.711597
    7          7             0        0.088430    0.080795   -1.135830
    8          1             0       -2.059696   -0.025690    1.338765
    9          1             0       -2.007215    0.174974   -1.405455
 --------------------------------------------------------------------
     1 basis functions        1 primitive gaussians
     1 alpha electrons        1 beta electrons

 Harmonic frequencies (cm**-1), IR intensities (km*mol⁻¹),
 Raman scattering activities (A**4/amu), Raman depolarization ratios,
 reduced masses (AMU), force constants (mDyne/A) and normal coordinates:
                      1                      2                      3
                        a                      a                      a 
 Frequencies --   160.9813               162.9762               486.9419
 Red. masses --    12.0200                12.9009                12.3613
 Frc consts  --     0.0000                 0.0000                 0.0000
 IR Inten    --     2.3536                 3.8448                24.1584
 Raman Activ --     0.0000                 0.0000                 0.0000
 Depolar     --     0.0000                 0.0000                 0.0000
 Atom AN      X      Y      Z        X      Y      Z        X      Y      Z
   1   7    -0.02  -0.53  -0.04    -0.01  -0.05   0.64     0.01   0.32   0.02
   2   6     0.01   0.23   0.02     0.00   0.02  -0.20    -0.03  -0.81  -0.06
   3   6     0.02   0.51   0.04     0.01   0.03  -0.38     0.01   0.20   0.01
   4   7     0.01   0.26   0.02     0.31   0.00  -0.20     0.01   0.27   0.02
   5   6    -0.01  -0.31  -0.02     0.17  -0.02   0.14    -0.00  -0.14  -0.01
   6   6    -0.01  -0.31  -0.02    -0.18  -0.00   0.14    -0.00  -0.13  -0.01
   7   7     0.01   0.26   0.02    -0.30   0.03  -0.21     0.01   0.27   0.02
   8   1    -0.01  -0.19  -0.01     0.10  -0.01   0.10    -0.00  -0.08  -0.01
   9   1    -0.01  -0.19  -0.01    -0.10  -0.00   0.10    -0.00  -0.08  -0.01
                      4                      5                      6
                        a                      a                      a 
 Frequencies --   551.9234               603.7891               615.4036
 Red. masses --    12.2704                12.9751                10.9961
 Frc consts  --     0.0000                 0.0000                 0.0000
 IR Inten    --    19.5767                 4.0424                 0.0005
 Raman Activ --     0.0000                 0.0000                 0.0000
 Depolar     --     0.0000                 0.0000                 0.0000
 Atom AN      X      Y      Z        X      Y      Z        X      Y      Z
   1   7    -0.00  -0.02   0.25    -0.60   0.02  -0.01    -0.00   0.00   0.00
   2   6     0.02   0.06  -0.84    -0.48   0.02  -0.01    -0.00  -0.00  -0.00
   3   6    -0.00  -0.02   0.21    -0.12   0.01  -0.00    -0.00  -0.00   0.00
   4   7    -0.16  -0.01   0.22     0.27  -0.02   0.13    -0.01  -0.38  -0.03
   5   6    -0.09   0.01  -0.05     0.32  -0.01   0.02     0.02   0.53   0.04
   6   6     0.09   0.00  -0.04     0.32  -0.01  -0.01    -0.02  -0.53  -0.04
   7   7     0.15  -0.02   0.22     0.27  -0.00  -0.12     0.01   0.38   0.03
   8   1    -0.06   0.01  -0.06     0.06   0.00  -0.03     0.01   0.27   0.02
   9   1     0.06   0.00  -0.06     0.06  -0.00   0.03    -0.01  -0.27  -0.02
                      7                      8                      9
                        a                      a                      a 
 Frequencies --   679.1424               789.0947               801.5824
 Red. masses --    12.7721                 3.4260                 2.8664
 Frc consts  --     0.0000                 0.0000                 0.0000
 IR Inten    --    14.3415                 0.0032                 0.0612
 Raman Activ --     0.0000                 0.0000                 0.0000
 Depolar     --     0.0000                 0.0000                 0.0000
 Atom AN      X      Y      Z        X      Y      Z        X      Y      Z
   1   7    -0.00  -0.04  -0.00     0.00   0.00   0.00     0.00  -0.00  -0.00
   2   6     0.00   0.14   0.01    -0.00  -0.00  -0.00     0.00  -0.00  -0.00
   3   6    -0.03  -0.73  -0.05     0.00   0.00   0.00     0.01   0.16   0.01
   4   7     0.02   0.44   0.03    -0.00  -0.02  -0.00     0.00   0.01   0.00
   5   6    -0.01  -0.16  -0.01    -0.01  -0.33  -0.02    -0.01  -0.27  -0.02
   6   6    -0.00  -0.16  -0.01     0.01   0.33   0.02    -0.01  -0.27  -0.02
   7   7     0.02   0.44   0.03     0.00   0.02   0.00    -0.00   0.01   0.00
   8   1     0.00   0.02   0.00     0.02   0.62   0.05     0.02   0.64   0.05
   9   1     0.00   0.02   0.00    -0.02  -0.62  -0.05     0.02   0.64   0.05
                     10                     11                     12
                        a                      a                      a 
 Frequencies --   920.2253               977.0930              1117.3826
 Red. masses --    11.9669                 8.4659                 7.5808
 Frc consts  --     0.0000                 0.0000                 0.0000
 IR Inten    --     9.8827                 0.7867                20.9278
 Raman Activ --     0.0000                 0.0000                 0.0000
 Depolar     --     0.0000                 0.0000                 0.0000
 Atom AN      X      Y      Z        X      Y      Z        X      Y      Z
   1   7     0.00   0.00  -0.01    -0.17   0.01  -0.00    -0.12   0.00  -0.00
   2   6    -0.00  -0.00   0.04    -0.10   0.00  -0.00    -0.05   0.00  -0.00
   3   6    -0.00  -0.01   0.20     0.16  -0.01   0.00     0.15  -0.01   0.00
   4   7     0.22  -0.03   0.27     0.08   0.03  -0.49     0.10   0.03  -0.39
   5   6     0.44   0.01  -0.37    -0.09   0.00   0.03    -0.01   0.02  -0.29
   6   6    -0.43   0.04  -0.39    -0.09   0.01  -0.03    -0.02  -0.02   0.29
   7   7    -0.24  -0.01   0.26     0.06  -0.04   0.49     0.09  -0.03   0.40
   8   1     0.13   0.00  -0.08     0.26  -0.04   0.37    -0.25   0.04  -0.41
   9   1    -0.13   0.01  -0.08     0.28   0.02  -0.36    -0.27  -0.02   0.40
                     13                     14                     15
                        a                      a                      a 
 Frequencies --  1121.0014              1282.7661              1308.4070
 Red. masses --     3.8632                12.7604                12.7583
 Frc consts  --     0.0000                 0.0000                 0.0000
 IR Inten    --     8.4785                45.1221                27.2348
 Raman Activ --     0.0000                 0.0000                 0.0000
 Depolar     --     0.0000                 0.0000                 0.0000
 Atom AN      X      Y      Z        X      Y      Z        X      Y      Z
   1   7    -0.00  -0.00   0.01     0.02  -0.00   0.00    -0.00  -0.00   0.02
   2   6     0.00   0.00  -0.04     0.03  -0.00   0.00     0.00   0.00  -0.04
   3   6    -0.00  -0.02   0.25    -0.19   0.01  -0.00    -0.01  -0.05   0.70
   4   7    -0.23   0.02  -0.14     0.50  -0.03   0.10     0.37   0.01  -0.28
   5   6     0.04   0.01  -0.09    -0.44   0.01   0.05    -0.19   0.01  -0.03
   6   6    -0.03   0.01  -0.09    -0.44   0.02  -0.06     0.18  -0.00  -0.02
   7   7     0.24   0.00  -0.13     0.51  -0.01  -0.08    -0.35   0.03  -0.29
   8   1     0.40  -0.05   0.47    -0.11   0.00   0.04    -0.06   0.00  -0.03
   9   1    -0.42  -0.02   0.46    -0.11   0.01  -0.04     0.06  -0.00  -0.03
                     16                     17                     18
                        a                      a                      a 
 Frequencies --  1383.6550              1429.4934              1434.5336
 Red. masses --    11.0502                11.4803                11.8902
 Frc consts  --     0.0000                 0.0000                 0.0000
 IR Inten    --    41.3041               119.3434                 9.3090
 Raman Activ --     0.0000                 0.0000                 0.0000
 Depolar     --     0.0000                 0.0000                 0.0000
 Atom AN      X      Y      Z        X      Y      Z        X      Y      Z
   1   7     0.19  -0.01   0.00     0.00   0.00  -0.01     0.20  -0.01   0.00
   2   6     0.07  -0.00   0.00    -0.00  -0.00   0.04     0.05  -0.00   0.00
   3   6    -0.63   0.02  -0.01     0.01   0.02  -0.29    -0.60   0.02  -0.01
   4   7     0.03  -0.00  -0.01     0.28  -0.03   0.28     0.03   0.02  -0.27
   5   6     0.09   0.03  -0.47    -0.44   0.03  -0.23     0.17  -0.04   0.41
   6   6     0.07  -0.04   0.48     0.45   0.00  -0.22     0.19   0.02  -0.41
   7   7     0.03  -0.00   0.01    -0.29  -0.01   0.27     0.02  -0.02   0.27
   8   1     0.20  -0.01   0.08     0.09  -0.02   0.21    -0.12   0.01  -0.09
   9   1     0.21  -0.00  -0.07    -0.10  -0.01   0.21    -0.12  -0.00   0.09
                     19                     20                     21
                        a                      a                      a 
 Frequencies --  2323.0347              3031.8530              3054.6923
 Red. masses --    12.7536                 1.7600                 1.9221
 Frc consts  --     0.0000                 0.0000                 0.0000
 IR Inten    --   686.5775               143.7928               295.1079
 Raman Activ --     0.0000                 0.0000                 0.0000
 Depolar     --     0.0000                 0.0000                 0.0000
 Atom AN      X      Y      Z        X      Y      Z        X      Y      Z
   1   7    -0.61   0.02  -0.01    -0.00  -0.00   0.00    -0.00   0.00  -0.00
   2   6     0.78  -0.03   0.01     0.00   0.00  -0.00     0.01  -0.00   0.00
   3   6    -0.11   0.00  -0.00    -0.00  -0.00   0.00     0.00  -0.00   0.00
   4   7    -0.02   0.00   0.00     0.00   0.00  -0.01     0.00  -0.00   0.01
   5   6     0.02  -0.00   0.02     0.14   0.00  -0.12    -0.16  -0.00   0.13
   6   6     0.02   0.00  -0.01    -0.14   0.01  -0.12    -0.15   0.02  -0.14
   7   7    -0.02   0.00  -0.00    -0.00   0.00  -0.01     0.00   0.00  -0.01
   8   1    -0.00  -0.00   0.00    -0.54  -0.01   0.42     0.53   0.01  -0.42
   9   1    -0.00   0.00  -0.00     0.52  -0.05   0.44     0.51  -0.05   0.44
