      -----------------------------------------------------------      
     |                   =====================                   |     
     |                           x T B                           |     
     |                   =====================                   |     
     |                         S. Grimme                         |     
     |          Mulliken Center for Theoretical Chemistry        |     
     |                    University of Bonn                     |     
      -----------------------------------------------------------      

   * xtb version 6.7.1 (edcfbbe) compiled by 'conda@5dfe00f5fb80' on 2026-06-10

   xtb is free software: you can redistribute it and/or modify it under
   the terms of the GNU Lesser General Public License as published by
   the Free Software Foundation, either version 3 of the License, or
   (at your option) any later version.
   
   xtb is distributed in the hope that it will be useful,
   but WITHOUT ANY WARRANTY; without even the implied warranty of
   MERCHANTABILITY or FITNESS FOR A PARTICULAR PURPOSE.  See the
   GNU Lesser General Public License for more details.
   
   Cite this work as:
   * C. Bannwarth, E. Caldeweyher, S. Ehlert, A. Hansen, P. Pracht,
     J. Seibert, S. Spicher, S. Grimme, WIREs Comput. Mol. Sci., 2020, 11,
     e01493. DOI: 10.1002/wcms.1493
   
   for GFN2-xTB:
   * C. Bannwarth, S. Ehlert and S. Grimme., J. Chem. Theory Comput., 2019,
     15, 1652-1671. DOI: 10.1021/acs.jctc.8b01176
   for GFN1-xTB:
   * S. Grimme, C. Bannwarth, P. Shushkov, J. Chem. Theory Comput., 2017,
     13, 1989-2009. DOI: 10.1021/acs.jctc.7b00118
   for GFN0-xTB:
   * P. Pracht, E. Caldeweyher, S. Ehlert, S. Grimme, ChemRxiv, 2019, preprint.
     DOI: 10.26434/chemrxiv.8326202.v1
   for GFN-FF:
   * S. Spicher and S. Grimme, Angew. Chem. Int. Ed., 2020, 59, 15665-15673.
     DOI: 10.1002/anie.202004239
   
   for ALPB and GBSA implicit solvation:
   * S. Ehlert, M. Stahn, S. Spicher, S. Grimme, J. Chem. Theory Comput.,
     2021, 17, 4250-4261. DOI: 10.1021/acs.jctc.1c00471
   
   for ddCOSMO and CPCM-X implicit solvation:
   * M. Stahn, S. Ehlert, S. Grimme, J. Phys. Chem. A,
     2023, XX, XXXX-XXXX. DOI: 10.1021/acs.jpca.3c04382
   
   for DFT-D4:
   * E. Caldeweyher, C. Bannwarth and S. Grimme, J. Chem. Phys., 2017,
     147, 034112. DOI: 10.1063/1.4993215
   * E. Caldeweyher, S. Ehlert, A. Hansen, H. Neugebauer, S. Spicher,
     C. Bannwarth and S. Grimme, J. Chem. Phys., 2019, 150, 154122.
     DOI: 10.1063/1.5090222
   * E. Caldeweyher, J.-M. Mewes, S. Ehlert and S. Grimme, Phys. Chem. Chem. Phys.
     2020, 22, 8499-8512. DOI: 10.1039/D0CP00502A
   
   for sTDA-xTB:
   * S. Grimme and C. Bannwarth, J. Chem. Phys., 2016, 145, 054103.
     DOI: 10.1063/1.4959605
   
   in the mass-spec context:
   * V. Asgeirsson, C. Bauer and S. Grimme, Chem. Sci., 2017, 8, 4879.
     DOI: 10.1039/c7sc00601b
   * J. Koopman and S. Grimme, ACS Omega 2019, 4, 12, 15120-15133.
     DOI: 10.1021/acsomega.9b02011
   
   for metadynamics refer to:
   * S. Grimme, J. Chem. Theory Comput., 2019, 155, 2847-2862
     DOI: 10.1021/acs.jctc.9b00143
   
   for SPH calculations refer to:
   * S. Spicher and S. Grimme, J. Chem. Theory Comput., 2021, 17, 1701-1714
     DOI: 10.1021/acs.jctc.0c01306
   
   for ONIOM refer to:
   * C. Plett, A. Katbashev, S. Ehlert, S. Grimme, M. Bursch,
     Phys. Chem. Chem. Phys., 2023, 25, 17860-17868. DOI: 10.1039/D3CP02178E
   
   for DIPRO refer to:
   * J. Kohn, N. Gildemeister, S. Grimme, D. Fazzi, A. Hansen,
     J. Chem. Phys., 2023, just accepted.
   
   for PTB refer to:
   * S. Grimme, M. Mueller, A. Hansen, J. Chem. Phys., 2023, 158, 124111.
     DOI: 10.1063/5.0137838
   
   with help from (in alphabetical order)
   P. Atkinson, C. Bannwarth, F. Bohle, G. Brandenburg, E. Caldeweyher
   M. Checinski, S. Dohm, S. Ehlert, S. Ehrlich, I. Gerasimov, C. Hölzer
   A. Katbashev, J. Kohn, J. Koopman, C. Lavigne, S. Lehtola, F. März, M. Müller,
   F. Musil, H. Neugebauer, J. Pisarek, C. Plett, P. Pracht, F. Pultar,
   J. Seibert, P. Shushkov, S. Spicher, M. Stahn, M. Steiner, T. Strunk,
   J. Stückrath, T. Rose, and J. Unsleber
   
 * started run on 2026/08/15 at 00:31:47.743     
   ID    Z sym.   atoms
    1    7 N      1, 4, 7
    2    6 C      2, 3, 5, 6
    3    1 H      8, 9

           -------------------------------------------------
          |                Calculation Setup                |
           -------------------------------------------------

          program call               : /home/mangwon1/miniconda3/envs/spectra/bin/xtb mol.xyz --ohess --chrg -1
          coordinate file            : mol.xyz
          omp threads                :                    16


           -------------------------------------------------
          |                 G F N 2 - x T B                 |
           -------------------------------------------------

        Reference                      10.1021/acs.jctc.8b01176
      * Hamiltonian:
        H0-scaling (s, p, d)           1.850000    2.230000    2.230000
        zeta-weighting                 0.500000
      * Dispersion:
        s8                             2.700000
        a1                             0.520000
        a2                             5.000000
        s9                             5.000000
      * Repulsion:
        kExp                           1.500000    1.000000
        rExp                           1.000000
      * Coulomb:
        alpha                          2.000000
        third order                    shell-resolved
        anisotropic                    true
        a3                             3.000000
        a5                             4.000000
        cn-shift                       1.200000
        cn-exp                         4.000000
        max-rad                        5.000000


          ...................................................
          :                      SETUP                      :
          :.................................................:
          :  # basis functions                  30          :
          :  # atomic orbitals                  30          :
          :  # shells                           16          :
          :  # electrons                        34          :
          :  max. iterations                   250          :
          :  Hamiltonian                  GFN2-xTB          :
          :  restarted?                      false          :
          :  GBSA solvation                  false          :
          :  PC potential                    false          :
          :  electronic temp.          300.0000000     K    :
          :  accuracy                    1.0000000          :
          :  -> integral cutoff          0.2500000E+02      :
          :  -> integral neglect         0.1000000E-07      :
          :  -> SCF convergence          0.1000000E-05 Eh   :
          :  -> wf. convergence          0.1000000E-03 e    :
          :  Broyden damping             0.4000000          :
          :  net charge                         -1          :
          :  unpaired electrons                  0          :
          ...................................................

 iter      E             dE          RMSdq      gap      omega  full diag
   1    -18.6903313 -0.186903E+02  0.682E+00    4.33       0.0  T
   2    -18.7095819 -0.192506E-01  0.498E+00    3.42       1.0  T
   3    -18.7292326 -0.196507E-01  0.293E+00    3.01       1.0  T
   4    -18.7573302 -0.280975E-01  0.971E-01    2.79       1.0  T
   5    -18.7627941 -0.546397E-02  0.239E-01    2.81       1.0  T
   6    -18.7629858 -0.191691E-03  0.115E-01    2.85       1.0  T
   7    -18.7630121 -0.262729E-04  0.466E-02    2.85       1.0  T
   8    -18.7630186 -0.653130E-05  0.124E-02    2.84       2.7  T
   9    -18.7630187 -0.553637E-07  0.453E-03    2.85       7.4  T
  10    -18.7630189 -0.185688E-06  0.870E-04    2.84      38.3  T
  11    -18.7630189 -0.501934E-09  0.410E-04    2.84      81.4  T

   *** convergence criteria satisfied after 11 iterations ***

         #    Occupation            Energy/Eh            Energy/eV
      -------------------------------------------------------------
         1        2.0000           -0.4678235             -12.7301
       ...           ...                  ...                  ...
        11        2.0000           -0.2966628              -8.0726
        12        2.0000           -0.2806971              -7.6382
        13        2.0000           -0.2578319              -7.0160
        14        2.0000           -0.2088048              -5.6819
        15        2.0000           -0.1952594              -5.3133
        16        2.0000           -0.1837230              -4.9994
        17        2.0000           -0.1653602              -4.4997 (HOMO)
        18                         -0.0608117              -1.6548 (LUMO)
        19                         -0.0503744              -1.3708
        20                          0.0312100               0.8493
        21                          0.0416180               1.1325
        22                          0.1254528               3.4137
       ...                                ...                  ...
        30                          1.1169341              30.3933
      -------------------------------------------------------------
                  HL-Gap            0.1045485 Eh            2.8449 eV
             Fermi-level           -0.1130860 Eh           -3.0772 eV

 SCC (total)                   0 d,  0 h,  0 min,  2.566 sec
 SCC setup                      ...        0 min,  0.022 sec (  0.864%)
 Dispersion                     ...        0 min,  0.056 sec (  2.163%)
 classical contributions        ...        0 min,  0.028 sec (  1.095%)
 integral evaluation            ...        0 min,  0.072 sec (  2.822%)
 iterations                     ...        0 min,  2.112 sec ( 82.293%)
 molecular gradient             ...        0 min,  0.276 sec ( 10.746%)
 printout                       ...        0 min,  0.000 sec (  0.013%)

         :::::::::::::::::::::::::::::::::::::::::::::::::::::
         ::                     SUMMARY                     ::
         :::::::::::::::::::::::::::::::::::::::::::::::::::::
         :: total energy             -18.502144868365 Eh    ::
         :: gradient norm              0.089452607957 Eh/a0 ::
         :: HOMO-LUMO gap              2.844908563379 eV    ::
         ::.................................................::
         :: SCC energy               -18.763021243490 Eh    ::
         :: -> isotropic ES            0.134621072336 Eh    ::
         :: -> anisotropic ES          0.008244899428 Eh    ::
         :: -> anisotropic XC          0.029614350794 Eh    ::
         :: -> dispersion             -0.007081129058 Eh    ::
         :: repulsion energy           0.260876375125 Eh    ::
         :: add. restraining           0.000000000000 Eh    ::
         :: total charge              -1.000000000000 e     ::
         :::::::::::::::::::::::::::::::::::::::::::::::::::::

      ----------------------------------------------------------- 
     |                   =====================                   |
     |                        A N C O P T                        |
     |                   =====================                   |
     |               Approximate Normal Coordinate               |
     |                Rational Function Optimizer                |
      ----------------------------------------------------------- 
      ----------------------------------------------------------- 
     |                   =====================                   |
     |                        A N C O P T                        |
     |                   =====================                   |
     |               Approximate Normal Coordinate               |
     |                Rational Function Optimizer                |
      ----------------------------------------------------------- 

          ...................................................
          :                      SETUP                      :
          :.................................................:
          :   optimization level            normal          :
          :   max. optcycles                   200          :
          :   ANC micro-cycles                  20          :
          :   degrees of freedom                21          :
          :.................................................:
          :   RF solver                   davidson          :
          :   write xtbopt.log                true          :
          :   linear?                        false          :
          :   energy convergence         0.5000000E-05 Eh   :
          :   grad. convergence          0.1000000E-02 Eh/α :
          :   maxmium RF displ.          1.0000000          :
          :   Hlow (freq-cutoff)         0.1000000E-01      :
          :   Hmax (freq-cutoff)         5.0000000          :
          :   S6 in model hess.         20.0000000          :
          ...................................................

generating ANC from exact Hessian ...
Using Lindh-Hessian (1995)
 Shifting diagonal of input Hessian by    9.1785496629167625E-003
 Lowest  eigenvalues of input Hessian
    0.000000    0.000000    0.000000    0.000000    0.000000    0.000000
    0.010000    0.018788    0.042809    0.050255    0.072423    0.108174
    0.127409    0.144883    0.179649    0.218133    0.287389    0.341122
 Highest eigenvalues
    1.306722    1.625927    1.667196    1.919268    1.955561    2.295816


........................................................................
.............................. CYCLE    1 ..............................
........................................................................

 iter      E             dE          RMSdq      gap      omega  full diag
   1    -18.7630189 -0.187630E+02  0.101E-04    2.84       0.0  T
   2    -18.7630189  0.389768E-10  0.101E-04    2.84     330.3  T
   3    -18.7630189 -0.984777E-10  0.295E-05    2.84    1128.0  T
     SCC iter.                  ...        0 min,  0.444 sec
     gradient                   ...        0 min,  0.260 sec
 * total energy  :   -18.5021449 Eh     change       -0.1327372E-08 Eh
   gradient norm :     0.0894504 Eh/α   predicted     0.0000000E+00 (-100.00%)
   displ. norm   :     0.4501152 α      lambda       -0.3577868E-01
   maximum displ.:     0.3238820 α      in ANC's #8, #6, #13, ...

........................................................................
.............................. CYCLE    2 ..............................
........................................................................

 iter      E             dE          RMSdq      gap      omega  full diag
   1    -18.8083435 -0.188083E+02  0.839E-01    3.19       0.0  T
   2    -18.8085316 -0.188082E-03  0.650E-01    3.30       1.0  T
   3    -18.8090594 -0.527812E-03  0.344E-01    3.30       1.0  T
   4    -18.8094226 -0.363138E-03  0.781E-02    3.28       1.0  T
   5    -18.8094556 -0.330121E-04  0.218E-02    3.29       1.5  T
   6    -18.8094555  0.684096E-07  0.985E-03    3.29       3.4  T
   7    -18.8094560 -0.507308E-06  0.175E-03    3.29      19.0  T
   8    -18.8094560 -0.888989E-08  0.917E-04    3.29      36.3  T
   9    -18.8094560 -0.862872E-09  0.136E-04    3.29     245.1  T
     SCC iter.                  ...        0 min,  1.689 sec
     gradient                   ...        0 min,  0.260 sec
 * total energy  :   -18.5283298 Eh     change       -0.2618491E-01 Eh
   gradient norm :     0.0604119 Eh/α   predicted    -0.2151378E-01 ( -17.84%)
   displ. norm   :     0.3208528 α      lambda       -0.1242075E-01
   maximum displ.:     0.2293075 α      in ANC's #8, #6, #13, ...

........................................................................
.............................. CYCLE    3 ..............................
........................................................................

 iter      E             dE          RMSdq      gap      omega  full diag
   1    -18.8322541 -0.188323E+02  0.636E-01    3.25       0.0  T
   2    -18.8328462 -0.592094E-03  0.577E-01    3.41       1.0  T
   3    -18.8339157 -0.106949E-02  0.254E-01    3.39       1.0  T
   4    -18.8338753  0.403279E-04  0.117E-01    3.38       1.0  T
   5    -18.8339428 -0.674713E-04  0.203E-02    3.38       1.6  T
   6    -18.8339451 -0.227806E-05  0.121E-02    3.38       2.7  T
   7    -18.8339454 -0.269595E-06  0.239E-03    3.38      13.9  T
   8    -18.8339454 -0.277425E-07  0.884E-04    3.38      37.7  T
   9    -18.8339454 -0.141085E-08  0.231E-04    3.38     144.0  T
     SCC iter.                  ...        0 min,  1.576 sec
     gradient                   ...        0 min,  0.284 sec
 * total energy  :   -18.5313487 Eh     change       -0.3018948E-02 Eh
   gradient norm :     0.0459391 Eh/α   predicted    -0.6849711E-02 ( 126.89%)
   displ. norm   :     0.1215459 α      lambda       -0.3612346E-02
   maximum displ.:     0.0944370 α      in ANC's #8, #6, #13, ...

........................................................................
.............................. CYCLE    4 ..............................
........................................................................

 iter      E             dE          RMSdq      gap      omega  full diag
   1    -18.8249188 -0.188249E+02  0.251E-01    3.42       0.0  T
   2    -18.8249923 -0.734569E-04  0.238E-01    3.36       1.0  T
   3    -18.8251904 -0.198079E-03  0.104E-01    3.36       1.0  T
   4    -18.8251838  0.651513E-05  0.433E-02    3.37       1.0  T
   5    -18.8251926 -0.879207E-05  0.743E-03    3.37       4.5  T
   6    -18.8251929 -0.228531E-06  0.457E-03    3.37       7.3  T
   7    -18.8251929 -0.325823E-07  0.115E-03    3.37      28.9  T
   8    -18.8251929 -0.751695E-08  0.298E-04    3.37     111.7  T
   9    -18.8251929 -0.361275E-10  0.875E-05    3.37     380.8  T
     SCC iter.                  ...        0 min,  1.520 sec
     gradient                   ...        0 min,  0.264 sec
 * total energy  :   -18.5327503 Eh     change       -0.1401567E-02 Eh
   gradient norm :     0.0091975 Eh/α   predicted    -0.1832857E-02 (  30.77%)
   displ. norm   :     0.0208151 α      lambda       -0.1111715E-03
   maximum displ.:     0.0180605 α      in ANC's #6, #8, #14, ...

........................................................................
.............................. CYCLE    5 ..............................
........................................................................

 iter      E             dE          RMSdq      gap      omega  full diag
   1    -18.8270543 -0.188271E+02  0.413E-02    3.36       0.0  T
   2    -18.8270567 -0.241397E-05  0.344E-02    3.37       1.0  T
   3    -18.8270603 -0.363192E-05  0.154E-02    3.37       2.2  T
   4    -18.8270602  0.107616E-06  0.788E-03    3.37       4.2  T
   5    -18.8270606 -0.319648E-06  0.132E-03    3.37      25.3  T
   6    -18.8270606 -0.132271E-07  0.629E-04    3.37      53.0  T
   7    -18.8270606 -0.655415E-09  0.100E-04    3.37     332.0  T
     SCC iter.                  ...        0 min,  1.232 sec
     gradient                   ...        0 min,  0.232 sec
 * total energy  :   -18.5328178 Eh     change       -0.6755186E-04 Eh
   gradient norm :     0.0025760 Eh/α   predicted    -0.5561155E-04 ( -17.68%)
   displ. norm   :     0.0097178 α      lambda       -0.1274217E-04
   maximum displ.:     0.0091179 α      in ANC's #6, #8, #14, ...

........................................................................
.............................. CYCLE    6 ..............................
........................................................................

 iter      E             dE          RMSdq      gap      omega  full diag
   1    -18.8274104 -0.188274E+02  0.179E-02    3.37       0.0  T
   2    -18.8274109 -0.496411E-06  0.111E-02    3.37       3.0  T
   3    -18.8274111 -0.165694E-06  0.653E-03    3.37       5.1  T
   4    -18.8274111 -0.323715E-07  0.271E-03    3.37      12.3  T
   5    -18.8274112 -0.508998E-07  0.469E-04    3.37      71.1  T
   6    -18.8274112 -0.229836E-08  0.157E-04    3.37     212.8  T
     SCC iter.                  ...        0 min,  1.243 sec
     gradient                   ...        0 min,  0.289 sec
 * total energy  :   -18.5328259 Eh     change       -0.8058102E-05 Eh
   gradient norm :     0.0007766 Eh/α   predicted    -0.6372310E-05 ( -20.92%)
   displ. norm   :     0.0107262 α      lambda       -0.3391811E-05
   maximum displ.:     0.0073620 α      in ANC's #6, #8, #1, ...

........................................................................
.............................. CYCLE    7 ..............................
........................................................................

 iter      E             dE          RMSdq      gap      omega  full diag
   1    -18.8274108 -0.188274E+02  0.214E-02    3.37       0.0  T
   2    -18.8274110 -0.184830E-06  0.125E-02    3.37       2.7  T
   3    -18.8274108  0.164330E-06  0.620E-03    3.37       5.4  T
   4    -18.8274111 -0.245440E-06  0.165E-03    3.37      20.3  T
   5    -18.8274111 -0.211728E-07  0.357E-04    3.37      93.4  T
   6    -18.8274111 -0.357318E-09  0.156E-04    3.37     214.4  T
     SCC iter.                  ...        0 min,  1.228 sec
     gradient                   ...        0 min,  0.276 sec
 * total energy  :   -18.5328272 Eh     change       -0.1316674E-05 Eh
   gradient norm :     0.0007949 Eh/α   predicted    -0.1694230E-05 (  28.68%)
   displ. norm   :     0.0210371 α      lambda       -0.4218179E-05
   maximum displ.:     0.0164469 α      in ANC's #1, #2, #8, ...

   *** GEOMETRY OPTIMIZATION CONVERGED AFTER 7 ITERATIONS ***

------------------------------------------------------------------------
 total energy gain   :        -0.0306824 Eh      -19.2535 kcal/mol
 total RMSD          :         0.2251753 a0        0.1192 Å
 total power (kW/mol):       -11.5080725 (step)   -6.5241 (real)
------------------------------------------------------------------------

 ANCopt (total)                0 d,  0 h,  0 min, 12.347 sec
 optimizer setup                ...        0 min,  0.000 sec (  0.003%)
 model hessian                  ...        0 min,  0.001 sec (  0.006%)
 ANC generation                 ...        0 min,  0.122 sec (  0.990%)
 coordinate transformation      ...        0 min,  0.000 sec (  0.002%)
 single point calculation       ...        0 min, 12.087 sec ( 97.894%)
 optimization log               ...        0 min,  0.001 sec (  0.005%)
 hessian update                 ...        0 min,  0.131 sec (  1.064%)
 rational function              ...        0 min,  0.002 sec (  0.018%)

================
 final structure:
================
9
 xtb: 6.7.1 (edcfbbe)
N            3.34254105654210       -0.12153055074399        0.05374409338279
C            2.18641896601014       -0.08182566431279        0.03643730361552
C            0.79704778875929       -0.02919299253633        0.01325595900925
N            0.04490532074554       -0.08549004046646        1.13825361971568
C           -1.20946117433055       -0.00661321068647        0.67244355988676
C           -1.18297468463484        0.09459194129070       -0.71160090512951
N            0.08843368417096        0.08079754775595       -1.13582919941761
H           -2.05970035044100       -0.02570278268412        1.33875754338484
H           -2.00721059682161        0.17496574238350       -1.40546197444772

 Bond Distances (Angstroems)
 ---------------------------
N1-C2=1.1569         C2-N1=1.1569         C2-C3=1.3906         C3-C2=1.3906         C3-N4=1.3544         C3-N7=1.3545         
N4-C3=1.3544         N4-C5=1.3404         C5-N4=1.3404         C5-C6=1.3880         C5-H8=1.0804         C6-C5=1.3880         
C6-N7=1.3404         C6-H9=1.0804         N7-C3=1.3545         N7-C6=1.3404         H8-C5=1.0804         H9-C6=1.0804         
 C  H  Rav=1.0804 sigma=0.0000  Rmin=1.0804  Rmax=1.0804     2
 C  C  Rav=1.3893 sigma=0.0013  Rmin=1.3880  Rmax=1.3906     2
 N  C  Rav=1.3093 sigma=0.0765  Rmin=1.1569  Rmax=1.3545     5

 selected bond angles (degree)
 --------------------
C3-C2-N1=179.78                N4-C3-C2=122.64                N7-C3-C2=122.68                N7-C3-N4=114.68                
C5-N4-C3=103.21                C6-C5-N4=109.45                H8-C5-N4=121.41                H8-C5-C6=129.15                
N7-C6-C5=109.45                H9-C6-C5=129.14                H9-C6-N7=121.41                C6-N7-C3=103.21                

 selected dihedral angles (degree)
 ---------------------------------
N4-C3-C2-N1=239.90            N7-C3-C2-N1= 59.98            C5-N4-C3-C2=180.08            C5-N4-C3-N7=  0.00            
C6-C5-N4-C3=  0.00            H8-C5-N4-C3=179.99            N7-C6-C5-N4=  0.00            N7-C6-C5-H8=180.01            
H9-C6-C5-N4=179.99            H9-C6-C5-H8=  0.00            C6-N7-C3-C2=179.92            C6-N7-C3-N4=  0.00            
C3-N7-C6-C5=  0.00            C3-N7-C6-H9=180.01            
           -------------------------------------------------
          |                Final Singlepoint                |
           -------------------------------------------------

          ...................................................
          :                      SETUP                      :
          :.................................................:
          :  # basis functions                  30          :
          :  # atomic orbitals                  30          :
          :  # shells                           16          :
          :  # electrons                        34          :
          :  max. iterations                   250          :
          :  Hamiltonian                  GFN2-xTB          :
          :  restarted?                      false          :
          :  GBSA solvation                  false          :
          :  PC potential                    false          :
          :  electronic temp.          300.0000000     K    :
          :  accuracy                    1.0000000          :
          :  -> integral cutoff          0.2500000E+02      :
          :  -> integral neglect         0.1000000E-07      :
          :  -> SCF convergence          0.1000000E-05 Eh   :
          :  -> wf. convergence          0.1000000E-03 e    :
          :  Broyden damping             0.4000000          :
          :  net charge                         -1          :
          :  unpaired electrons                  0          :
          ...................................................

 iter      E             dE          RMSdq      gap      omega  full diag
   1    -18.8274111 -0.188274E+02  0.275E-05    3.37       0.0  T
   2    -18.8274111 -0.189715E-11  0.165E-05    3.37    2022.9  T
   3    -18.8274111 -0.550671E-12  0.993E-06    3.37    3357.2  T

   *** convergence criteria satisfied after 3 iterations ***

         #    Occupation            Energy/Eh            Energy/eV
      -------------------------------------------------------------
         1        2.0000           -0.4705268             -12.8037
       ...           ...                  ...                  ...
        11        2.0000           -0.2899239              -7.8892
        12        2.0000           -0.2756486              -7.5008
        13        2.0000           -0.2442801              -6.6472
        14        2.0000           -0.2194352              -5.9711
        15        2.0000           -0.2042059              -5.5567
        16        2.0000           -0.1849109              -5.0317
OpenBLAS Warning : Detect OpenMP Loop and this application may hang. Please rebuild the library with USE_OPENMP=1 option.
OpenBLAS Warning : Detect OpenMP Loop and this application may hang. Please rebuild the library with USE_OPENMP=1 option.
OpenBLAS Warning : Detect OpenMP Loop and this application may hang. Please rebuild the library with USE_OPENMP=1 option.
OpenBLAS Warning : Detect OpenMP Loop and this application may hang. Please rebuild the library with USE_OPENMP=1 option.
OpenBLAS Warning : Detect OpenMP Loop and this application may hang. Please rebuild the library with USE_OPENMP=1 option.
OpenBLAS Warning : Detect OpenMP Loop and this application may hang. Please rebuild the library with USE_OPENMP=1 option.
OpenBLAS Warning : Detect OpenMP Loop and this application may hang. Please rebuild the library with USE_OPENMP=1 option.
OpenBLAS Warning : Detect OpenMP Loop and this application may hang. Please rebuild the library with USE_OPENMP=1 option.
OpenBLAS Warning : Detect OpenMP Loop and this application may hang. Please rebuild the library with USE_OPENMP=1 option.
OpenBLAS Warning : Detect OpenMP Loop and this application may hang. Please rebuild the library with USE_OPENMP=1 option.
OpenBLAS Warning : Detect OpenMP Loop and this application may hang. Please rebuild the library with USE_OPENMP=1 option.
OpenBLAS Warning : Detect OpenMP Loop and this application may hang. Please rebuild the library with USE_OPENMP=1 option.
OpenBLAS Warning : Detect OpenMP Loop and this application may hang. Please rebuild the library with USE_OPENMP=1 option.
OpenBLAS Warning : Detect OpenMP Loop and this application may hang. Please rebuild the library with USE_OPENMP=1 option.
OpenBLAS Warning : Detect OpenMP Loop and this application may hang. Please rebuild the library with USE_OPENMP=1 option.
OpenBLAS Warning : Detect OpenMP Loop and this application may hang. Please rebuild the library with USE_OPENMP=1 option.
OpenBLAS Warning : Detect OpenMP Loop and this application may hang. Please rebuild the library with USE_OPENMP=1 option.
OpenBLAS Warning : Detect OpenMP Loop and this application may hang. Please rebuild the library with USE_OPENMP=1 option.
OpenBLAS Warning : Detect OpenMP Loop and this application may hang. Please rebuild the library with USE_OPENMP=1 option.
OpenBLAS Warning : Detect OpenMP Loop and this application may hang. Please rebuild the library with USE_OPENMP=1 option.
OpenBLAS Warning : Detect OpenMP Loop and this application may hang. Please rebuild the library with USE_OPENMP=1 option.
OpenBLAS Warning : Detect OpenMP Loop and this application may hang. Please rebuild the library with USE_OPENMP=1 option.
OpenBLAS Warning : Detect OpenMP Loop and this application may hang. Please rebuild the library with USE_OPENMP=1 option.
OpenBLAS Warning : Detect OpenMP Loop and this application may hang. Please rebuild the library with USE_OPENMP=1 option.
OpenBLAS Warning : Detect OpenMP Loop and this application may hang. Please rebuild the library with USE_OPENMP=1 option.
OpenBLAS Warning : Detect OpenMP Loop and this application may hang. Please rebuild the library with USE_OPENMP=1 option.
OpenBLAS Warning : Detect OpenMP Loop and this application may hang. Please rebuild the library with USE_OPENMP=1 option.
OpenBLAS Warning : Detect OpenMP Loop and this application may hang. Please rebuild the library with USE_OPENMP=1 option.
OpenBLAS Warning : Detect OpenMP Loop and this application may hang. Please rebuild the library with USE_OPENMP=1 option.
OpenBLAS Warning : Detect OpenMP Loop and this application may hang. Please rebuild the library with USE_OPENMP=1 option.
OpenBLAS Warning : Detect OpenMP Loop and this application may hang. Please rebuild the library with USE_OPENMP=1 option.
OpenBLAS Warning : Detect OpenMP Loop and this application may hang. Please rebuild the library with USE_OPENMP=1 option.
OpenBLAS Warning : Detect OpenMP Loop and this application may hang. Please rebuild the library with USE_OPENMP=1 option.
OpenBLAS Warning : Detect OpenMP Loop and this application may hang. Please rebuild the library with USE_OPENMP=1 option.
OpenBLAS Warning : Detect OpenMP Loop and this application may hang. Please rebuild the library with USE_OPENMP=1 option.
OpenBLAS Warning : Detect OpenMP Loop and this application may hang. Please rebuild the library with USE_OPENMP=1 option.
OpenBLAS Warning : Detect OpenMP Loop and this application may hang. Please rebuild the library with USE_OPENMP=1 option.
OpenBLAS Warning : Detect OpenMP Loop and this application may hang. Please rebuild the library with USE_OPENMP=1 option.
OpenBLAS Warning : Detect OpenMP Loop and this application may hang. Please rebuild the library with USE_OPENMP=1 option.
OpenBLAS Warning : Detect OpenMP Loop and this application may hang. Please rebuild the library with USE_OPENMP=1 option.
OpenBLAS Warning : Detect OpenMP Loop and this application may hang. Please rebuild the library with USE_OPENMP=1 option.
OpenBLAS Warning : Detect OpenMP Loop and this application may hang. Please rebuild the library with USE_OPENMP=1 option.
OpenBLAS Warning : Detect OpenMP Loop and this application may hang. Please rebuild the library with USE_OPENMP=1 option.
OpenBLAS Warning : Detect OpenMP Loop and this application may hang. Please rebuild the library with USE_OPENMP=1 option.
OpenBLAS Warning : Detect OpenMP Loop and this application may hang. Please rebuild the library with USE_OPENMP=1 option.
OpenBLAS Warning : Detect OpenMP Loop and this application may hang. Please rebuild the library with USE_OPENMP=1 option.
OpenBLAS Warning : Detect OpenMP Loop and this application may hang. Please rebuild the library with USE_OPENMP=1 option.
OpenBLAS Warning : Detect OpenMP Loop and this application may hang. Please rebuild the library with USE_OPENMP=1 option.
OpenBLAS Warning : Detect OpenMP Loop and this application may hang. Please rebuild the library with USE_OPENMP=1 option.
OpenBLAS Warning : Detect OpenMP Loop and this application may hang. Please rebuild the library with USE_OPENMP=1 option.
OpenBLAS Warning : Detect OpenMP Loop and this application may hang. Please rebuild the library with USE_OPENMP=1 option.
OpenBLAS Warning : Detect OpenMP Loop and this application may hang. Please rebuild the library with USE_OPENMP=1 option.
OpenBLAS Warning : Detect OpenMP Loop and this application may hang. Please rebuild the library with USE_OPENMP=1 option.
OpenBLAS Warning : Detect OpenMP Loop and this application may hang. Please rebuild the library with USE_OPENMP=1 option.
OpenBLAS Warning : Detect OpenMP Loop and this application may hang. Please rebuild the library with USE_OPENMP=1 option.
OpenBLAS Warning : Detect OpenMP Loop and this application may hang. Please rebuild the library with USE_OPENMP=1 option.
OpenBLAS Warning : Detect OpenMP Loop and this application may hang. Please rebuild the library with USE_OPENMP=1 option.
OpenBLAS Warning : Detect OpenMP Loop and this application may hang. Please rebuild the library with USE_OPENMP=1 option.
OpenBLAS Warning : Detect OpenMP Loop and this application may hang. Please rebuild the library with USE_OPENMP=1 option.
OpenBLAS Warning : Detect OpenMP Loop and this application may hang. Please rebuild the library with USE_OPENMP=1 option.
OpenBLAS Warning : Detect OpenMP Loop and this application may hang. Please rebuild the library with USE_OPENMP=1 option.
OpenBLAS Warning : Detect OpenMP Loop and this application may hang. Please rebuild the library with USE_OPENMP=1 option.
OpenBLAS Warning : Detect OpenMP Loop and this application may hang. Please rebuild the library with USE_OPENMP=1 option.
OpenBLAS Warning : Detect OpenMP Loop and this application may hang. Please rebuild the library with USE_OPENMP=1 option.
OpenBLAS Warning : Detect OpenMP Loop and this application may hang. Please rebuild the library with USE_OPENMP=1 option.
OpenBLAS Warning : Detect OpenMP Loop and this application may hang. Please rebuild the library with USE_OPENMP=1 option.
OpenBLAS Warning : Detect OpenMP Loop and this application may hang. Please rebuild the library with USE_OPENMP=1 option.
OpenBLAS Warning : Detect OpenMP Loop and this application may hang. Please rebuild the library with USE_OPENMP=1 option.
OpenBLAS Warning : Detect OpenMP Loop and this application may hang. Please rebuild the library with USE_OPENMP=1 option.
OpenBLAS Warning : Detect OpenMP Loop and this application may hang. Please rebuild the library with USE_OPENMP=1 option.
OpenBLAS Warning : Detect OpenMP Loop and this application may hang. Please rebuild the library with USE_OPENMP=1 option.
OpenBLAS Warning : Detect OpenMP Loop and this application may hang. Please rebuild the library with USE_OPENMP=1 option.
OpenBLAS Warning : Detect OpenMP Loop and this application may hang. Please rebuild the library with USE_OPENMP=1 option.
OpenBLAS Warning : Detect OpenMP Loop and this application may hang. Please rebuild the library with USE_OPENMP=1 option.
OpenBLAS Warning : Detect OpenMP Loop and this application may hang. Please rebuild the library with USE_OPENMP=1 option.
OpenBLAS Warning : Detect OpenMP Loop and this application may hang. Please rebuild the library with USE_OPENMP=1 option.
OpenBLAS Warning : Detect OpenMP Loop and this application may hang. Please rebuild the library with USE_OPENMP=1 option.
OpenBLAS Warning : Detect OpenMP Loop and this application may hang. Please rebuild the library with USE_OPENMP=1 option.
OpenBLAS Warning : Detect OpenMP Loop and this application may hang. Please rebuild the library with USE_OPENMP=1 option.
OpenBLAS Warning : Detect OpenMP Loop and this application may hang. Please rebuild the library with USE_OPENMP=1 option.
OpenBLAS Warning : Detect OpenMP Loop and this application may hang. Please rebuild the library with USE_OPENMP=1 option.
OpenBLAS Warning : Detect OpenMP Loop and this application may hang. Please rebuild the library with USE_OPENMP=1 option.
OpenBLAS Warning : Detect OpenMP Loop and this application may hang. Please rebuild the library with USE_OPENMP=1 option.
OpenBLAS Warning : Detect OpenMP Loop and this application may hang. Please rebuild the library with USE_OPENMP=1 option.
OpenBLAS Warning : Detect OpenMP Loop and this application may hang. Please rebuild the library with USE_OPENMP=1 option.
OpenBLAS Warning : Detect OpenMP Loop and this application may hang. Please rebuild the library with USE_OPENMP=1 option.
OpenBLAS Warning : Detect OpenMP Loop and this application may hang. Please rebuild the library with USE_OPENMP=1 option.
OpenBLAS Warning : Detect OpenMP Loop and this application may hang. Please rebuild the library with USE_OPENMP=1 option.
OpenBLAS Warning : Detect OpenMP Loop and this application may hang. Please rebuild the library with USE_OPENMP=1 option.
OpenBLAS Warning : Detect OpenMP Loop and this application may hang. Please rebuild the library with USE_OPENMP=1 option.
OpenBLAS Warning : Detect OpenMP Loop and this application may hang. Please rebuild the library with USE_OPENMP=1 option.
OpenBLAS Warning : Detect OpenMP Loop and this application may hang. Please rebuild the library with USE_OPENMP=1 option.
OpenBLAS Warning : Detect OpenMP Loop and this application may hang. Please rebuild the library with USE_OPENMP=1 option.
OpenBLAS Warning : Detect OpenMP Loop and this application may hang. Please rebuild the library with USE_OPENMP=1 option.
OpenBLAS Warning : Detect OpenMP Loop and this application may hang. Please rebuild the library with USE_OPENMP=1 option.
OpenBLAS Warning : Detect OpenMP Loop and this application may hang. Please rebuild the library with USE_OPENMP=1 option.
OpenBLAS Warning : Detect OpenMP Loop and this application may hang. Please rebuild the library with USE_OPENMP=1 option.
OpenBLAS Warning : Detect OpenMP Loop and this application may hang. Please rebuild the library with USE_OPENMP=1 option.
OpenBLAS Warning : Detect OpenMP Loop and this application may hang. Please rebuild the library with USE_OPENMP=1 option.
OpenBLAS Warning : Detect OpenMP Loop and this application may hang. Please rebuild the library with USE_OPENMP=1 option.
OpenBLAS Warning : Detect OpenMP Loop and this application may hang. Please rebuild the library with USE_OPENMP=1 option.
OpenBLAS Warning : Detect OpenMP Loop and this application may hang. Please rebuild the library with USE_OPENMP=1 option.
OpenBLAS Warning : Detect OpenMP Loop and this application may hang. Please rebuild the library with USE_OPENMP=1 option.
OpenBLAS Warning : Detect OpenMP Loop and this application may hang. Please rebuild the library with USE_OPENMP=1 option.
OpenBLAS Warning : Detect OpenMP Loop and this application may hang. Please rebuild the library with USE_OPENMP=1 option.
OpenBLAS Warning : Detect OpenMP Loop and this application may hang. Please rebuild the library with USE_OPENMP=1 option.
OpenBLAS Warning : Detect OpenMP Loop and this application may hang. Please rebuild the library with USE_OPENMP=1 option.
OpenBLAS Warning : Detect OpenMP Loop and this application may hang. Please rebuild the library with USE_OPENMP=1 option.
OpenBLAS Warning : Detect OpenMP Loop and this application may hang. Please rebuild the library with USE_OPENMP=1 option.
OpenBLAS Warning : Detect OpenMP Loop and this application may hang. Please rebuild the library with USE_OPENMP=1 option.
OpenBLAS Warning : Detect OpenMP Loop and this application may hang. Please rebuild the library with USE_OPENMP=1 option.
OpenBLAS Warning : Detect OpenMP Loop and this application may hang. Please rebuild the library with USE_OPENMP=1 option.
OpenBLAS Warning : Detect OpenMP Loop and this application may hang. Please rebuild the library with USE_OPENMP=1 option.
OpenBLAS Warning : Detect OpenMP Loop and this application may hang. Please rebuild the library with USE_OPENMP=1 option.
OpenBLAS Warning : Detect OpenMP Loop and this application may hang. Please rebuild the library with USE_OPENMP=1 option.
OpenBLAS Warning : Detect OpenMP Loop and this application may hang. Please rebuild the library with USE_OPENMP=1 option.
OpenBLAS Warning : Detect OpenMP Loop and this application may hang. Please rebuild the library with USE_OPENMP=1 option.
OpenBLAS Warning : Detect OpenMP Loop and this application may hang. Please rebuild the library with USE_OPENMP=1 option.
OpenBLAS Warning : Detect OpenMP Loop and this application may hang. Please rebuild the library with USE_OPENMP=1 option.
OpenBLAS Warning : Detect OpenMP Loop and this application may hang. Please rebuild the library with USE_OPENMP=1 option.
OpenBLAS Warning : Detect OpenMP Loop and this application may hang. Please rebuild the library with USE_OPENMP=1 option.
OpenBLAS Warning : Detect OpenMP Loop and this application may hang. Please rebuild the library with USE_OPENMP=1 option.
OpenBLAS Warning : Detect OpenMP Loop and this application may hang. Please rebuild the library with USE_OPENMP=1 option.
OpenBLAS Warning : Detect OpenMP Loop and this application may hang. Please rebuild the library with USE_OPENMP=1 option.
OpenBLAS Warning : Detect OpenMP Loop and this application may hang. Please rebuild the library with USE_OPENMP=1 option.
OpenBLAS Warning : Detect OpenMP Loop and this application may hang. Please rebuild the library with USE_OPENMP=1 option.
OpenBLAS Warning : Detect OpenMP Loop and this application may hang. Please rebuild the library with USE_OPENMP=1 option.
OpenBLAS Warning : Detect OpenMP Loop and this application may hang. Please rebuild the library with USE_OPENMP=1 option.
OpenBLAS Warning : Detect OpenMP Loop and this application may hang. Please rebuild the library with USE_OPENMP=1 option.
OpenBLAS Warning : Detect OpenMP Loop and this application may hang. Please rebuild the library with USE_OPENMP=1 option.
OpenBLAS Warning : Detect OpenMP Loop and this application may hang. Please rebuild the library with USE_OPENMP=1 option.
OpenBLAS Warning : Detect OpenMP Loop and this application may hang. Please rebuild the library with USE_OPENMP=1 option.
OpenBLAS Warning : Detect OpenMP Loop and this application may hang. Please rebuild the library with USE_OPENMP=1 option.
OpenBLAS Warning : Detect OpenMP Loop and this application may hang. Please rebuild the library with USE_OPENMP=1 option.
OpenBLAS Warning : Detect OpenMP Loop and this application may hang. Please rebuild the library with USE_OPENMP=1 option.
OpenBLAS Warning : Detect OpenMP Loop and this application may hang. Please rebuild the library with USE_OPENMP=1 option.
OpenBLAS Warning : Detect OpenMP Loop and this application may hang. Please rebuild the library with USE_OPENMP=1 option.
OpenBLAS Warning : Detect OpenMP Loop and this application may hang. Please rebuild the library with USE_OPENMP=1 option.
OpenBLAS Warning : Detect OpenMP Loop and this application may hang. Please rebuild the library with USE_OPENMP=1 option.
OpenBLAS Warning : Detect OpenMP Loop and this application may hang. Please rebuild the library with USE_OPENMP=1 option.
OpenBLAS Warning : Detect OpenMP Loop and this application may hang. Please rebuild the library with USE_OPENMP=1 option.
OpenBLAS Warning : Detect OpenMP Loop and this application may hang. Please rebuild the library with USE_OPENMP=1 option.
OpenBLAS Warning : Detect OpenMP Loop and this application may hang. Please rebuild the library with USE_OPENMP=1 option.
OpenBLAS Warning : Detect OpenMP Loop and this application may hang. Please rebuild the library with USE_OPENMP=1 option.
OpenBLAS Warning : Detect OpenMP Loop and this application may hang. Please rebuild the library with USE_OPENMP=1 option.
OpenBLAS Warning : Detect OpenMP Loop and this application may hang. Please rebuild the library with USE_OPENMP=1 option.
OpenBLAS Warning : Detect OpenMP Loop and this application may hang. Please rebuild the library with USE_OPENMP=1 option.
OpenBLAS Warning : Detect OpenMP Loop and this application may hang. Please rebuild the library with USE_OPENMP=1 option.
OpenBLAS Warning : Detect OpenMP Loop and this application may hang. Please rebuild the library with USE_OPENMP=1 option.
OpenBLAS Warning : Detect OpenMP Loop and this application may hang. Please rebuild the library with USE_OPENMP=1 option.
OpenBLAS Warning : Detect OpenMP Loop and this application may hang. Please rebuild the library with USE_OPENMP=1 option.
OpenBLAS Warning : Detect OpenMP Loop and this application may hang. Please rebuild the library with USE_OPENMP=1 option.
OpenBLAS Warning : Detect OpenMP Loop and this application may hang. Please rebuild the library with USE_OPENMP=1 option.
OpenBLAS Warning : Detect OpenMP Loop and this application may hang. Please rebuild the library with USE_OPENMP=1 option.
OpenBLAS Warning : Detect OpenMP Loop and this application may hang. Please rebuild the library with USE_OPENMP=1 option.
OpenBLAS Warning : Detect OpenMP Loop and this application may hang. Please rebuild the library with USE_OPENMP=1 option.
OpenBLAS Warning : Detect OpenMP Loop and this application may hang. Please rebuild the library with USE_OPENMP=1 option.
OpenBLAS Warning : Detect OpenMP Loop and this application may hang. Please rebuild the library with USE_OPENMP=1 option.
OpenBLAS Warning : Detect OpenMP Loop and this application may hang. Please rebuild the library with USE_OPENMP=1 option.
OpenBLAS Warning : Detect OpenMP Loop and this application may hang. Please rebuild the library with USE_OPENMP=1 option.
OpenBLAS Warning : Detect OpenMP Loop and this application may hang. Please rebuild the library with USE_OPENMP=1 option.
OpenBLAS Warning : Detect OpenMP Loop and this application may hang. Please rebuild the library with USE_OPENMP=1 option.
OpenBLAS Warning : Detect OpenMP Loop and this application may hang. Please rebuild the library with USE_OPENMP=1 option.
OpenBLAS Warning : Detect OpenMP Loop and this application may hang. Please rebuild the library with USE_OPENMP=1 option.
OpenBLAS Warning : Detect OpenMP Loop and this application may hang. Please rebuild the library with USE_OPENMP=1 option.
OpenBLAS Warning : Detect OpenMP Loop and this application may hang. Please rebuild the library with USE_OPENMP=1 option.
OpenBLAS Warning : Detect OpenMP Loop and this application may hang. Please rebuild the library with USE_OPENMP=1 option.
OpenBLAS Warning : Detect OpenMP Loop and this application may hang. Please rebuild the library with USE_OPENMP=1 option.
OpenBLAS Warning : Detect OpenMP Loop and this application may hang. Please rebuild the library with USE_OPENMP=1 option.
OpenBLAS Warning : Detect OpenMP Loop and this application may hang. Please rebuild the library with USE_OPENMP=1 option.
OpenBLAS Warning : Detect OpenMP Loop and this application may hang. Please rebuild the library with USE_OPENMP=1 option.
OpenBLAS Warning : Detect OpenMP Loop and this application may hang. Please rebuild the library with USE_OPENMP=1 option.
OpenBLAS Warning : Detect OpenMP Loop and this application may hang. Please rebuild the library with USE_OPENMP=1 option.
OpenBLAS Warning : Detect OpenMP Loop and this application may hang. Please rebuild the library with USE_OPENMP=1 option.
OpenBLAS Warning : Detect OpenMP Loop and this application may hang. Please rebuild the library with USE_OPENMP=1 option.
OpenBLAS Warning : Detect OpenMP Loop and this application may hang. Please rebuild the library with USE_OPENMP=1 option.
OpenBLAS Warning : Detect OpenMP Loop and this application may hang. Please rebuild the library with USE_OPENMP=1 option.
OpenBLAS Warning : Detect OpenMP Loop and this application may hang. Please rebuild the library with USE_OPENMP=1 option.
OpenBLAS Warning : Detect OpenMP Loop and this application may hang. Please rebuild the library with USE_OPENMP=1 option.
OpenBLAS Warning : Detect OpenMP Loop and this application may hang. Please rebuild the library with USE_OPENMP=1 option.
OpenBLAS Warning : Detect OpenMP Loop and this application may hang. Please rebuild the library with USE_OPENMP=1 option.
OpenBLAS Warning : Detect OpenMP Loop and this application may hang. Please rebuild the library with USE_OPENMP=1 option.
OpenBLAS Warning : Detect OpenMP Loop and this application may hang. Please rebuild the library with USE_OPENMP=1 option.
OpenBLAS Warning : Detect OpenMP Loop and this application may hang. Please rebuild the library with USE_OPENMP=1 option.
OpenBLAS Warning : Detect OpenMP Loop and this application may hang. Please rebuild the library with USE_OPENMP=1 option.
OpenBLAS Warning : Detect OpenMP Loop and this application may hang. Please rebuild the library with USE_OPENMP=1 option.
OpenBLAS Warning : Detect OpenMP Loop and this application may hang. Please rebuild the library with USE_OPENMP=1 option.
OpenBLAS Warning : Detect OpenMP Loop and this application may hang. Please rebuild the library with USE_OPENMP=1 option.
OpenBLAS Warning : Detect OpenMP Loop and this application may hang. Please rebuild the library with USE_OPENMP=1 option.
OpenBLAS Warning : Detect OpenMP Loop and this application may hang. Please rebuild the library with USE_OPENMP=1 option.
OpenBLAS Warning : Detect OpenMP Loop and this application may hang. Please rebuild the library with USE_OPENMP=1 option.
OpenBLAS Warning : Detect OpenMP Loop and this application may hang. Please rebuild the library with USE_OPENMP=1 option.
OpenBLAS Warning : Detect OpenMP Loop and this application may hang. Please rebuild the library with USE_OPENMP=1 option.
OpenBLAS Warning : Detect OpenMP Loop and this application may hang. Please rebuild the library with USE_OPENMP=1 option.
OpenBLAS Warning : Detect OpenMP Loop and this application may hang. Please rebuild the library with USE_OPENMP=1 option.
OpenBLAS Warning : Detect OpenMP Loop and this application may hang. Please rebuild the library with USE_OPENMP=1 option.
OpenBLAS Warning : Detect OpenMP Loop and this application may hang. Please rebuild the library with USE_OPENMP=1 option.
OpenBLAS Warning : Detect OpenMP Loop and this application may hang. Please rebuild the library with USE_OPENMP=1 option.
OpenBLAS Warning : Detect OpenMP Loop and this application may hang. Please rebuild the library with USE_OPENMP=1 option.
OpenBLAS Warning : Detect OpenMP Loop and this application may hang. Please rebuild the library with USE_OPENMP=1 option.
OpenBLAS Warning : Detect OpenMP Loop and this application may hang. Please rebuild the library with USE_OPENMP=1 option.
OpenBLAS Warning : Detect OpenMP Loop and this application may hang. Please rebuild the library with USE_OPENMP=1 option.
OpenBLAS Warning : Detect OpenMP Loop and this application may hang. Please rebuild the library with USE_OPENMP=1 option.
OpenBLAS Warning : Detect OpenMP Loop and this application may hang. Please rebuild the library with USE_OPENMP=1 option.
OpenBLAS Warning : Detect OpenMP Loop and this application may hang. Please rebuild the library with USE_OPENMP=1 option.
OpenBLAS Warning : Detect OpenMP Loop and this application may hang. Please rebuild the library with USE_OPENMP=1 option.
OpenBLAS Warning : Detect OpenMP Loop and this application may hang. Please rebuild the library with USE_OPENMP=1 option.
OpenBLAS Warning : Detect OpenMP Loop and this application may hang. Please rebuild the library with USE_OPENMP=1 option.
OpenBLAS Warning : Detect OpenMP Loop and this application may hang. Please rebuild the library with USE_OPENMP=1 option.
OpenBLAS Warning : Detect OpenMP Loop and this application may hang. Please rebuild the library with USE_OPENMP=1 option.
OpenBLAS Warning : Detect OpenMP Loop and this application may hang. Please rebuild the library with USE_OPENMP=1 option.
OpenBLAS Warning : Detect OpenMP Loop and this application may hang. Please rebuild the library with USE_OPENMP=1 option.
OpenBLAS Warning : Detect OpenMP Loop and this application may hang. Please rebuild the library with USE_OPENMP=1 option.
OpenBLAS Warning : Detect OpenMP Loop and this application may hang. Please rebuild the library with USE_OPENMP=1 option.
OpenBLAS Warning : Detect OpenMP Loop and this application may hang. Please rebuild the library with USE_OPENMP=1 option.
OpenBLAS Warning : Detect OpenMP Loop and this application may hang. Please rebuild the library with USE_OPENMP=1 option.
OpenBLAS Warning : Detect OpenMP Loop and this application may hang. Please rebuild the library with USE_OPENMP=1 option.
OpenBLAS Warning : Detect OpenMP Loop and this application may hang. Please rebuild the library with USE_OPENMP=1 option.
OpenBLAS Warning : Detect OpenMP Loop and this application may hang. Please rebuild the library with USE_OPENMP=1 option.
OpenBLAS Warning : Detect OpenMP Loop and this application may hang. Please rebuild the library with USE_OPENMP=1 option.
OpenBLAS Warning : Detect OpenMP Loop and this application may hang. Please rebuild the library with USE_OPENMP=1 option.
OpenBLAS Warning : Detect OpenMP Loop and this application may hang. Please rebuild the library with USE_OPENMP=1 option.
OpenBLAS Warning : Detect OpenMP Loop and this application may hang. Please rebuild the library with USE_OPENMP=1 option.
OpenBLAS Warning : Detect OpenMP Loop and this application may hang. Please rebuild the library with USE_OPENMP=1 option.
OpenBLAS Warning : Detect OpenMP Loop and this application may hang. Please rebuild the library with USE_OPENMP=1 option.
OpenBLAS Warning : Detect OpenMP Loop and this application may hang. Please rebuild the library with USE_OPENMP=1 option.
OpenBLAS Warning : Detect OpenMP Loop and this application may hang. Please rebuild the library with USE_OPENMP=1 option.
OpenBLAS Warning : Detect OpenMP Loop and this application may hang. Please rebuild the library with USE_OPENMP=1 option.
OpenBLAS Warning : Detect OpenMP Loop and this application may hang. Please rebuild the library with USE_OPENMP=1 option.
OpenBLAS Warning : Detect OpenMP Loop and this application may hang. Please rebuild the library with USE_OPENMP=1 option.
OpenBLAS Warning : Detect OpenMP Loop and this application may hang. Please rebuild the library with USE_OPENMP=1 option.
OpenBLAS Warning : Detect OpenMP Loop and this application may hang. Please rebuild the library with USE_OPENMP=1 option.
OpenBLAS Warning : Detect OpenMP Loop and this application may hang. Please rebuild the library with USE_OPENMP=1 option.
OpenBLAS Warning : Detect OpenMP Loop and this application may hang. Please rebuild the library with USE_OPENMP=1 option.
OpenBLAS Warning : Detect OpenMP Loop and this application may hang. Please rebuild the library with USE_OPENMP=1 option.
OpenBLAS Warning : Detect OpenMP Loop and this application may hang. Please rebuild the library with USE_OPENMP=1 option.
OpenBLAS Warning : Detect OpenMP Loop and this application may hang. Please rebuild the library with USE_OPENMP=1 option.
OpenBLAS Warning : Detect OpenMP Loop and this application may hang. Please rebuild the library with USE_OPENMP=1 option.
OpenBLAS Warning : Detect OpenMP Loop and this application may hang. Please rebuild the library with USE_OPENMP=1 option.
OpenBLAS Warning : Detect OpenMP Loop and this application may hang. Please rebuild the library with USE_OPENMP=1 option.
OpenBLAS Warning : Detect OpenMP Loop and this application may hang. Please rebuild the library with USE_OPENMP=1 option.
OpenBLAS Warning : Detect OpenMP Loop and this application may hang. Please rebuild the library with USE_OPENMP=1 option.
OpenBLAS Warning : Detect OpenMP Loop and this application may hang. Please rebuild the library with USE_OPENMP=1 option.
OpenBLAS Warning : Detect OpenMP Loop and this application may hang. Please rebuild the library with USE_OPENMP=1 option.
OpenBLAS Warning : Detect OpenMP Loop and this application may hang. Please rebuild the library with USE_OPENMP=1 option.
OpenBLAS Warning : Detect OpenMP Loop and this application may hang. Please rebuild the library with USE_OPENMP=1 option.
OpenBLAS Warning : Detect OpenMP Loop and this application may hang. Please rebuild the library with USE_OPENMP=1 option.
OpenBLAS Warning : Detect OpenMP Loop and this application may hang. Please rebuild the library with USE_OPENMP=1 option.
OpenBLAS Warning : Detect OpenMP Loop and this application may hang. Please rebuild the library with USE_OPENMP=1 option.
OpenBLAS Warning : Detect OpenMP Loop and this application may hang. Please rebuild the library with USE_OPENMP=1 option.
OpenBLAS Warning : Detect OpenMP Loop and this application may hang. Please rebuild the library with USE_OPENMP=1 option.
OpenBLAS Warning : Detect OpenMP Loop and this application may hang. Please rebuild the library with USE_OPENMP=1 option.
OpenBLAS Warning : Detect OpenMP Loop and this application may hang. Please rebuild the library with USE_OPENMP=1 option.
OpenBLAS Warning : Detect OpenMP Loop and this application may hang. Please rebuild the library with USE_OPENMP=1 option.
OpenBLAS Warning : Detect OpenMP Loop and this application may hang. Please rebuild the library with USE_OPENMP=1 option.
OpenBLAS Warning : Detect OpenMP Loop and this application may hang. Please rebuild the library with USE_OPENMP=1 option.
OpenBLAS Warning : Detect OpenMP Loop and this application may hang. Please rebuild the library with USE_OPENMP=1 option.
OpenBLAS Warning : Detect OpenMP Loop and this application may hang. Please rebuild the library with USE_OPENMP=1 option.
OpenBLAS Warning : Detect OpenMP Loop and this application may hang. Please rebuild the library with USE_OPENMP=1 option.
OpenBLAS Warning : Detect OpenMP Loop and this application may hang. Please rebuild the library with USE_OPENMP=1 option.
OpenBLAS Warning : Detect OpenMP Loop and this application may hang. Please rebuild the library with USE_OPENMP=1 option.
OpenBLAS Warning : Detect OpenMP Loop and this application may hang. Please rebuild the library with USE_OPENMP=1 option.
OpenBLAS Warning : Detect OpenMP Loop and this application may hang. Please rebuild the library with USE_OPENMP=1 option.
OpenBLAS Warning : Detect OpenMP Loop and this application may hang. Please rebuild the library with USE_OPENMP=1 option.
OpenBLAS Warning : Detect OpenMP Loop and this application may hang. Please rebuild the library with USE_OPENMP=1 option.
OpenBLAS Warning : Detect OpenMP Loop and this application may hang. Please rebuild the library with USE_OPENMP=1 option.
OpenBLAS Warning : Detect OpenMP Loop and this application may hang. Please rebuild the library with USE_OPENMP=1 option.
OpenBLAS Warning : Detect OpenMP Loop and this application may hang. Please rebuild the library with USE_OPENMP=1 option.
OpenBLAS Warning : Detect OpenMP Loop and this application may hang. Please rebuild the library with USE_OPENMP=1 option.
OpenBLAS Warning : Detect OpenMP Loop and this application may hang. Please rebuild the library with USE_OPENMP=1 option.
OpenBLAS Warning : Detect OpenMP Loop and this application may hang. Please rebuild the library with USE_OPENMP=1 option.
OpenBLAS Warning : Detect OpenMP Loop and this application may hang. Please rebuild the library with USE_OPENMP=1 option.
OpenBLAS Warning : Detect OpenMP Loop and this application may hang. Please rebuild the library with USE_OPENMP=1 option.
OpenBLAS Warning : Detect OpenMP Loop and this application may hang. Please rebuild the library with USE_OPENMP=1 option.
OpenBLAS Warning : Detect OpenMP Loop and this application may hang. Please rebuild the library with USE_OPENMP=1 option.
OpenBLAS Warning : Detect OpenMP Loop and this application may hang. Please rebuild the library with USE_OPENMP=1 option.
OpenBLAS Warning : Detect OpenMP Loop and this application may hang. Please rebuild the library with USE_OPENMP=1 option.
OpenBLAS Warning : Detect OpenMP Loop and this application may hang. Please rebuild the library with USE_OPENMP=1 option.
OpenBLAS Warning : Detect OpenMP Loop and this application may hang. Please rebuild the library with USE_OPENMP=1 option.
OpenBLAS Warning : Detect OpenMP Loop and this application may hang. Please rebuild the library with USE_OPENMP=1 option.
OpenBLAS Warning : Detect OpenMP Loop and this application may hang. Please rebuild the library with USE_OPENMP=1 option.
OpenBLAS Warning : Detect OpenMP Loop and this application may hang. Please rebuild the library with USE_OPENMP=1 option.
OpenBLAS Warning : Detect OpenMP Loop and this application may hang. Please rebuild the library with USE_OPENMP=1 option.
OpenBLAS Warning : Detect OpenMP Loop and this application may hang. Please rebuild the library with USE_OPENMP=1 option.
OpenBLAS Warning : Detect OpenMP Loop and this application may hang. Please rebuild the library with USE_OPENMP=1 option.
OpenBLAS Warning : Detect OpenMP Loop and this application may hang. Please rebuild the library with USE_OPENMP=1 option.
OpenBLAS Warning : Detect OpenMP Loop and this application may hang. Please rebuild the library with USE_OPENMP=1 option.
OpenBLAS Warning : Detect OpenMP Loop and this application may hang. Please rebuild the library with USE_OPENMP=1 option.
OpenBLAS Warning : Detect OpenMP Loop and this application may hang. Please rebuild the library with USE_OPENMP=1 option.
OpenBLAS Warning : Detect OpenMP Loop and this application may hang. Please rebuild the library with USE_OPENMP=1 option.
OpenBLAS Warning : Detect OpenMP Loop and this application may hang. Please rebuild the library with USE_OPENMP=1 option.
OpenBLAS Warning : Detect OpenMP Loop and this application may hang. Please rebuild the library with USE_OPENMP=1 option.
OpenBLAS Warning : Detect OpenMP Loop and this application may hang. Please rebuild the library with USE_OPENMP=1 option.
OpenBLAS Warning : Detect OpenMP Loop and this application may hang. Please rebuild the library with USE_OPENMP=1 option.
OpenBLAS Warning : Detect OpenMP Loop and this application may hang. Please rebuild the library with USE_OPENMP=1 option.
OpenBLAS Warning : Detect OpenMP Loop and this application may hang. Please rebuild the library with USE_OPENMP=1 option.
OpenBLAS Warning : Detect OpenMP Loop and this application may hang. Please rebuild the library with USE_OPENMP=1 option.
OpenBLAS Warning : Detect OpenMP Loop and this application may hang. Please rebuild the library with USE_OPENMP=1 option.
OpenBLAS Warning : Detect OpenMP Loop and this application may hang. Please rebuild the library with USE_OPENMP=1 option.
OpenBLAS Warning : Detect OpenMP Loop and this application may hang. Please rebuild the library with USE_OPENMP=1 option.
OpenBLAS Warning : Detect OpenMP Loop and this application may hang. Please rebuild the library with USE_OPENMP=1 option.
OpenBLAS Warning : Detect OpenMP Loop and this application may hang. Please rebuild the library with USE_OPENMP=1 option.
OpenBLAS Warning : Detect OpenMP Loop and this application may hang. Please rebuild the library with USE_OPENMP=1 option.
OpenBLAS Warning : Detect OpenMP Loop and this application may hang. Please rebuild the library with USE_OPENMP=1 option.
OpenBLAS Warning : Detect OpenMP Loop and this application may hang. Please rebuild the library with USE_OPENMP=1 option.
OpenBLAS Warning : Detect OpenMP Loop and this application may hang. Please rebuild the library with USE_OPENMP=1 option.
OpenBLAS Warning : Detect OpenMP Loop and this application may hang. Please rebuild the library with USE_OPENMP=1 option.
OpenBLAS Warning : Detect OpenMP Loop and this application may hang. Please rebuild the library with USE_OPENMP=1 option.
OpenBLAS Warning : Detect OpenMP Loop and this application may hang. Please rebuild the library with USE_OPENMP=1 option.
OpenBLAS Warning : Detect OpenMP Loop and this application may hang. Please rebuild the library with USE_OPENMP=1 option.
OpenBLAS Warning : Detect OpenMP Loop and this application may hang. Please rebuild the library with USE_OPENMP=1 option.
OpenBLAS Warning : Detect OpenMP Loop and this application may hang. Please rebuild the library with USE_OPENMP=1 option.
OpenBLAS Warning : Detect OpenMP Loop and this application may hang. Please rebuild the library with USE_OPENMP=1 option.
OpenBLAS Warning : Detect OpenMP Loop and this application may hang. Please rebuild the library with USE_OPENMP=1 option.
OpenBLAS Warning : Detect OpenMP Loop and this application may hang. Please rebuild the library with USE_OPENMP=1 option.
OpenBLAS Warning : Detect OpenMP Loop and this application may hang. Please rebuild the library with USE_OPENMP=1 option.
OpenBLAS Warning : Detect OpenMP Loop and this application may hang. Please rebuild the library with USE_OPENMP=1 option.
OpenBLAS Warning : Detect OpenMP Loop and this application may hang. Please rebuild the library with USE_OPENMP=1 option.
OpenBLAS Warning : Detect OpenMP Loop and this application may hang. Please rebuild the library with USE_OPENMP=1 option.
OpenBLAS Warning : Detect OpenMP Loop and this application may hang. Please rebuild the library with USE_OPENMP=1 option.
OpenBLAS Warning : Detect OpenMP Loop and this application may hang. Please rebuild the library with USE_OPENMP=1 option.
OpenBLAS Warning : Detect OpenMP Loop and this application may hang. Please rebuild the library with USE_OPENMP=1 option.
OpenBLAS Warning : Detect OpenMP Loop and this application may hang. Please rebuild the library with USE_OPENMP=1 option.
OpenBLAS Warning : Detect OpenMP Loop and this application may hang. Please rebuild the library with USE_OPENMP=1 option.
OpenBLAS Warning : Detect OpenMP Loop and this application may hang. Please rebuild the library with USE_OPENMP=1 option.
OpenBLAS Warning : Detect OpenMP Loop and this application may hang. Please rebuild the library with USE_OPENMP=1 option.
OpenBLAS Warning : Detect OpenMP Loop and this application may hang. Please rebuild the library with USE_OPENMP=1 option.
OpenBLAS Warning : Detect OpenMP Loop and this application may hang. Please rebuild the library with USE_OPENMP=1 option.
OpenBLAS Warning : Detect OpenMP Loop and this application may hang. Please rebuild the library with USE_OPENMP=1 option.
OpenBLAS Warning : Detect OpenMP Loop and this application may hang. Please rebuild the library with USE_OPENMP=1 option.
OpenBLAS Warning : Detect OpenMP Loop and this application may hang. Please rebuild the library with USE_OPENMP=1 option.
OpenBLAS Warning : Detect OpenMP Loop and this application may hang. Please rebuild the library with USE_OPENMP=1 option.
OpenBLAS Warning : Detect OpenMP Loop and this application may hang. Please rebuild the library with USE_OPENMP=1 option.
OpenBLAS Warning : Detect OpenMP Loop and this application may hang. Please rebuild the library with USE_OPENMP=1 option.
OpenBLAS Warning : Detect OpenMP Loop and this application may hang. Please rebuild the library with USE_OPENMP=1 option.
OpenBLAS Warning : Detect OpenMP Loop and this application may hang. Please rebuild the library with USE_OPENMP=1 option.
OpenBLAS Warning : Detect OpenMP Loop and this application may hang. Please rebuild the library with USE_OPENMP=1 option.
OpenBLAS Warning : Detect OpenMP Loop and this application may hang. Please rebuild the library with USE_OPENMP=1 option.
OpenBLAS Warning : Detect OpenMP Loop and this application may hang. Please rebuild the library with USE_OPENMP=1 option.
OpenBLAS Warning : Detect OpenMP Loop and this application may hang. Please rebuild the library with USE_OPENMP=1 option.
OpenBLAS Warning : Detect OpenMP Loop and this application may hang. Please rebuild the library with USE_OPENMP=1 option.
OpenBLAS Warning : Detect OpenMP Loop and this application may hang. Please rebuild the library with USE_OPENMP=1 option.
OpenBLAS Warning : Detect OpenMP Loop and this application may hang. Please rebuild the library with USE_OPENMP=1 option.
OpenBLAS Warning : Detect OpenMP Loop and this application may hang. Please rebuild the library with USE_OPENMP=1 option.
OpenBLAS Warning : Detect OpenMP Loop and this application may hang. Please rebuild the library with USE_OPENMP=1 option.
OpenBLAS Warning : Detect OpenMP Loop and this application may hang. Please rebuild the library with USE_OPENMP=1 option.
OpenBLAS Warning : Detect OpenMP Loop and this application may hang. Please rebuild the library with USE_OPENMP=1 option.
OpenBLAS Warning : Detect OpenMP Loop and this application may hang. Please rebuild the library with USE_OPENMP=1 option.
OpenBLAS Warning : Detect OpenMP Loop and this application may hang. Please rebuild the library with USE_OPENMP=1 option.
OpenBLAS Warning : Detect OpenMP Loop and this application may hang. Please rebuild the library with USE_OPENMP=1 option.
OpenBLAS Warning : Detect OpenMP Loop and this application may hang. Please rebuild the library with USE_OPENMP=1 option.
OpenBLAS Warning : Detect OpenMP Loop and this application may hang. Please rebuild the library with USE_OPENMP=1 option.
OpenBLAS Warning : Detect OpenMP Loop and this application may hang. Please rebuild the library with USE_OPENMP=1 option.
OpenBLAS Warning : Detect OpenMP Loop and this application may hang. Please rebuild the library with USE_OPENMP=1 option.
OpenBLAS Warning : Detect OpenMP Loop and this application may hang. Please rebuild the library with USE_OPENMP=1 option.
OpenBLAS Warning : Detect OpenMP Loop and this application may hang. Please rebuild the library with USE_OPENMP=1 option.
OpenBLAS Warning : Detect OpenMP Loop and this application may hang. Please rebuild the library with USE_OPENMP=1 option.
OpenBLAS Warning : Detect OpenMP Loop and this application may hang. Please rebuild the library with USE_OPENMP=1 option.
OpenBLAS Warning : Detect OpenMP Loop and this application may hang. Please rebuild the library with USE_OPENMP=1 option.
OpenBLAS Warning : Detect OpenMP Loop and this application may hang. Please rebuild the library with USE_OPENMP=1 option.
OpenBLAS Warning : Detect OpenMP Loop and this application may hang. Please rebuild the library with USE_OPENMP=1 option.
OpenBLAS Warning : Detect OpenMP Loop and this application may hang. Please rebuild the library with USE_OPENMP=1 option.
OpenBLAS Warning : Detect OpenMP Loop and this application may hang. Please rebuild the library with USE_OPENMP=1 option.
OpenBLAS Warning : Detect OpenMP Loop and this application may hang. Please rebuild the library with USE_OPENMP=1 option.
OpenBLAS Warning : Detect OpenMP Loop and this application may hang. Please rebuild the library with USE_OPENMP=1 option.
OpenBLAS Warning : Detect OpenMP Loop and this application may hang. Please rebuild the library with USE_OPENMP=1 option.
OpenBLAS Warning : Detect OpenMP Loop and this application may hang. Please rebuild the library with USE_OPENMP=1 option.
OpenBLAS Warning : Detect OpenMP Loop and this application may hang. Please rebuild the library with USE_OPENMP=1 option.
OpenBLAS Warning : Detect OpenMP Loop and this application may hang. Please rebuild the library with USE_OPENMP=1 option.
OpenBLAS Warning : Detect OpenMP Loop and this application may hang. Please rebuild the library with USE_OPENMP=1 option.
OpenBLAS Warning : Detect OpenMP Loop and this application may hang. Please rebuild the library with USE_OPENMP=1 option.
OpenBLAS Warning : Detect OpenMP Loop and this application may hang. Please rebuild the library with USE_OPENMP=1 option.
OpenBLAS Warning : Detect OpenMP Loop and this application may hang. Please rebuild the library with USE_OPENMP=1 option.
OpenBLAS Warning : Detect OpenMP Loop and this application may hang. Please rebuild the library with USE_OPENMP=1 option.
OpenBLAS Warning : Detect OpenMP Loop and this application may hang. Please rebuild the library with USE_OPENMP=1 option.
OpenBLAS Warning : Detect OpenMP Loop and this application may hang. Please rebuild the library with USE_OPENMP=1 option.
OpenBLAS Warning : Detect OpenMP Loop and this application may hang. Please rebuild the library with USE_OPENMP=1 option.
OpenBLAS Warning : Detect OpenMP Loop and this application may hang. Please rebuild the library with USE_OPENMP=1 option.
OpenBLAS Warning : Detect OpenMP Loop and this application may hang. Please rebuild the library with USE_OPENMP=1 option.
OpenBLAS Warning : Detect OpenMP Loop and this application may hang. Please rebuild the library with USE_OPENMP=1 option.
OpenBLAS Warning : Detect OpenMP Loop and this application may hang. Please rebuild the library with USE_OPENMP=1 option.
OpenBLAS Warning : Detect OpenMP Loop and this application may hang. Please rebuild the library with USE_OPENMP=1 option.
OpenBLAS Warning : Detect OpenMP Loop and this application may hang. Please rebuild the library with USE_OPENMP=1 option.
OpenBLAS Warning : Detect OpenMP Loop and this application may hang. Please rebuild the library with USE_OPENMP=1 option.
OpenBLAS Warning : Detect OpenMP Loop and this application may hang. Please rebuild the library with USE_OPENMP=1 option.
OpenBLAS Warning : Detect OpenMP Loop and this application may hang. Please rebuild the library with USE_OPENMP=1 option.
OpenBLAS Warning : Detect OpenMP Loop and this application may hang. Please rebuild the library with USE_OPENMP=1 option.
OpenBLAS Warning : Detect OpenMP Loop and this application may hang. Please rebuild the library with USE_OPENMP=1 option.
OpenBLAS Warning : Detect OpenMP Loop and this application may hang. Please rebuild the library with USE_OPENMP=1 option.
OpenBLAS Warning : Detect OpenMP Loop and this application may hang. Please rebuild the library with USE_OPENMP=1 option.
OpenBLAS Warning : Detect OpenMP Loop and this application may hang. Please rebuild the library with USE_OPENMP=1 option.
OpenBLAS Warning : Detect OpenMP Loop and this application may hang. Please rebuild the library with USE_OPENMP=1 option.
OpenBLAS Warning : Detect OpenMP Loop and this application may hang. Please rebuild the library with USE_OPENMP=1 option.
OpenBLAS Warning : Detect OpenMP Loop and this application may hang. Please rebuild the library with USE_OPENMP=1 option.
OpenBLAS Warning : Detect OpenMP Loop and this application may hang. Please rebuild the library with USE_OPENMP=1 option.
OpenBLAS Warning : Detect OpenMP Loop and this application may hang. Please rebuild the library with USE_OPENMP=1 option.
OpenBLAS Warning : Detect OpenMP Loop and this application may hang. Please rebuild the library with USE_OPENMP=1 option.
OpenBLAS Warning : Detect OpenMP Loop and this application may hang. Please rebuild the library with USE_OPENMP=1 option.
OpenBLAS Warning : Detect OpenMP Loop and this application may hang. Please rebuild the library with USE_OPENMP=1 option.
OpenBLAS Warning : Detect OpenMP Loop and this application may hang. Please rebuild the library with USE_OPENMP=1 option.
OpenBLAS Warning : Detect OpenMP Loop and this application may hang. Please rebuild the library with USE_OPENMP=1 option.
OpenBLAS Warning : Detect OpenMP Loop and this application may hang. Please rebuild the library with USE_OPENMP=1 option.
OpenBLAS Warning : Detect OpenMP Loop and this application may hang. Please rebuild the library with USE_OPENMP=1 option.
OpenBLAS Warning : Detect OpenMP Loop and this application may hang. Please rebuild the library with USE_OPENMP=1 option.
OpenBLAS Warning : Detect OpenMP Loop and this application may hang. Please rebuild the library with USE_OPENMP=1 option.
OpenBLAS Warning : Detect OpenMP Loop and this application may hang. Please rebuild the library with USE_OPENMP=1 option.
OpenBLAS Warning : Detect OpenMP Loop and this application may hang. Please rebuild the library with USE_OPENMP=1 option.
OpenBLAS Warning : Detect OpenMP Loop and this application may hang. Please rebuild the library with USE_OPENMP=1 option.
OpenBLAS Warning : Detect OpenMP Loop and this application may hang. Please rebuild the library with USE_OPENMP=1 option.
OpenBLAS Warning : Detect OpenMP Loop and this application may hang. Please rebuild the library with USE_OPENMP=1 option.
OpenBLAS Warning : Detect OpenMP Loop and this application may hang. Please rebuild the library with USE_OPENMP=1 option.
OpenBLAS Warning : Detect OpenMP Loop and this application may hang. Please rebuild the library with USE_OPENMP=1 option.
OpenBLAS Warning : Detect OpenMP Loop and this application may hang. Please rebuild the library with USE_OPENMP=1 option.
OpenBLAS Warning : Detect OpenMP Loop and this application may hang. Please rebuild the library with USE_OPENMP=1 option.
OpenBLAS Warning : Detect OpenMP Loop and this application may hang. Please rebuild the library with USE_OPENMP=1 option.
OpenBLAS Warning : Detect OpenMP Loop and this application may hang. Please rebuild the library with USE_OPENMP=1 option.
OpenBLAS Warning : Detect OpenMP Loop and this application may hang. Please rebuild the library with USE_OPENMP=1 option.
OpenBLAS Warning : Detect OpenMP Loop and this application may hang. Please rebuild the library with USE_OPENMP=1 option.
OpenBLAS Warning : Detect OpenMP Loop and this application may hang. Please rebuild the library with USE_OPENMP=1 option.
OpenBLAS Warning : Detect OpenMP Loop and this application may hang. Please rebuild the library with USE_OPENMP=1 option.
OpenBLAS Warning : Detect OpenMP Loop and this application may hang. Please rebuild the library with USE_OPENMP=1 option.
OpenBLAS Warning : Detect OpenMP Loop and this application may hang. Please rebuild the library with USE_OPENMP=1 option.
OpenBLAS Warning : Detect OpenMP Loop and this application may hang. Please rebuild the library with USE_OPENMP=1 option.
OpenBLAS Warning : Detect OpenMP Loop and this application may hang. Please rebuild the library with USE_OPENMP=1 option.
OpenBLAS Warning : Detect OpenMP Loop and this application may hang. Please rebuild the library with USE_OPENMP=1 option.
OpenBLAS Warning : Detect OpenMP Loop and this application may hang. Please rebuild the library with USE_OPENMP=1 option.
OpenBLAS Warning : Detect OpenMP Loop and this application may hang. Please rebuild the library with USE_OPENMP=1 option.
OpenBLAS Warning : Detect OpenMP Loop and this application may hang. Please rebuild the library with USE_OPENMP=1 option.
OpenBLAS Warning : Detect OpenMP Loop and this application may hang. Please rebuild the library with USE_OPENMP=1 option.
OpenBLAS Warning : Detect OpenMP Loop and this application may hang. Please rebuild the library with USE_OPENMP=1 option.
OpenBLAS Warning : Detect OpenMP Loop and this application may hang. Please rebuild the library with USE_OPENMP=1 option.
OpenBLAS Warning : Detect OpenMP Loop and this application may hang. Please rebuild the library with USE_OPENMP=1 option.
OpenBLAS Warning : Detect OpenMP Loop and this application may hang. Please rebuild the library with USE_OPENMP=1 option.
OpenBLAS Warning : Detect OpenMP Loop and this application may hang. Please rebuild the library with USE_OPENMP=1 option.
OpenBLAS Warning : Detect OpenMP Loop and this application may hang. Please rebuild the library with USE_OPENMP=1 option.
OpenBLAS Warning : Detect OpenMP Loop and this application may hang. Please rebuild the library with USE_OPENMP=1 option.
OpenBLAS Warning : Detect OpenMP Loop and this application may hang. Please rebuild the library with USE_OPENMP=1 option.
OpenBLAS Warning : Detect OpenMP Loop and this application may hang. Please rebuild the library with USE_OPENMP=1 option.
OpenBLAS Warning : Detect OpenMP Loop and this application may hang. Please rebuild the library with USE_OPENMP=1 option.
OpenBLAS Warning : Detect OpenMP Loop and this application may hang. Please rebuild the library with USE_OPENMP=1 option.
OpenBLAS Warning : Detect OpenMP Loop and this application may hang. Please rebuild the library with USE_OPENMP=1 option.
OpenBLAS Warning : Detect OpenMP Loop and this application may hang. Please rebuild the library with USE_OPENMP=1 option.
OpenBLAS Warning : Detect OpenMP Loop and this application may hang. Please rebuild the library with USE_OPENMP=1 option.
OpenBLAS Warning : Detect OpenMP Loop and this application may hang. Please rebuild the library with USE_OPENMP=1 option.
OpenBLAS Warning : Detect OpenMP Loop and this application may hang. Please rebuild the library with USE_OPENMP=1 option.
OpenBLAS Warning : Detect OpenMP Loop and this application may hang. Please rebuild the library with USE_OPENMP=1 option.
OpenBLAS Warning : Detect OpenMP Loop and this application may hang. Please rebuild the library with USE_OPENMP=1 option.
OpenBLAS Warning : Detect OpenMP Loop and this application may hang. Please rebuild the library with USE_OPENMP=1 option.
OpenBLAS Warning : Detect OpenMP Loop and this application may hang. Please rebuild the library with USE_OPENMP=1 option.
OpenBLAS Warning : Detect OpenMP Loop and this application may hang. Please rebuild the library with USE_OPENMP=1 option.
OpenBLAS Warning : Detect OpenMP Loop and this application may hang. Please rebuild the library with USE_OPENMP=1 option.
OpenBLAS Warning : Detect OpenMP Loop and this application may hang. Please rebuild the library with USE_OPENMP=1 option.
OpenBLAS Warning : Detect OpenMP Loop and this application may hang. Please rebuild the library with USE_OPENMP=1 option.
OpenBLAS Warning : Detect OpenMP Loop and this application may hang. Please rebuild the library with USE_OPENMP=1 option.
OpenBLAS Warning : Detect OpenMP Loop and this application may hang. Please rebuild the library with USE_OPENMP=1 option.
OpenBLAS Warning : Detect OpenMP Loop and this application may hang. Please rebuild the library with USE_OPENMP=1 option.
OpenBLAS Warning : Detect OpenMP Loop and this application may hang. Please rebuild the library with USE_OPENMP=1 option.
OpenBLAS Warning : Detect OpenMP Loop and this application may hang. Please rebuild the library with USE_OPENMP=1 option.
OpenBLAS Warning : Detect OpenMP Loop and this application may hang. Please rebuild the library with USE_OPENMP=1 option.
OpenBLAS Warning : Detect OpenMP Loop and this application may hang. Please rebuild the library with USE_OPENMP=1 option.
OpenBLAS Warning : Detect OpenMP Loop and this application may hang. Please rebuild the library with USE_OPENMP=1 option.
OpenBLAS Warning : Detect OpenMP Loop and this application may hang. Please rebuild the library with USE_OPENMP=1 option.
OpenBLAS Warning : Detect OpenMP Loop and this application may hang. Please rebuild the library with USE_OPENMP=1 option.
OpenBLAS Warning : Detect OpenMP Loop and this application may hang. Please rebuild the library with USE_OPENMP=1 option.
OpenBLAS Warning : Detect OpenMP Loop and this application may hang. Please rebuild the library with USE_OPENMP=1 option.
OpenBLAS Warning : Detect OpenMP Loop and this application may hang. Please rebuild the library with USE_OPENMP=1 option.
OpenBLAS Warning : Detect OpenMP Loop and this application may hang. Please rebuild the library with USE_OPENMP=1 option.
OpenBLAS Warning : Detect OpenMP Loop and this application may hang. Please rebuild the library with USE_OPENMP=1 option.
OpenBLAS Warning : Detect OpenMP Loop and this application may hang. Please rebuild the library with USE_OPENMP=1 option.
OpenBLAS Warning : Detect OpenMP Loop and this application may hang. Please rebuild the library with USE_OPENMP=1 option.
OpenBLAS Warning : Detect OpenMP Loop and this application may hang. Please rebuild the library with USE_OPENMP=1 option.
OpenBLAS Warning : Detect OpenMP Loop and this application may hang. Please rebuild the library with USE_OPENMP=1 option.
OpenBLAS Warning : Detect OpenMP Loop and this application may hang. Please rebuild the library with USE_OPENMP=1 option.
OpenBLAS Warning : Detect OpenMP Loop and this application may hang. Please rebuild the library with USE_OPENMP=1 option.
OpenBLAS Warning : Detect OpenMP Loop and this application may hang. Please rebuild the library with USE_OPENMP=1 option.
OpenBLAS Warning : Detect OpenMP Loop and this application may hang. Please rebuild the library with USE_OPENMP=1 option.
OpenBLAS Warning : Detect OpenMP Loop and this application may hang. Please rebuild the library with USE_OPENMP=1 option.
OpenBLAS Warning : Detect OpenMP Loop and this application may hang. Please rebuild the library with USE_OPENMP=1 option.
OpenBLAS Warning : Detect OpenMP Loop and this application may hang. Please rebuild the library with USE_OPENMP=1 option.
OpenBLAS Warning : Detect OpenMP Loop and this application may hang. Please rebuild the library with USE_OPENMP=1 option.
OpenBLAS Warning : Detect OpenMP Loop and this application may hang. Please rebuild the library with USE_OPENMP=1 option.
OpenBLAS Warning : Detect OpenMP Loop and this application may hang. Please rebuild the library with USE_OPENMP=1 option.
OpenBLAS Warning : Detect OpenMP Loop and this application may hang. Please rebuild the library with USE_OPENMP=1 option.
OpenBLAS Warning : Detect OpenMP Loop and this application may hang. Please rebuild the library with USE_OPENMP=1 option.
OpenBLAS Warning : Detect OpenMP Loop and this application may hang. Please rebuild the library with USE_OPENMP=1 option.
OpenBLAS Warning : Detect OpenMP Loop and this application may hang. Please rebuild the library with USE_OPENMP=1 option.
OpenBLAS Warning : Detect OpenMP Loop and this application may hang. Please rebuild the library with USE_OPENMP=1 option.
OpenBLAS Warning : Detect OpenMP Loop and this application may hang. Please rebuild the library with USE_OPENMP=1 option.
OpenBLAS Warning : Detect OpenMP Loop and this application may hang. Please rebuild the library with USE_OPENMP=1 option.
OpenBLAS Warning : Detect OpenMP Loop and this application may hang. Please rebuild the library with USE_OPENMP=1 option.
OpenBLAS Warning : Detect OpenMP Loop and this application may hang. Please rebuild the library with USE_OPENMP=1 option.
OpenBLAS Warning : Detect OpenMP Loop and this application may hang. Please rebuild the library with USE_OPENMP=1 option.
OpenBLAS Warning : Detect OpenMP Loop and this application may hang. Please rebuild the library with USE_OPENMP=1 option.
OpenBLAS Warning : Detect OpenMP Loop and this application may hang. Please rebuild the library with USE_OPENMP=1 option.
OpenBLAS Warning : Detect OpenMP Loop and this application may hang. Please rebuild the library with USE_OPENMP=1 option.
OpenBLAS Warning : Detect OpenMP Loop and this application may hang. Please rebuild the library with USE_OPENMP=1 option.
OpenBLAS Warning : Detect OpenMP Loop and this application may hang. Please rebuild the library with USE_OPENMP=1 option.
OpenBLAS Warning : Detect OpenMP Loop and this application may hang. Please rebuild the library with USE_OPENMP=1 option.
OpenBLAS Warning : Detect OpenMP Loop and this application may hang. Please rebuild the library with USE_OPENMP=1 option.
OpenBLAS Warning : Detect OpenMP Loop and this application may hang. Please rebuild the library with USE_OPENMP=1 option.
OpenBLAS Warning : Detect OpenMP Loop and this application may hang. Please rebuild the library with USE_OPENMP=1 option.
OpenBLAS Warning : Detect OpenMP Loop and this application may hang. Please rebuild the library with USE_OPENMP=1 option.
OpenBLAS Warning : Detect OpenMP Loop and this application may hang. Please rebuild the library with USE_OPENMP=1 option.
OpenBLAS Warning : Detect OpenMP Loop and this application may hang. Please rebuild the library with USE_OPENMP=1 option.
OpenBLAS Warning : Detect OpenMP Loop and this application may hang. Please rebuild the library with USE_OPENMP=1 option.
OpenBLAS Warning : Detect OpenMP Loop and this application may hang. Please rebuild the library with USE_OPENMP=1 option.
OpenBLAS Warning : Detect OpenMP Loop and this application may hang. Please rebuild the library with USE_OPENMP=1 option.
OpenBLAS Warning : Detect OpenMP Loop and this application may hang. Please rebuild the library with USE_OPENMP=1 option.
OpenBLAS Warning : Detect OpenMP Loop and this application may hang. Please rebuild the library with USE_OPENMP=1 option.
OpenBLAS Warning : Detect OpenMP Loop and this application may hang. Please rebuild the library with USE_OPENMP=1 option.
OpenBLAS Warning : Detect OpenMP Loop and this application may hang. Please rebuild the library with USE_OPENMP=1 option.
OpenBLAS Warning : Detect OpenMP Loop and this application may hang. Please rebuild the library with USE_OPENMP=1 option.
OpenBLAS Warning : Detect OpenMP Loop and this application may hang. Please rebuild the library with USE_OPENMP=1 option.
OpenBLAS Warning : Detect OpenMP Loop and this application may hang. Please rebuild the library with USE_OPENMP=1 option.
OpenBLAS Warning : Detect OpenMP Loop and this application may hang. Please rebuild the library with USE_OPENMP=1 option.
OpenBLAS Warning : Detect OpenMP Loop and this application may hang. Please rebuild the library with USE_OPENMP=1 option.
OpenBLAS Warning : Detect OpenMP Loop and this application may hang. Please rebuild the library with USE_OPENMP=1 option.
OpenBLAS Warning : Detect OpenMP Loop and this application may hang. Please rebuild the library with USE_OPENMP=1 option.
OpenBLAS Warning : Detect OpenMP Loop and this application may hang. Please rebuild the library with USE_OPENMP=1 option.
OpenBLAS Warning : Detect OpenMP Loop and this application may hang. Please rebuild the library with USE_OPENMP=1 option.
OpenBLAS Warning : Detect OpenMP Loop and this application may hang. Please rebuild the library with USE_OPENMP=1 option.
OpenBLAS Warning : Detect OpenMP Loop and this application may hang. Please rebuild the library with USE_OPENMP=1 option.
OpenBLAS Warning : Detect OpenMP Loop and this application may hang. Please rebuild the library with USE_OPENMP=1 option.
OpenBLAS Warning : Detect OpenMP Loop and this application may hang. Please rebuild the library with USE_OPENMP=1 option.
OpenBLAS Warning : Detect OpenMP Loop and this application may hang. Please rebuild the library with USE_OPENMP=1 option.
OpenBLAS Warning : Detect OpenMP Loop and this application may hang. Please rebuild the library with USE_OPENMP=1 option.
OpenBLAS Warning : Detect OpenMP Loop and this application may hang. Please rebuild the library with USE_OPENMP=1 option.
OpenBLAS Warning : Detect OpenMP Loop and this application may hang. Please rebuild the library with USE_OPENMP=1 option.
OpenBLAS Warning : Detect OpenMP Loop and this application may hang. Please rebuild the library with USE_OPENMP=1 option.
OpenBLAS Warning : Detect OpenMP Loop and this application may hang. Please rebuild the library with USE_OPENMP=1 option.
OpenBLAS Warning : Detect OpenMP Loop and this application may hang. Please rebuild the library with USE_OPENMP=1 option.
OpenBLAS Warning : Detect OpenMP Loop and this application may hang. Please rebuild the library with USE_OPENMP=1 option.
OpenBLAS Warning : Detect OpenMP Loop and this application may hang. Please rebuild the library with USE_OPENMP=1 option.
OpenBLAS Warning : Detect OpenMP Loop and this application may hang. Please rebuild the library with USE_OPENMP=1 option.
OpenBLAS Warning : Detect OpenMP Loop and this application may hang. Please rebuild the library with USE_OPENMP=1 option.
OpenBLAS Warning : Detect OpenMP Loop and this application may hang. Please rebuild the library with USE_OPENMP=1 option.
OpenBLAS Warning : Detect OpenMP Loop and this application may hang. Please rebuild the library with USE_OPENMP=1 option.
OpenBLAS Warning : Detect OpenMP Loop and this application may hang. Please rebuild the library with USE_OPENMP=1 option.
OpenBLAS Warning : Detect OpenMP Loop and this application may hang. Please rebuild the library with USE_OPENMP=1 option.
OpenBLAS Warning : Detect OpenMP Loop and this application may hang. Please rebuild the library with USE_OPENMP=1 option.
OpenBLAS Warning : Detect OpenMP Loop and this application may hang. Please rebuild the library with USE_OPENMP=1 option.
OpenBLAS Warning : Detect OpenMP Loop and this application may hang. Please rebuild the library with USE_OPENMP=1 option.
OpenBLAS Warning : Detect OpenMP Loop and this application may hang. Please rebuild the library with USE_OPENMP=1 option.
OpenBLAS Warning : Detect OpenMP Loop and this application may hang. Please rebuild the library with USE_OPENMP=1 option.
OpenBLAS Warning : Detect OpenMP Loop and this application may hang. Please rebuild the library with USE_OPENMP=1 option.
OpenBLAS Warning : Detect OpenMP Loop and this application may hang. Please rebuild the library with USE_OPENMP=1 option.
OpenBLAS Warning : Detect OpenMP Loop and this application may hang. Please rebuild the library with USE_OPENMP=1 option.
OpenBLAS Warning : Detect OpenMP Loop and this application may hang. Please rebuild the library with USE_OPENMP=1 option.
OpenBLAS Warning : Detect OpenMP Loop and this application may hang. Please rebuild the library with USE_OPENMP=1 option.
OpenBLAS Warning : Detect OpenMP Loop and this application may hang. Please rebuild the library with USE_OPENMP=1 option.
OpenBLAS Warning : Detect OpenMP Loop and this application may hang. Please rebuild the library with USE_OPENMP=1 option.
OpenBLAS Warning : Detect OpenMP Loop and this application may hang. Please rebuild the library with USE_OPENMP=1 option.
OpenBLAS Warning : Detect OpenMP Loop and this application may hang. Please rebuild the library with USE_OPENMP=1 option.
OpenBLAS Warning : Detect OpenMP Loop and this application may hang. Please rebuild the library with USE_OPENMP=1 option.
OpenBLAS Warning : Detect OpenMP Loop and this application may hang. Please rebuild the library with USE_OPENMP=1 option.
OpenBLAS Warning : Detect OpenMP Loop and this application may hang. Please rebuild the library with USE_OPENMP=1 option.
OpenBLAS Warning : Detect OpenMP Loop and this application may hang. Please rebuild the library with USE_OPENMP=1 option.
OpenBLAS Warning : Detect OpenMP Loop and this application may hang. Please rebuild the library with USE_OPENMP=1 option.
OpenBLAS Warning : Detect OpenMP Loop and this application may hang. Please rebuild the library with USE_OPENMP=1 option.
OpenBLAS Warning : Detect OpenMP Loop and this application may hang. Please rebuild the library with USE_OPENMP=1 option.
OpenBLAS Warning : Detect OpenMP Loop and this application may hang. Please rebuild the library with USE_OPENMP=1 option.
OpenBLAS Warning : Detect OpenMP Loop and this application may hang. Please rebuild the library with USE_OPENMP=1 option.
OpenBLAS Warning : Detect OpenMP Loop and this application may hang. Please rebuild the library with USE_OPENMP=1 option.
OpenBLAS Warning : Detect OpenMP Loop and this application may hang. Please rebuild the library with USE_OPENMP=1 option.
OpenBLAS Warning : Detect OpenMP Loop and this application may hang. Please rebuild the library with USE_OPENMP=1 option.
OpenBLAS Warning : Detect OpenMP Loop and this application may hang. Please rebuild the library with USE_OPENMP=1 option.
OpenBLAS Warning : Detect OpenMP Loop and this application may hang. Please rebuild the library with USE_OPENMP=1 option.
OpenBLAS Warning : Detect OpenMP Loop and this application may hang. Please rebuild the library with USE_OPENMP=1 option.
OpenBLAS Warning : Detect OpenMP Loop and this application may hang. Please rebuild the library with USE_OPENMP=1 option.
OpenBLAS Warning : Detect OpenMP Loop and this application may hang. Please rebuild the library with USE_OPENMP=1 option.
OpenBLAS Warning : Detect OpenMP Loop and this application may hang. Please rebuild the library with USE_OPENMP=1 option.
OpenBLAS Warning : Detect OpenMP Loop and this application may hang. Please rebuild the library with USE_OPENMP=1 option.
OpenBLAS Warning : Detect OpenMP Loop and this application may hang. Please rebuild the library with USE_OPENMP=1 option.
OpenBLAS Warning : Detect OpenMP Loop and this application may hang. Please rebuild the library with USE_OPENMP=1 option.
OpenBLAS Warning : Detect OpenMP Loop and this application may hang. Please rebuild the library with USE_OPENMP=1 option.
OpenBLAS Warning : Detect OpenMP Loop and this application may hang. Please rebuild the library with USE_OPENMP=1 option.
OpenBLAS Warning : Detect OpenMP Loop and this application may hang. Please rebuild the library with USE_OPENMP=1 option.
OpenBLAS Warning : Detect OpenMP Loop and this application may hang. Please rebuild the library with USE_OPENMP=1 option.
OpenBLAS Warning : Detect OpenMP Loop and this application may hang. Please rebuild the library with USE_OPENMP=1 option.
OpenBLAS Warning : Detect OpenMP Loop and this application may hang. Please rebuild the library with USE_OPENMP=1 option.
OpenBLAS Warning : Detect OpenMP Loop and this application may hang. Please rebuild the library with USE_OPENMP=1 option.
OpenBLAS Warning : Detect OpenMP Loop and this application may hang. Please rebuild the library with USE_OPENMP=1 option.
OpenBLAS Warning : Detect OpenMP Loop and this application may hang. Please rebuild the library with USE_OPENMP=1 option.
OpenBLAS Warning : Detect OpenMP Loop and this application may hang. Please rebuild the library with USE_OPENMP=1 option.
OpenBLAS Warning : Detect OpenMP Loop and this application may hang. Please rebuild the library with USE_OPENMP=1 option.
OpenBLAS Warning : Detect OpenMP Loop and this application may hang. Please rebuild the library with USE_OPENMP=1 option.
OpenBLAS Warning : Detect OpenMP Loop and this application may hang. Please rebuild the library with USE_OPENMP=1 option.
OpenBLAS Warning : Detect OpenMP Loop and this application may hang. Please rebuild the library with USE_OPENMP=1 option.
OpenBLAS Warning : Detect OpenMP Loop and this application may hang. Please rebuild the library with USE_OPENMP=1 option.
OpenBLAS Warning : Detect OpenMP Loop and this application may hang. Please rebuild the library with USE_OPENMP=1 option.
OpenBLAS Warning : Detect OpenMP Loop and this application may hang. Please rebuild the library with USE_OPENMP=1 option.
OpenBLAS Warning : Detect OpenMP Loop and this application may hang. Please rebuild the library with USE_OPENMP=1 option.
OpenBLAS Warning : Detect OpenMP Loop and this application may hang. Please rebuild the library with USE_OPENMP=1 option.
OpenBLAS Warning : Detect OpenMP Loop and this application may hang. Please rebuild the library with USE_OPENMP=1 option.
OpenBLAS Warning : Detect OpenMP Loop and this application may hang. Please rebuild the library with USE_OPENMP=1 option.
OpenBLAS Warning : Detect OpenMP Loop and this application may hang. Please rebuild the library with USE_OPENMP=1 option.
OpenBLAS Warning : Detect OpenMP Loop and this application may hang. Please rebuild the library with USE_OPENMP=1 option.
OpenBLAS Warning : Detect OpenMP Loop and this application may hang. Please rebuild the library with USE_OPENMP=1 option.
OpenBLAS Warning : Detect OpenMP Loop and this application may hang. Please rebuild the library with USE_OPENMP=1 option.
OpenBLAS Warning : Detect OpenMP Loop and this application may hang. Please rebuild the library with USE_OPENMP=1 option.
OpenBLAS Warning : Detect OpenMP Loop and this application may hang. Please rebuild the library with USE_OPENMP=1 option.
OpenBLAS Warning : Detect OpenMP Loop and this application may hang. Please rebuild the library with USE_OPENMP=1 option.
OpenBLAS Warning : Detect OpenMP Loop and this application may hang. Please rebuild the library with USE_OPENMP=1 option.
OpenBLAS Warning : Detect OpenMP Loop and this application may hang. Please rebuild the library with USE_OPENMP=1 option.
OpenBLAS Warning : Detect OpenMP Loop and this application may hang. Please rebuild the library with USE_OPENMP=1 option.
OpenBLAS Warning : Detect OpenMP Loop and this application may hang. Please rebuild the library with USE_OPENMP=1 option.
OpenBLAS Warning : Detect OpenMP Loop and this application may hang. Please rebuild the library with USE_OPENMP=1 option.
OpenBLAS Warning : Detect OpenMP Loop and this application may hang. Please rebuild the library with USE_OPENMP=1 option.
OpenBLAS Warning : Detect OpenMP Loop and this application may hang. Please rebuild the library with USE_OPENMP=1 option.
OpenBLAS Warning : Detect OpenMP Loop and this application may hang. Please rebuild the library with USE_OPENMP=1 option.
OpenBLAS Warning : Detect OpenMP Loop and this application may hang. Please rebuild the library with USE_OPENMP=1 option.
OpenBLAS Warning : Detect OpenMP Loop and this application may hang. Please rebuild the library with USE_OPENMP=1 option.
OpenBLAS Warning : Detect OpenMP Loop and this application may hang. Please rebuild the library with USE_OPENMP=1 option.
OpenBLAS Warning : Detect OpenMP Loop and this application may hang. Please rebuild the library with USE_OPENMP=1 option.
OpenBLAS Warning : Detect OpenMP Loop and this application may hang. Please rebuild the library with USE_OPENMP=1 option.
OpenBLAS Warning : Detect OpenMP Loop and this application may hang. Please rebuild the library with USE_OPENMP=1 option.
OpenBLAS Warning : Detect OpenMP Loop and this application may hang. Please rebuild the library with USE_OPENMP=1 option.
OpenBLAS Warning : Detect OpenMP Loop and this application may hang. Please rebuild the library with USE_OPENMP=1 option.
OpenBLAS Warning : Detect OpenMP Loop and this application may hang. Please rebuild the library with USE_OPENMP=1 option.
OpenBLAS Warning : Detect OpenMP Loop and this application may hang. Please rebuild the library with USE_OPENMP=1 option.
OpenBLAS Warning : Detect OpenMP Loop and this application may hang. Please rebuild the library with USE_OPENMP=1 option.
OpenBLAS Warning : Detect OpenMP Loop and this application may hang. Please rebuild the library with USE_OPENMP=1 option.
OpenBLAS Warning : Detect OpenMP Loop and this application may hang. Please rebuild the library with USE_OPENMP=1 option.
OpenBLAS Warning : Detect OpenMP Loop and this application may hang. Please rebuild the library with USE_OPENMP=1 option.
OpenBLAS Warning : Detect OpenMP Loop and this application may hang. Please rebuild the library with USE_OPENMP=1 option.
OpenBLAS Warning : Detect OpenMP Loop and this application may hang. Please rebuild the library with USE_OPENMP=1 option.
OpenBLAS Warning : Detect OpenMP Loop and this application may hang. Please rebuild the library with USE_OPENMP=1 option.
OpenBLAS Warning : Detect OpenMP Loop and this application may hang. Please rebuild the library with USE_OPENMP=1 option.
OpenBLAS Warning : Detect OpenMP Loop and this application may hang. Please rebuild the library with USE_OPENMP=1 option.
OpenBLAS Warning : Detect OpenMP Loop and this application may hang. Please rebuild the library with USE_OPENMP=1 option.
OpenBLAS Warning : Detect OpenMP Loop and this application may hang. Please rebuild the library with USE_OPENMP=1 option.
OpenBLAS Warning : Detect OpenMP Loop and this application may hang. Please rebuild the library with USE_OPENMP=1 option.
OpenBLAS Warning : Detect OpenMP Loop and this application may hang. Please rebuild the library with USE_OPENMP=1 option.
OpenBLAS Warning : Detect OpenMP Loop and this application may hang. Please rebuild the library with USE_OPENMP=1 option.
OpenBLAS Warning : Detect OpenMP Loop and this application may hang. Please rebuild the library with USE_OPENMP=1 option.
OpenBLAS Warning : Detect OpenMP Loop and this application may hang. Please rebuild the library with USE_OPENMP=1 option.
OpenBLAS Warning : Detect OpenMP Loop and this application may hang. Please rebuild the library with USE_OPENMP=1 option.
OpenBLAS Warning : Detect OpenMP Loop and this application may hang. Please rebuild the library with USE_OPENMP=1 option.
OpenBLAS Warning : Detect OpenMP Loop and this application may hang. Please rebuild the library with USE_OPENMP=1 option.
OpenBLAS Warning : Detect OpenMP Loop and this application may hang. Please rebuild the library with USE_OPENMP=1 option.
OpenBLAS Warning : Detect OpenMP Loop and this application may hang. Please rebuild the library with USE_OPENMP=1 option.
OpenBLAS Warning : Detect OpenMP Loop and this application may hang. Please rebuild the library with USE_OPENMP=1 option.
OpenBLAS Warning : Detect OpenMP Loop and this application may hang. Please rebuild the library with USE_OPENMP=1 option.
OpenBLAS Warning : Detect OpenMP Loop and this application may hang. Please rebuild the library with USE_OPENMP=1 option.
OpenBLAS Warning : Detect OpenMP Loop and this application may hang. Please rebuild the library with USE_OPENMP=1 option.
OpenBLAS Warning : Detect OpenMP Loop and this application may hang. Please rebuild the library with USE_OPENMP=1 option.
OpenBLAS Warning : Detect OpenMP Loop and this application may hang. Please rebuild the library with USE_OPENMP=1 option.
OpenBLAS Warning : Detect OpenMP Loop and this application may hang. Please rebuild the library with USE_OPENMP=1 option.
OpenBLAS Warning : Detect OpenMP Loop and this application may hang. Please rebuild the library with USE_OPENMP=1 option.
OpenBLAS Warning : Detect OpenMP Loop and this application may hang. Please rebuild the library with USE_OPENMP=1 option.
OpenBLAS Warning : Detect OpenMP Loop and this application may hang. Please rebuild the library with USE_OPENMP=1 option.
OpenBLAS Warning : Detect OpenMP Loop and this application may hang. Please rebuild the library with USE_OPENMP=1 option.
OpenBLAS Warning : Detect OpenMP Loop and this application may hang. Please rebuild the library with USE_OPENMP=1 option.
OpenBLAS Warning : Detect OpenMP Loop and this application may hang. Please rebuild the library with USE_OPENMP=1 option.
OpenBLAS Warning : Detect OpenMP Loop and this application may hang. Please rebuild the library with USE_OPENMP=1 option.
OpenBLAS Warning : Detect OpenMP Loop and this application may hang. Please rebuild the library with USE_OPENMP=1 option.
OpenBLAS Warning : Detect OpenMP Loop and this application may hang. Please rebuild the library with USE_OPENMP=1 option.
OpenBLAS Warning : Detect OpenMP Loop and this application may hang. Please rebuild the library with USE_OPENMP=1 option.
        17        2.0000           -0.1812627              -4.9324 (HOMO)
        18                         -0.0575217              -1.5652 (LUMO)
        19                         -0.0309549              -0.8423
        20                          0.0244905               0.6664
        21                          0.0797657               2.1705
        22                          0.3067594               8.3473
       ...                                ...                  ...
        30                          1.3307871              36.2126
      -------------------------------------------------------------
                  HL-Gap            0.1237410 Eh            3.3672 eV
             Fermi-level           -0.1193922 Eh           -3.2488 eV

 SCC (total)                   0 d,  0 h,  0 min,  0.863 sec
 SCC setup                      ...        0 min,  0.027 sec (  3.141%)
 Dispersion                     ...        0 min,  0.076 sec (  8.802%)
 classical contributions        ...        0 min,  0.039 sec (  4.535%)
 integral evaluation            ...        0 min,  0.064 sec (  7.414%)
 iterations                     ...        0 min,  0.448 sec ( 51.930%)
 molecular gradient             ...        0 min,  0.204 sec ( 23.596%)
 printout                       ...        0 min,  0.000 sec (  0.019%)

         :::::::::::::::::::::::::::::::::::::::::::::::::::::
         ::                     SUMMARY                     ::
         :::::::::::::::::::::::::::::::::::::::::::::::::::::
         :: total energy             -18.532827221766 Eh    ::
         :: gradient norm              0.000796582420 Eh/a0 ::
         :: HOMO-LUMO gap              3.367163262707 eV    ::
         ::.................................................::
         :: SCC energy               -18.827411814045 Eh    ::
         :: -> isotropic ES            0.135663332502 Eh    ::
         :: -> anisotropic ES          0.006955782292 Eh    ::
         :: -> anisotropic XC          0.025569078770 Eh    ::
         :: -> dispersion             -0.007215971871 Eh    ::
         :: repulsion energy           0.294584592279 Eh    ::
         :: add. restraining           0.000000000000 Eh    ::
         :: total charge              -1.000000000000 e     ::
         :::::::::::::::::::::::::::::::::::::::::::::::::::::

           ------------------------------------------------- 
          |                Numerical Hessian                |
           ------------------------------------------------- 
step length          :   0.00500
SCC accuracy         :   0.30000
Hessian scale factor :   1.00000
frozen atoms in %    :   0.00000    0
RMS gradient         :   0.00080
estimated CPU  time      0.17 min
estimated wall time      0.03 min

writing file <hessian>.

 projected vibrational frequencies (cm⁻¹)
eigval :       -0.00    -0.00    -0.00    -0.00    -0.00     0.00
eigval :      160.98   162.98   486.94   551.92   603.79   615.40
eigval :      679.14   789.09   801.58   920.23   977.09  1117.38
eigval :     1121.00  1282.77  1308.41  1383.65  1429.49  1434.53
eigval :     2323.03  3031.85  3054.69
           -------------------------------------------------
          |                Property Printout                |
           -------------------------------------------------

    * Orbital Energies and Occupations

         #    Occupation            Energy/Eh            Energy/eV
      -------------------------------------------------------------
         1        2.0000           -0.4705268             -12.8037
       ...           ...                  ...                  ...
         5        2.0000           -0.3819757             -10.3941
         6        2.0000           -0.3730753             -10.1519
         7        2.0000           -0.3292010              -8.9580
         8        2.0000           -0.3233479              -8.7987
         9        2.0000           -0.3049054              -8.2969
        10        2.0000           -0.2996708              -8.1545
        11        2.0000           -0.2899238              -7.8892
        12        2.0000           -0.2756485              -7.5008
        13        2.0000           -0.2442800              -6.6472
        14        2.0000           -0.2194352              -5.9711
        15        2.0000           -0.2042059              -5.5567
        16        2.0000           -0.1849109              -5.0317
        17        2.0000           -0.1812627              -4.9324 (HOMO)
        18                         -0.0575217              -1.5652 (LUMO)
        19                         -0.0309550              -0.8423
        20                          0.0244905               0.6664
        21                          0.0797656               2.1705
        22                          0.3067594               8.3473
        23                          0.3131259               8.5206
        24                          0.3841133              10.4523
        25                          0.4349451              11.8355
        26                          0.4817484              13.1090
        27                          0.6005485              16.3418
        28                          0.6431847              17.5019
       ...                                ...                  ...
        30                          1.3307870              36.2126
      -------------------------------------------------------------
                  HL-Gap            0.1237410 Eh            3.3672 eV
             Fermi-level           -0.1193922 Eh           -3.2488 eV

     #   Z          covCN         q      C6AA      α(0)
     1   7 N        0.911    -0.361    29.298     7.828
     2   6 C        1.902     0.094    28.755     8.660
     3   6 C        3.342     0.119    23.031     7.584
     4   7 N        1.897    -0.370    30.512     8.189
     5   6 C        3.144     0.007    27.601     8.596
     6   6 C        3.144     0.007    27.601     8.596
     7   7 N        1.897    -0.370    30.511     8.189
     8   1 H        0.926    -0.063     4.430     3.291
     9   1 H        0.926    -0.063     4.429     3.291

 Mol. C6AA /au·bohr⁶  :       1704.994606
 Mol. C8AA /au·bohr⁸  :      41161.669896
 Mol. α(0) /au        :         64.225288


Wiberg/Mayer (AO) data.
largest (>0.10) Wiberg bond orders for each atom

 ---------------------------------------------------------------------------
     #   Z sym  total        # sym  WBO       # sym  WBO       # sym  WBO
 ---------------------------------------------------------------------------
     1   7 N    2.950 --     2 C    2.700
     2   6 C    3.935 --     1 N    2.700     3 C    1.147
     3   6 C    3.960 --     4 N    1.307     7 N    1.307     2 C    1.147
     4   7 N    2.973 --     5 C    1.406     3 C    1.307     7 N    0.116
     5   6 C    3.967 --     6 C    1.427     4 N    1.406     8 H    0.966
     6   6 C    3.967 --     5 C    1.427     7 N    1.406     9 H    0.966
     7   7 N    2.973 --     6 C    1.406     3 C    1.307     4 N    0.116
     8   1 H    0.995 --     5 C    0.966
     9   1 H    0.995 --     6 C    0.966
 ---------------------------------------------------------------------------

Topologies differ in total number of bonds
Writing topology from bond orders to xtbtopo.mol

molecular dipole:
                 x           y           z       tot (Debye)
 q only:       -1.352       0.048      -0.022
   full:       -2.162       0.077      -0.034       5.500
molecular quadrupole (traceless):
                xx          xy          yy          xz          yz          zz
 q only:      -12.178       0.770       9.243      -0.222       0.478       2.934
  q+dip:      -13.368       0.856      10.576      -0.232       0.588       2.792
   full:      -15.114       0.985      12.460      -0.251       0.739       2.654

           -------------------------------------------------
          |                Geometry Summary                 |
           -------------------------------------------------

      molecular mass/u    :       92.0789347
   center of mass at/Å    :        0.5613133      -0.0205749       0.0091863
  moments of inertia/u·Å² :        0.5181093E+02   0.2357381E+03   0.2875490E+03
Molecule has the following symmetry elements: (C2) 2*(sigma) 
It seems to be the C2v point group
rotational constants/cm⁻¹ :        0.3253683E+00   0.7150999E-01   0.5862526E-01

 * 9 selected distances

     #   Z          #   Z                                           value/Å
     1   7 N        2   6 C                                       1.1569332
     2   6 C        3   6 C                                       1.3905611 (max)
     3   6 C        4   7 N                                       1.3544400
     4   7 N        5   6 C                                       1.3403866
     5   6 C        6   6 C                                       1.3879926
     3   6 C        7   7 N                                       1.3544847
     6   6 C        7   7 N                                       1.3403878
     5   6 C        8   1 H                                       1.0803914 (min)
     6   6 C        9   1 H                                       1.0804019

 * 3 distinct bonds (by element types)

   Z      Z             #   av. dist./Å        max./Å        min./Å
   1 H    6 C           2     1.0803966     1.0804019     1.0803914
   6 C    6 C           2     1.3892769     1.3905611     1.3879926
   6 C    7 N           5     1.3093265     1.3544847     1.1569332

           -------------------------------------------------
          |               Frequency Printout                |
           -------------------------------------------------
 projected vibrational frequencies (cm⁻¹)
eigval :       -0.00    -0.00    -0.00    -0.00    -0.00     0.00
eigval :      160.98   162.98   486.94   551.92   603.79   615.40
eigval :      679.14   789.09   801.58   920.23   977.09  1117.38
eigval :     1121.00  1282.77  1308.41  1383.65  1429.49  1434.53
eigval :     2323.03  3031.85  3054.69
 reduced masses (amu)
   1: 11.90   2: 12.53   3: 12.52   4: 12.45   5: 12.94   6: 13.05   7: 12.02   8: 12.90
   9: 12.36  10: 12.27  11: 12.98  12: 11.00  13: 12.77  14:  3.43  15:  2.87  16: 11.97
  17:  8.47  18:  7.58  19:  3.86  20: 12.76  21: 12.76  22: 11.05  23: 11.48  24: 11.89
  25: 12.75  26:  1.76  27:  1.92
 IR intensities (km·mol⁻¹)
   1:  0.48   2:  6.28   3:  8.53   4:  1.65   5:  7.96   6:  9.56   7:  2.35   8:  3.84
   9: 24.16  10: 19.58  11:  4.04  12:  0.00  13: 14.34  14:  0.00  15:  0.06  16:  9.88
  17:  0.79  18: 20.93  19:  8.48  20: 45.12  21: 27.23  22: 41.30  23:119.34  24:  9.31
  25:686.58  26:143.79  27:295.11
 Raman intensities (Ä⁴*amu⁻¹)
   1:  0.00   2:  0.00   3:  0.00   4:  0.00   5:  0.00   6:  0.00   7:  0.00   8:  0.00
   9:  0.00  10:  0.00  11:  0.00  12:  0.00  13:  0.00  14:  0.00  15:  0.00  16:  0.00
  17:  0.00  18:  0.00  19:  0.00  20:  0.00  21:  0.00  22:  0.00  23:  0.00  24:  0.00
  25:  0.00  26:  0.00  27:  0.00
 output can be read by thermo (or use thermo option).
 writing <g98.out> molden fake output.
 recommended (thermochemical) frequency scaling factor: 1.0
           -------------------------------------------------
          |             Thermodynamic Functions             |
           -------------------------------------------------

c2v symmetry found (for desy threshold:  0.10E+00) used in thermo

          ...................................................
          :                      SETUP                      :
          :.................................................:
          :  # frequencies                          21      :
          :  # imaginary freq.                       0      :
          :  linear?                             false      :
          :  only rotor calc.                    false      :
          :  symmetry                              c2v      :
          :  rotational number                       2      :
          :  scaling factor                  1.0000000      :
          :  rotor cutoff                   50.0000000 cm⁻¹ :
          :  imag. cutoff                  -20.0000000 cm⁻¹ :
          :.................................................:

    mode    ω/cm⁻¹     T·S(HO)/kcal·mol⁻¹    T·S(FR)/kcal·mol⁻¹   T·S(vib)
   ------------------------------------------------------------------------
Note: The following floating-point exceptions are signalling: IEEE_DENORMAL
normal termination of xtb
       1    160.98    -0.75677 ( 99.08%)    -0.71000 (  0.92%)    -0.75634
       2    162.98    -0.74984 ( 99.12%)    -0.70636 (  0.88%)    -0.74945
   ------------------------------------------------------------------------

   temp. (K)  partition function   enthalpy   heat capacity  entropy
                                   cal/mol     cal/K/mol   cal/K/mol   J/K/mol
 298.15  VIB   5.07                 1530.406     12.396      8.357
         ROT  0.716E+05              888.752      2.981     25.196
         INT  0.363E+06             2419.158     15.377     33.553
         TR   0.855E+27             1481.254      4.968     39.454
         TOT                        3900.4124    20.3454    73.0071   305.4615

       T/K    H(0)-H(T)+PV         H(T)/Eh          T*S/Eh         G(T)/Eh
   ------------------------------------------------------------------------
    298.15    0.621570E-02    0.614293E-01    0.346880E-01    0.267413E-01
   ------------------------------------------------------------------------

         :::::::::::::::::::::::::::::::::::::::::::::::::::::
         ::                  THERMODYNAMIC                  ::
         :::::::::::::::::::::::::::::::::::::::::::::::::::::
         :: total free energy         -18.506085917211 Eh   ::
         ::.................................................::
         :: total energy              -18.532827221765 Eh   ::
         :: zero point energy           0.055213608238 Eh   ::
         :: G(RRHO) w/o ZPVE           -0.028472303683 Eh   ::
         :: G(RRHO) contrib.            0.026741304554 Eh   ::
         :::::::::::::::::::::::::::::::::::::::::::::::::::::

optimized geometry written to: xtbopt.xyz


           -------------------------------------------------
          | TOTAL ENERGY              -18.532827221765 Eh   |
          | TOTAL ENTHALPY            -18.471397910757 Eh   |
          | TOTAL FREE ENERGY         -18.506085917211 Eh   |
          | GRADIENT NORM               0.000796697329 Eh/α |
          | HOMO-LUMO GAP               3.367163405276 eV   |
           -------------------------------------------------

------------------------------------------------------------------------
 * finished run on 2026/08/15 at 00:32:08.123     
------------------------------------------------------------------------
 total:
 * wall-time:     0 d,  0 h,  0 min, 20.380 sec
 *  cpu-time:     0 d,  0 h,  1 min, 58.645 sec
 * ratio c/w:     5.822 speedup
 SCF:
 * wall-time:     0 d,  0 h,  0 min,  2.567 sec
 *  cpu-time:     0 d,  0 h,  0 min, 14.580 sec
 * ratio c/w:     5.681 speedup
 ANC optimizer:
 * wall-time:     0 d,  0 h,  0 min, 13.212 sec
 *  cpu-time:     0 d,  0 h,  1 min, 16.714 sec
 * ratio c/w:     5.807 speedup
 analytical hessian:
 * wall-time:     0 d,  0 h,  0 min,  4.285 sec
 *  cpu-time:     0 d,  0 h,  0 min, 25.601 sec
 * ratio c/w:     5.974 speedup

