9
 energy: -18.532827221766 gnorm: 0.000796582420 xtb: 6.7.1 (edcfbbe)
N            3.34254060774695       -0.12154795844603        0.05373263782384
C            2.18641866471969       -0.08183704878005        0.03642981438601
C            0.79704768216168       -0.02919714273258        0.01325322773889
N            0.04490884638544       -0.08548828898234        1.13825361216614
C           -1.20945886165628       -0.00660570433934        0.67244779323980
C           -1.18297667329200        0.09459689336536       -0.71159694085753
N            0.08843014242146        0.08079510234187       -1.13582964911907
H           -2.05969581182188       -0.02568966156968        1.33876477794500
H           -2.00721458666509        0.17497379914274       -1.40545527332310
