 Entering Gaussian System
 *********************************************
 Gaussian 98:
 frequency output generated by the xtb code
 *********************************************
                         Standard orientation:
 --------------------------------------------------------------------
  Center     Atomic     Atomic              Coordinates (Angstroms)
  Number     Number      Type              X           Y           Z
 --------------------------------------------------------------------
    1          7             0        3.325786    0.193751    0.039899
    2          6             0        2.181155    0.237366   -0.013311
    3          6             0        0.778007    0.245969   -0.062618
    4          7             0        0.015427    1.246892   -0.446588
    5          6             0       -1.253630    0.812073   -0.332411
    6          6             0       -1.275632   -0.480307    0.130255
    7          7             0        0.023359   -0.835944    0.300480
    8          1             0       -2.075536    1.449509   -0.587980
    9          1             0       -2.086889   -1.145713    0.342176
   10          1             0        0.367953   -1.723594    0.630098
 --------------------------------------------------------------------
     1 basis functions        1 primitive gaussians
     1 alpha electrons        1 beta electrons

 Harmonic frequencies (cm**-1), IR intensities (km*mol⁻¹),
 Raman scattering activities (A**4/amu), Raman depolarization ratios,
 reduced masses (AMU), force constants (mDyne/A) and normal coordinates:
                      1                      2                      3
                        a                      a                      a 
 Frequencies --   158.4352               158.5229               470.1412
 Red. masses --    12.4416                12.0742                12.2295
 Frc consts  --     0.0000                 0.0000                 0.0000
 IR Inten    --     7.9901                 4.8262                13.1627
 Raman Activ --     0.0000                 0.0000                 0.0000
 Depolar     --     0.0000                 0.0000                 0.0000
 Atom AN      X      Y      Z        X      Y      Z        X      Y      Z
   1   7    -0.05  -0.46   0.42    -0.01  -0.43  -0.35     0.01  -0.10  -0.29
   2   6    -0.00   0.13  -0.16    -0.01   0.16   0.16    -0.02   0.26   0.74
   3   6     0.00   0.24  -0.33    -0.02   0.31   0.37     0.00  -0.03  -0.10
   4   7    -0.25   0.13  -0.17    -0.13   0.16   0.17     0.01  -0.10  -0.26
   5   6    -0.14  -0.07   0.17    -0.06  -0.15  -0.23    -0.00   0.02   0.06
   6   6     0.15  -0.07   0.18     0.09  -0.16  -0.24    -0.01   0.08   0.21
   7   7     0.26   0.13  -0.16     0.12   0.17   0.19     0.01  -0.11  -0.32
   8   1    -0.09  -0.06   0.11    -0.04  -0.10  -0.14    -0.00   0.02   0.06
   9   1     0.09  -0.05   0.11     0.05  -0.10  -0.14    -0.00   0.05   0.13
  10   1     0.14   0.05  -0.06     0.07   0.07   0.07     0.00  -0.03  -0.09
                      4                      5                      6
                        a                      a                      a 
 Frequencies --   538.9812               590.6229               591.1886
 Red. masses --    12.0603                10.7351                12.7626
 Frc consts  --     0.0000                 0.0000                 0.0000
 IR Inten    --     8.9149                 5.3102                 2.1632
 Raman Activ --     0.0000                 0.0000                 0.0000
 Depolar     --     0.0000                 0.0000                 0.0000
 Atom AN      X      Y      Z        X      Y      Z        X      Y      Z
   1   7    -0.03  -0.24   0.08     0.02   0.02   0.05    -0.59   0.02  -0.03
   2   6     0.03   0.79  -0.28     0.02  -0.05  -0.15    -0.49  -0.02  -0.02
   3   6     0.01  -0.20   0.07    -0.00   0.09   0.25    -0.12  -0.03   0.02
   4   7     0.14  -0.20   0.08    -0.02   0.09   0.25     0.27   0.12  -0.03
   5   6     0.08   0.05  -0.01     0.00  -0.14  -0.40     0.33   0.03  -0.02
   6   6    -0.08   0.05  -0.02    -0.03   0.15   0.43     0.31   0.01   0.02
   7   7    -0.12  -0.21   0.07     0.01  -0.17  -0.48     0.24  -0.14   0.04
   8   1     0.06   0.05  -0.02     0.01  -0.09  -0.24     0.07  -0.02   0.00
   9   1    -0.06   0.06  -0.02    -0.01   0.09   0.26     0.05   0.05  -0.00
  10   1    -0.10  -0.08   0.03    -0.01   0.07   0.18     0.12  -0.01   0.01
                      7                      8                      9
                        a                      a                      a 
 Frequencies --   635.6672               672.7246               775.1809
 Red. masses --     3.7228                11.1985                 3.4751
 Frc consts  --     0.0000                 0.0000                 0.0000
 IR Inten    --    86.1038                 0.1343                 6.2958
 Raman Activ --     0.0000                 0.0000                 0.0000
 Depolar     --     0.0000                 0.0000                 0.0000
 Atom AN      X      Y      Z        X      Y      Z        X      Y      Z
   1   7    -0.00   0.00   0.00    -0.00   0.02   0.06    -0.00   0.00   0.00
   2   6     0.00  -0.01  -0.02     0.01  -0.07  -0.19     0.00  -0.00  -0.00
   3   6    -0.00   0.04   0.11    -0.02   0.24   0.67     0.00  -0.02  -0.04
   4   7     0.01  -0.06  -0.17     0.02  -0.17  -0.47     0.00  -0.01  -0.03
   5   6    -0.01   0.10   0.28    -0.01   0.07   0.20     0.00  -0.03  -0.08
   6   6     0.01  -0.06  -0.17    -0.00   0.00   0.01    -0.01   0.16   0.43
   7   7     0.01  -0.08  -0.23     0.01  -0.06  -0.16     0.00  -0.01  -0.04
   8   1    -0.00   0.05   0.13    -0.00   0.03   0.07    -0.00   0.01   0.03
   9   1     0.00  -0.04  -0.11     0.00  -0.01  -0.02     0.03  -0.30  -0.83
  10   1    -0.03   0.29   0.81     0.01  -0.12  -0.32     0.00  -0.00  -0.01
                     10                     11                     12
                        a                      a                      a 
 Frequencies --   842.1531               888.3228               961.6277
 Red. masses --     3.2129                11.6561                 8.6214
 Frc consts  --     0.0000                 0.0000                 0.0000
 IR Inten    --     5.7630                 3.2895                 3.6684
 Raman Activ --     0.0000                 0.0000                 0.0000
 Depolar     --     0.0000                 0.0000                 0.0000
 Atom AN      X      Y      Z        X      Y      Z        X      Y      Z
   1   7     0.00  -0.00  -0.00     0.00  -0.01   0.00    -0.18   0.00  -0.01
   2   6    -0.00   0.00   0.01     0.01   0.06  -0.02    -0.11   0.01  -0.01
   3   6     0.00  -0.03  -0.07     0.00   0.14  -0.05     0.18  -0.11   0.04
   4   7     0.00  -0.01  -0.03     0.25   0.26  -0.09     0.07  -0.42   0.15
   5   6    -0.01   0.15   0.41     0.43  -0.32   0.13    -0.05   0.01  -0.01
   6   6     0.00  -0.00  -0.01    -0.41  -0.37   0.12    -0.11  -0.02   0.00
   7   7     0.00  -0.01  -0.03    -0.29   0.21  -0.08     0.06   0.50  -0.18
   8   1     0.03  -0.30  -0.84     0.12  -0.09   0.04     0.24   0.29  -0.09
   9   1     0.00  -0.02  -0.07    -0.16  -0.06   0.02     0.30  -0.36   0.14
  10   1     0.00  -0.01  -0.03     0.11   0.12  -0.04     0.01   0.13  -0.05
                     13                     14                     15
                        a                      a                      a 
 Frequencies --  1081.7766              1117.6719              1130.6791
 Red. masses --     2.7674                 6.6287                 4.3796
 Frc consts  --     0.0000                 0.0000                 0.0000
 IR Inten    --    27.8855                 0.2942                20.8694
 Raman Activ --     0.0000                 0.0000                 0.0000
 Depolar     --     0.0000                 0.0000                 0.0000
 Atom AN      X      Y      Z        X      Y      Z        X      Y      Z
   1   7    -0.02  -0.00   0.00    -0.12   0.00  -0.01    -0.07   0.01  -0.01
   2   6    -0.01   0.02  -0.01    -0.06  -0.00  -0.00    -0.04  -0.04   0.01
   3   6     0.04  -0.02   0.01     0.20  -0.04   0.02     0.17   0.33  -0.11
   4   7     0.13   0.18  -0.06     0.07  -0.32   0.12    -0.22  -0.08   0.02
   5   6     0.06  -0.02   0.01     0.00  -0.22   0.08     0.13  -0.18   0.07
   6   6     0.16   0.00   0.00     0.07   0.18  -0.06     0.12  -0.10   0.04
   7   7    -0.22   0.06  -0.03     0.04   0.39  -0.14     0.05  -0.03   0.01
   8   1    -0.25  -0.32   0.10    -0.30  -0.41   0.14     0.37   0.32  -0.10
   9   1     0.37  -0.35   0.14    -0.28   0.39  -0.15    -0.19   0.22  -0.08
  10   1    -0.61  -0.18   0.04    -0.10   0.06  -0.03    -0.56  -0.21   0.06
                     16                     17                     18
                        a                      a                      a 
 Frequencies --  1263.5787              1359.6199              1388.5993
 Red. masses --    12.4611                11.3575                11.8488
 Frc consts  --     0.0000                 0.0000                 0.0000
 IR Inten    --    17.4293                67.3158                 6.7867
 Raman Activ --     0.0000                 0.0000                 0.0000
 Depolar     --     0.0000                 0.0000                 0.0000
 Atom AN      X      Y      Z        X      Y      Z        X      Y      Z
   1   7    -0.11   0.01  -0.01     0.09  -0.02   0.01    -0.05   0.00  -0.00
   2   6    -0.04  -0.02   0.01     0.04   0.04  -0.01    -0.02  -0.02   0.01
   3   6     0.17   0.27  -0.09    -0.34  -0.53   0.18     0.16  -0.15   0.06
   4   7     0.54   0.04   0.00     0.10   0.34  -0.12    -0.37   0.03  -0.02
   5   6    -0.48  -0.10   0.02    -0.21  -0.16   0.05     0.37   0.25  -0.08
   6   6    -0.40   0.03  -0.02     0.04  -0.10   0.04    -0.51   0.02  -0.02
   7   7     0.32  -0.18   0.08     0.32   0.31  -0.10     0.50  -0.03   0.03
   8   1    -0.09   0.03  -0.01     0.11   0.15  -0.05    -0.11  -0.16   0.05
   9   1    -0.06  -0.06   0.02    -0.13   0.12  -0.05    -0.05  -0.11   0.04
  10   1    -0.09  -0.11   0.04    -0.23  -0.03   0.00    -0.14  -0.11   0.03
                     19                     20                     21
                        a                      a                      a 
 Frequencies --  1425.0249              1514.8774              2373.6826
 Red. masses --    11.2904                11.9826                12.7801
 Frc consts  --     0.0000                 0.0000                 0.0000
 IR Inten    --    54.2796                18.1569               252.9177
 Raman Activ --     0.0000                 0.0000                 0.0000
 Depolar     --     0.0000                 0.0000                 0.0000
 Atom AN      X      Y      Z        X      Y      Z        X      Y      Z
   1   7     0.12  -0.00   0.00     0.15  -0.00   0.01    -0.62   0.02  -0.03
   2   6     0.05  -0.01   0.01     0.04  -0.01   0.01     0.78  -0.02   0.03
   3   6    -0.45   0.13  -0.06    -0.61   0.27  -0.12    -0.10  -0.00  -0.00
   4   7    -0.03  -0.11   0.04     0.20  -0.36   0.13    -0.02   0.00  -0.00
   5   6     0.20  -0.45   0.17     0.11   0.34  -0.12     0.01   0.01  -0.00
   6   6    -0.14   0.56  -0.21     0.01  -0.31   0.11     0.01  -0.01   0.00
   7   7     0.14  -0.06   0.03     0.14   0.11  -0.04    -0.01  -0.00   0.00
   8   1     0.15  -0.04   0.02    -0.12  -0.06   0.02     0.00   0.00   0.00
   9   1     0.20  -0.09   0.04    -0.09   0.01  -0.01     0.00   0.00  -0.00
  10   1     0.01  -0.02   0.01    -0.14  -0.03   0.01     0.00   0.00  -0.00
                     22                     23                     24
                        a                      a                      a 
 Frequencies --  3176.3129              3188.6368              3460.8045
 Red. masses --     1.8169                 1.9659                 1.8836
 Frc consts  --     0.0000                 0.0000                 0.0000
 IR Inten    --     2.9097                13.8672                14.0202
 Raman Activ --     0.0000                 0.0000                 0.0000
 Depolar     --     0.0000                 0.0000                 0.0000
 Atom AN      X      Y      Z        X      Y      Z        X      Y      Z
   1   7    -0.00  -0.00   0.00     0.00  -0.00   0.00    -0.00  -0.00   0.00
   2   6     0.00   0.00  -0.00    -0.00   0.00  -0.00     0.00   0.00  -0.00
   3   6    -0.00  -0.00   0.00     0.00  -0.00   0.00    -0.01   0.00  -0.00
   4   7    -0.00   0.00  -0.00     0.00   0.01  -0.00     0.00  -0.00   0.00
   5   6    -0.14   0.11  -0.04    -0.16   0.13  -0.05     0.00  -0.00   0.00
   6   6     0.15   0.12  -0.04    -0.15  -0.13   0.04     0.01   0.01  -0.00
   7   7     0.00   0.00  -0.00     0.00  -0.00   0.00    -0.09   0.23  -0.08
   8   1     0.51  -0.40   0.16     0.53  -0.41   0.17    -0.00   0.00  -0.00
   9   1    -0.53  -0.43   0.14     0.50   0.41  -0.13    -0.01  -0.01   0.00
  10   1    -0.00   0.01  -0.00     0.00  -0.01   0.00     0.33  -0.85   0.32
