      -----------------------------------------------------------      
     |                   =====================                   |     
     |                           x T B                           |     
     |                   =====================                   |     
     |                         S. Grimme                         |     
     |          Mulliken Center for Theoretical Chemistry        |     
     |                    University of Bonn                     |     
      -----------------------------------------------------------      

   * xtb version 6.7.1 (edcfbbe) compiled by 'conda@5dfe00f5fb80' on 2026-06-10

   xtb is free software: you can redistribute it and/or modify it under
   the terms of the GNU Lesser General Public License as published by
   the Free Software Foundation, either version 3 of the License, or
   (at your option) any later version.
   
   xtb is distributed in the hope that it will be useful,
   but WITHOUT ANY WARRANTY; without even the implied warranty of
   MERCHANTABILITY or FITNESS FOR A PARTICULAR PURPOSE.  See the
   GNU Lesser General Public License for more details.
   
   Cite this work as:
   * C. Bannwarth, E. Caldeweyher, S. Ehlert, A. Hansen, P. Pracht,
     J. Seibert, S. Spicher, S. Grimme, WIREs Comput. Mol. Sci., 2020, 11,
     e01493. DOI: 10.1002/wcms.1493
   
   for GFN2-xTB:
   * C. Bannwarth, S. Ehlert and S. Grimme., J. Chem. Theory Comput., 2019,
     15, 1652-1671. DOI: 10.1021/acs.jctc.8b01176
   for GFN1-xTB:
   * S. Grimme, C. Bannwarth, P. Shushkov, J. Chem. Theory Comput., 2017,
     13, 1989-2009. DOI: 10.1021/acs.jctc.7b00118
   for GFN0-xTB:
   * P. Pracht, E. Caldeweyher, S. Ehlert, S. Grimme, ChemRxiv, 2019, preprint.
     DOI: 10.26434/chemrxiv.8326202.v1
   for GFN-FF:
   * S. Spicher and S. Grimme, Angew. Chem. Int. Ed., 2020, 59, 15665-15673.
     DOI: 10.1002/anie.202004239
   
   for ALPB and GBSA implicit solvation:
   * S. Ehlert, M. Stahn, S. Spicher, S. Grimme, J. Chem. Theory Comput.,
     2021, 17, 4250-4261. DOI: 10.1021/acs.jctc.1c00471
   
   for ddCOSMO and CPCM-X implicit solvation:
   * M. Stahn, S. Ehlert, S. Grimme, J. Phys. Chem. A,
     2023, XX, XXXX-XXXX. DOI: 10.1021/acs.jpca.3c04382
   
   for DFT-D4:
   * E. Caldeweyher, C. Bannwarth and S. Grimme, J. Chem. Phys., 2017,
     147, 034112. DOI: 10.1063/1.4993215
   * E. Caldeweyher, S. Ehlert, A. Hansen, H. Neugebauer, S. Spicher,
     C. Bannwarth and S. Grimme, J. Chem. Phys., 2019, 150, 154122.
     DOI: 10.1063/1.5090222
   * E. Caldeweyher, J.-M. Mewes, S. Ehlert and S. Grimme, Phys. Chem. Chem. Phys.
     2020, 22, 8499-8512. DOI: 10.1039/D0CP00502A
   
   for sTDA-xTB:
   * S. Grimme and C. Bannwarth, J. Chem. Phys., 2016, 145, 054103.
     DOI: 10.1063/1.4959605
   
   in the mass-spec context:
   * V. Asgeirsson, C. Bauer and S. Grimme, Chem. Sci., 2017, 8, 4879.
     DOI: 10.1039/c7sc00601b
   * J. Koopman and S. Grimme, ACS Omega 2019, 4, 12, 15120-15133.
     DOI: 10.1021/acsomega.9b02011
   
   for metadynamics refer to:
   * S. Grimme, J. Chem. Theory Comput., 2019, 155, 2847-2862
     DOI: 10.1021/acs.jctc.9b00143
   
   for SPH calculations refer to:
   * S. Spicher and S. Grimme, J. Chem. Theory Comput., 2021, 17, 1701-1714
     DOI: 10.1021/acs.jctc.0c01306
   
   for ONIOM refer to:
   * C. Plett, A. Katbashev, S. Ehlert, S. Grimme, M. Bursch,
     Phys. Chem. Chem. Phys., 2023, 25, 17860-17868. DOI: 10.1039/D3CP02178E
   
   for DIPRO refer to:
   * J. Kohn, N. Gildemeister, S. Grimme, D. Fazzi, A. Hansen,
     J. Chem. Phys., 2023, just accepted.
   
   for PTB refer to:
   * S. Grimme, M. Mueller, A. Hansen, J. Chem. Phys., 2023, 158, 124111.
     DOI: 10.1063/5.0137838
   
   with help from (in alphabetical order)
   P. Atkinson, C. Bannwarth, F. Bohle, G. Brandenburg, E. Caldeweyher
   M. Checinski, S. Dohm, S. Ehlert, S. Ehrlich, I. Gerasimov, C. Hölzer
   A. Katbashev, J. Kohn, J. Koopman, C. Lavigne, S. Lehtola, F. März, M. Müller,
   F. Musil, H. Neugebauer, J. Pisarek, C. Plett, P. Pracht, F. Pultar,
   J. Seibert, P. Shushkov, S. Spicher, M. Stahn, M. Steiner, T. Strunk,
   J. Stückrath, T. Rose, and J. Unsleber
   
 * started run on 2026/08/15 at 00:32:08.186     
   ID    Z sym.   atoms
    1    7 N      1, 4, 7
    2    6 C      2, 3, 5, 6
    3    1 H      8-10

           -------------------------------------------------
          |                Calculation Setup                |
           -------------------------------------------------

          program call               : /home/mangwon1/miniconda3/envs/spectra/bin/xtb mol.xyz --ohess --chrg 0
          coordinate file            : mol.xyz
          omp threads                :                    16


           -------------------------------------------------
          |                 G F N 2 - x T B                 |
           -------------------------------------------------

        Reference                      10.1021/acs.jctc.8b01176
      * Hamiltonian:
        H0-scaling (s, p, d)           1.850000    2.230000    2.230000
        zeta-weighting                 0.500000
      * Dispersion:
        s8                             2.700000
        a1                             0.520000
        a2                             5.000000
        s9                             5.000000
      * Repulsion:
        kExp                           1.500000    1.000000
        rExp                           1.000000
      * Coulomb:
        alpha                          2.000000
        third order                    shell-resolved
        anisotropic                    true
        a3                             3.000000
        a5                             4.000000
        cn-shift                       1.200000
        cn-exp                         4.000000
        max-rad                        5.000000


          ...................................................
          :                      SETUP                      :
          :.................................................:
          :  # basis functions                  31          :
          :  # atomic orbitals                  31          :
          :  # shells                           17          :
          :  # electrons                        34          :
          :  max. iterations                   250          :
          :  Hamiltonian                  GFN2-xTB          :
          :  restarted?                      false          :
          :  GBSA solvation                  false          :
          :  PC potential                    false          :
          :  electronic temp.          300.0000000     K    :
          :  accuracy                    1.0000000          :
          :  -> integral cutoff          0.2500000E+02      :
          :  -> integral neglect         0.1000000E-07      :
          :  -> SCF convergence          0.1000000E-05 Eh   :
          :  -> wf. convergence          0.1000000E-03 e    :
          :  Broyden damping             0.4000000          :
          :  net charge                          0          :
          :  unpaired electrons                  0          :
          ...................................................

 iter      E             dE          RMSdq      gap      omega  full diag
   1    -18.9840750 -0.189841E+02  0.651E+00    4.47       0.0  T
   2    -19.0507463 -0.666713E-01  0.480E+00    3.58       1.0  T
   3    -19.0980631 -0.473168E-01  0.276E+00    3.63       1.0  T
   4    -19.1025903 -0.452728E-02  0.122E+00    3.48       1.0  T
   5    -19.1124464 -0.985604E-02  0.205E-01    3.35       1.0  T
   6    -19.1125298 -0.834328E-04  0.138E-01    3.37       1.0  T
   7    -19.1125860 -0.561843E-04  0.376E-02    3.37       1.0  T
   8    -19.1125924 -0.642154E-05  0.133E-02    3.37       2.4  T
   9    -19.1125929 -0.523343E-06  0.626E-03    3.37       5.1  T
  10    -19.1125932 -0.224324E-06  0.196E-03    3.37      16.1  T
  11    -19.1125932 -0.810127E-08  0.804E-04    3.37      39.4  T
  12    -19.1125932 -0.778421E-09  0.380E-04    3.37      83.2  T

   *** convergence criteria satisfied after 12 iterations ***

         #    Occupation            Energy/Eh            Energy/eV
      -------------------------------------------------------------
         1        2.0000           -0.7142371             -19.4354
       ...           ...                  ...                  ...
        11        2.0000           -0.4990698             -13.5804
        12        2.0000           -0.4974489             -13.5363
        13        2.0000           -0.4844763             -13.1833
        14        2.0000           -0.4556505             -12.3989
        15        2.0000           -0.4418279             -12.0227
        16        2.0000           -0.4155284             -11.3071
        17        2.0000           -0.4030520             -10.9676 (HOMO)
        18                         -0.2790812              -7.5942 (LUMO)
        19                         -0.2380956              -6.4789
        20                         -0.2038218              -5.5463
        21                         -0.1459937              -3.9727
        22                         -0.0046369              -0.1262
       ...                                ...                  ...
        31                          1.0715629              29.1587
      -------------------------------------------------------------
                  HL-Gap            0.1239709 Eh            3.3734 eV
             Fermi-level           -0.3410666 Eh           -9.2809 eV

 SCC (total)                   0 d,  0 h,  0 min,  2.720 sec
 SCC setup                      ...        0 min,  0.016 sec (  0.583%)
 Dispersion                     ...        0 min,  0.053 sec (  1.952%)
 classical contributions        ...        0 min,  0.032 sec (  1.170%)
 integral evaluation            ...        0 min,  0.087 sec (  3.196%)
 iterations                     ...        0 min,  2.204 sec ( 81.034%)
 molecular gradient             ...        0 min,  0.328 sec ( 12.044%)
 printout                       ...        0 min,  0.000 sec (  0.018%)

         :::::::::::::::::::::::::::::::::::::::::::::::::::::
         ::                     SUMMARY                     ::
         :::::::::::::::::::::::::::::::::::::::::::::::::::::
         :: total energy             -18.812587598698 Eh    ::
         :: gradient norm              0.050156911246 Eh/a0 ::
         :: HOMO-LUMO gap              3.373419033455 eV    ::
         ::.................................................::
         :: SCC energy               -19.112592638355 Eh    ::
         :: -> isotropic ES            0.018223145933 Eh    ::
         :: -> anisotropic ES          0.005545376200 Eh    ::
         :: -> anisotropic XC          0.027836498179 Eh    ::
         :: -> dispersion             -0.006804061431 Eh    ::
         :: repulsion energy           0.300005039657 Eh    ::
         :: add. restraining           0.000000000000 Eh    ::
         :: total charge               0.000000000000 e     ::
         :::::::::::::::::::::::::::::::::::::::::::::::::::::

      ----------------------------------------------------------- 
     |                   =====================                   |
     |                        A N C O P T                        |
     |                   =====================                   |
     |               Approximate Normal Coordinate               |
     |                Rational Function Optimizer                |
      ----------------------------------------------------------- 
      ----------------------------------------------------------- 
     |                   =====================                   |
     |                        A N C O P T                        |
     |                   =====================                   |
     |               Approximate Normal Coordinate               |
     |                Rational Function Optimizer                |
      ----------------------------------------------------------- 

          ...................................................
          :                      SETUP                      :
          :.................................................:
          :   optimization level            normal          :
          :   max. optcycles                   200          :
          :   ANC micro-cycles                  20          :
          :   degrees of freedom                24          :
          :.................................................:
          :   RF solver                   davidson          :
          :   write xtbopt.log                true          :
          :   linear?                        false          :
          :   energy convergence         0.5000000E-05 Eh   :
          :   grad. convergence          0.1000000E-02 Eh/α :
          :   maxmium RF displ.          1.0000000          :
          :   Hlow (freq-cutoff)         0.1000000E-01      :
          :   Hmax (freq-cutoff)         5.0000000          :
          :   S6 in model hess.         20.0000000          :
          ...................................................

generating ANC from exact Hessian ...
Using Lindh-Hessian (1995)
 Shifting diagonal of input Hessian by    9.5648642296937460E-003
 Lowest  eigenvalues of input Hessian
    0.000000    0.000000    0.000000    0.000000    0.000000    0.000000
    0.010000    0.029616    0.035027    0.045062    0.086161    0.105508
    0.111386    0.137326    0.180119    0.184914    0.221559    0.237953
 Highest eigenvalues
    1.509578    1.770996    1.891541    1.997596    2.115788    2.583492


........................................................................
.............................. CYCLE    1 ..............................
........................................................................

 iter      E             dE          RMSdq      gap      omega  full diag
   1    -19.1125932 -0.191126E+02  0.543E-05    3.37       0.0  T
   2    -19.1125932 -0.142464E-11  0.307E-05    3.37    1031.5  T
   3    -19.1125932  0.625278E-12  0.116E-05    3.37    2736.6  T
     SCC iter.                  ...        0 min,  0.496 sec
     gradient                   ...        0 min,  0.301 sec
 * total energy  :   -18.8125876 Eh     change       -0.7381331E-09 Eh
   gradient norm :     0.0501575 Eh/α   predicted     0.0000000E+00 (-100.00%)
   displ. norm   :     0.1161979 α      lambda       -0.3500789E-02
   maximum displ.:     0.0943583 α      in ANC's #10, #7, #8, ...

........................................................................
.............................. CYCLE    2 ..............................
........................................................................

 iter      E             dE          RMSdq      gap      omega  full diag
   1    -19.1384398 -0.191384E+02  0.235E-01    3.44       0.0  T
   2    -19.1384520 -0.122708E-04  0.149E-01    3.45       1.0  T
   3    -19.1384167  0.353505E-04  0.961E-02    3.45       1.0  T
   4    -19.1384726 -0.559751E-04  0.180E-02    3.45       1.8  T
   5    -19.1384749 -0.228900E-05  0.479E-03    3.45       6.6  T
   6    -19.1384750 -0.449437E-07  0.248E-03    3.45      12.7  T
   7    -19.1384750 -0.136954E-07  0.457E-04    3.45      69.3  T
   8    -19.1384750 -0.692587E-09  0.186E-04    3.45     169.6  T
     SCC iter.                  ...        0 min,  1.692 sec
     gradient                   ...        0 min,  0.364 sec
 * total energy  :   -18.8145071 Eh     change       -0.1919467E-02 Eh
   gradient norm :     0.0179332 Eh/α   predicted    -0.1774028E-02 (  -7.58%)
   displ. norm   :     0.0292791 α      lambda       -0.2695207E-03
   maximum displ.:     0.0199018 α      in ANC's #10, #14, #7, ...

........................................................................
.............................. CYCLE    3 ..............................
........................................................................

 iter      E             dE          RMSdq      gap      omega  full diag
   1    -19.1403017 -0.191403E+02  0.588E-02    3.42       0.0  T
   2    -19.1403080 -0.639454E-05  0.371E-02    3.44       1.0  T
   3    -19.1403080  0.160607E-07  0.179E-02    3.44       1.8  T
   4    -19.1403085 -0.475777E-06  0.687E-03    3.44       4.6  T
   5    -19.1403087 -0.230995E-06  0.239E-03    3.44      13.2  T
   6    -19.1403088 -0.526405E-07  0.793E-04    3.44      39.9  T
   7    -19.1403088 -0.788464E-09  0.152E-04    3.44     207.8  T
     SCC iter.                  ...        0 min,  1.399 sec
     gradient                   ...        0 min,  0.276 sec
 * total energy  :   -18.8146539 Eh     change       -0.1468344E-03 Eh
   gradient norm :     0.0043461 Eh/α   predicted    -0.1348766E-03 (  -8.14%)
   displ. norm   :     0.0055995 α      lambda       -0.1908713E-04
   maximum displ.:     0.0038595 α      in ANC's #16, #15, #4, ...

........................................................................
.............................. CYCLE    4 ..............................
........................................................................

 iter      E             dE          RMSdq      gap      omega  full diag
   1    -19.1401353 -0.191401E+02  0.171E-02    3.43       0.0  T
   2    -19.1401356 -0.279700E-06  0.943E-03    3.43       3.4  T
   3    -19.1401355  0.630178E-07  0.574E-03    3.43       5.5  T
   4    -19.1401357 -0.150675E-06  0.181E-03    3.43      17.4  T
   5    -19.1401357 -0.275719E-07  0.549E-04    3.43      57.6  T
   6    -19.1401357 -0.166032E-08  0.166E-04    3.43     191.0  T
     SCC iter.                  ...        0 min,  1.028 sec
     gradient                   ...        0 min,  0.248 sec
 * total energy  :   -18.8146683 Eh     change       -0.1444499E-04 Eh
   gradient norm :     0.0023208 Eh/α   predicted    -0.9544840E-05 ( -33.92%)
   displ. norm   :     0.0085245 α      lambda       -0.1528401E-04
   maximum displ.:     0.0053287 α      in ANC's #16, #4, #15, ...

........................................................................
.............................. CYCLE    5 ..............................
........................................................................

 iter      E             dE          RMSdq      gap      omega  full diag
   1    -19.1398512 -0.191399E+02  0.257E-02    3.43       0.0  T
   2    -19.1398514 -0.233409E-06  0.146E-02    3.43       2.2  T
   3    -19.1398510  0.477299E-06  0.945E-03    3.43       3.3  T
   4    -19.1398516 -0.681998E-06  0.203E-03    3.43      15.5  T
   5    -19.1398517 -0.295810E-07  0.480E-04    3.43      65.9  T
   6    -19.1398517 -0.622972E-09  0.228E-04    3.43     138.5  T
     SCC iter.                  ...        0 min,  1.256 sec
     gradient                   ...        0 min,  0.345 sec
 * total energy  :   -18.8146770 Eh     change       -0.8699689E-05 Eh
   gradient norm :     0.0011177 Eh/α   predicted    -0.7643172E-05 ( -12.14%)
   displ. norm   :     0.0053533 α      lambda       -0.1702503E-05
   maximum displ.:     0.0038003 α      in ANC's #4, #15, #16, ...

........................................................................
.............................. CYCLE    6 ..............................
........................................................................

 iter      E             dE          RMSdq      gap      omega  full diag
   1    -19.1398360 -0.191398E+02  0.147E-02    3.43       0.0  T
   2    -19.1398360 -0.373979E-07  0.838E-03    3.43       3.8  T
   3    -19.1398358  0.171236E-06  0.502E-03    3.43       6.3  T
   4    -19.1398360 -0.212036E-06  0.498E-04    3.43      63.5  T
   5    -19.1398360 -0.135060E-08  0.178E-04    3.43     177.2  T
     SCC iter.                  ...        0 min,  1.154 sec
     gradient                   ...        0 min,  0.350 sec
 * total energy  :   -18.8146787 Eh     change       -0.1695669E-05 Eh
   gradient norm :     0.0007421 Eh/α   predicted    -0.8508810E-06 ( -49.82%)
   displ. norm   :     0.0068028 α      lambda       -0.1219621E-05
   maximum displ.:     0.0058981 α      in ANC's #4, #13, #15, ...

   *** GEOMETRY OPTIMIZATION CONVERGED AFTER 6 ITERATIONS ***

------------------------------------------------------------------------
 total energy gain   :        -0.0020911 Eh       -1.3122 kcal/mol
 total RMSD          :         0.0447367 a0        0.0237 Å
 total power (kW/mol):        -0.9150491 (step)   -0.5239 (real)
------------------------------------------------------------------------

 ANCopt (total)                0 d,  0 h,  0 min, 10.479 sec
 optimizer setup                ...        0 min,  0.000 sec (  0.001%)
 model hessian                  ...        0 min,  0.000 sec (  0.004%)
 ANC generation                 ...        0 min,  0.131 sec (  1.247%)
 coordinate transformation      ...        0 min,  0.000 sec (  0.001%)
 single point calculation       ...        0 min, 10.220 sec ( 97.525%)
 optimization log               ...        0 min,  0.002 sec (  0.015%)
 hessian update                 ...        0 min,  0.121 sec (  1.158%)
 rational function              ...        0 min,  0.001 sec (  0.011%)

================
 final structure:
================
10
 xtb: 6.7.1 (edcfbbe)
N            3.32578433266896        0.19376785956765        0.03991060584541
C            2.18115337415735        0.23737729734457       -0.01330253109568
C            0.77800623302127        0.24597344953644       -0.06261521951106
N            0.01542237480663        1.24689246372543       -0.44658580274338
C           -1.25363269298813        0.81206659236671       -0.33241440908344
C           -1.27562990898739       -0.48031430704553        0.13024931148689
N            0.02336203645869       -0.83594468928764        0.30047904537274
H           -2.07554122532044        1.44949859808134       -0.58798452743814
H           -2.08688414324388       -1.14572432278078        0.34216707592543
H            0.36795962942694       -1.72359294150819        0.63009644124123

 Bond Distances (Angstroems)
 ---------------------------
N1-C2=1.1467         C2-N1=1.1467         C2-C3=1.4040         C3-C2=1.4040         C3-N4=1.3156         C3-N7=1.3682         
N4-C3=1.3156         N4-C5=1.3463         C5-N4=1.3463         C5-C6=1.3729         C5-H8=1.0711         C6-C5=1.3729         
C6-N7=1.3575         C6-H9=1.0704         N7-C3=1.3682         N7-C6=1.3575         N7-H10=1.0076        H8-C5=1.0711         
H9-C6=1.0704         H10-N7=1.0076        
 C  H  Rav=1.0707 sigma=0.0003  Rmin=1.0704  Rmax=1.0711     2
 C  C  Rav=1.3885 sigma=0.0156  Rmin=1.3729  Rmax=1.4040     2
 N  H  Rav=1.0076 sigma=0.0000  Rmin=1.0076  Rmax=1.0076     1
 N  C  Rav=1.3069 sigma=0.0820  Rmin=1.1467  Rmax=1.3682     5

 selected bond angles (degree)
 --------------------
C3-C2-N1=178.06                N4-C3-C2=126.45                N7-C3-C2=122.48                N7-C3-N4=111.06                
C5-N4-C3=106.02                C6-C5-N4=110.35                H8-C5-N4=120.72                H8-C5-C6=128.93                
N7-C6-C5=105.88                H9-C6-C5=131.61                H9-C6-N7=122.52                C6-N7-C3=106.70                
H10-N7-C3=126.50               H10-N7-C6=126.80               

 selected dihedral angles (degree)
 ---------------------------------
N4-C3-C2-N1=180.19            N7-C3-C2-N1=  0.19            C5-N4-C3-C2=180.00            C5-N4-C3-N7=  0.00            
C6-C5-N4-C3=  0.00            H8-C5-N4-C3=180.00            N7-C6-C5-N4=  0.00            N7-C6-C5-H8=180.00            
H9-C6-C5-N4=180.00            H9-C6-C5-H8=  0.00            C6-N7-C3-C2=180.00            C6-N7-C3-N4=  0.00            
H10-N7-C3-C2=  0.00           H10-N7-C3-N4=180.00           C3-N7-C6-C5=  0.00            C3-N7-C6-H9=180.00            
H10-N7-C6-C5=180.00           H10-N7-C6-H9=  0.00           
           -------------------------------------------------
          |                Final Singlepoint                |
           -------------------------------------------------

          ...................................................
          :                      SETUP                      :
          :.................................................:
          :  # basis functions                  31          :
          :  # atomic orbitals                  31          :
          :  # shells                           17          :
          :  # electrons                        34          :
          :  max. iterations                   250          :
          :  Hamiltonian                  GFN2-xTB          :
          :  restarted?                      false          :
          :  GBSA solvation                  false          :
          :  PC potential                    false          :
          :  electronic temp.          300.0000000     K    :
          :  accuracy                    1.0000000          :
          :  -> integral cutoff          0.2500000E+02      :
          :  -> integral neglect         0.1000000E-07      :
          :  -> SCF convergence          0.1000000E-05 Eh   :
          :  -> wf. convergence          0.1000000E-03 e    :
          :  Broyden damping             0.4000000          :
          :  net charge                          0          :
          :  unpaired electrons                  0          :
          ...................................................

 iter      E             dE          RMSdq      gap      omega  full diag
   1    -19.1398360 -0.191398E+02  0.697E-05    3.43       0.0  T
   2    -19.1398360 -0.114255E-10  0.423E-05    3.43     748.4  T
   3    -19.1398360 -0.936851E-11  0.230E-05    3.43    1373.2  T

   *** convergence criteria satisfied after 3 iterations ***

         #    Occupation            Energy/Eh            Energy/eV
      -------------------------------------------------------------
         1        2.0000           -0.7170392             -19.5116
       ...           ...                  ...                  ...
        11        2.0000           -0.5009727             -13.6322
        12        2.0000           -0.4993375             -13.5877
OpenBLAS Warning : Detect OpenMP Loop and this application may hang. Please rebuild the library with USE_OPENMP=1 option.
OpenBLAS Warning : Detect OpenMP Loop and this application may hang. Please rebuild the library with USE_OPENMP=1 option.
OpenBLAS Warning : Detect OpenMP Loop and this application may hang. Please rebuild the library with USE_OPENMP=1 option.
OpenBLAS Warning : Detect OpenMP Loop and this application may hang. Please rebuild the library with USE_OPENMP=1 option.
OpenBLAS Warning : Detect OpenMP Loop and this application may hang. Please rebuild the library with USE_OPENMP=1 option.
OpenBLAS Warning : Detect OpenMP Loop and this application may hang. Please rebuild the library with USE_OPENMP=1 option.
OpenBLAS Warning : Detect OpenMP Loop and this application may hang. Please rebuild the library with USE_OPENMP=1 option.
OpenBLAS Warning : Detect OpenMP Loop and this application may hang. Please rebuild the library with USE_OPENMP=1 option.
OpenBLAS Warning : Detect OpenMP Loop and this application may hang. Please rebuild the library with USE_OPENMP=1 option.
OpenBLAS Warning : Detect OpenMP Loop and this application may hang. Please rebuild the library with USE_OPENMP=1 option.
OpenBLAS Warning : Detect OpenMP Loop and this application may hang. Please rebuild the library with USE_OPENMP=1 option.
OpenBLAS Warning : Detect OpenMP Loop and this application may hang. Please rebuild the library with USE_OPENMP=1 option.
OpenBLAS Warning : Detect OpenMP Loop and this application may hang. Please rebuild the library with USE_OPENMP=1 option.
OpenBLAS Warning : Detect OpenMP Loop and this application may hang. Please rebuild the library with USE_OPENMP=1 option.
OpenBLAS Warning : Detect OpenMP Loop and this application may hang. Please rebuild the library with USE_OPENMP=1 option.
OpenBLAS Warning : Detect OpenMP Loop and this application may hang. Please rebuild the library with USE_OPENMP=1 option.
OpenBLAS Warning : Detect OpenMP Loop and this application may hang. Please rebuild the library with USE_OPENMP=1 option.
OpenBLAS Warning : Detect OpenMP Loop and this application may hang. Please rebuild the library with USE_OPENMP=1 option.
OpenBLAS Warning : Detect OpenMP Loop and this application may hang. Please rebuild the library with USE_OPENMP=1 option.
OpenBLAS Warning : Detect OpenMP Loop and this application may hang. Please rebuild the library with USE_OPENMP=1 option.
OpenBLAS Warning : Detect OpenMP Loop and this application may hang. Please rebuild the library with USE_OPENMP=1 option.
OpenBLAS Warning : Detect OpenMP Loop and this application may hang. Please rebuild the library with USE_OPENMP=1 option.
OpenBLAS Warning : Detect OpenMP Loop and this application may hang. Please rebuild the library with USE_OPENMP=1 option.
OpenBLAS Warning : Detect OpenMP Loop and this application may hang. Please rebuild the library with USE_OPENMP=1 option.
OpenBLAS Warning : Detect OpenMP Loop and this application may hang. Please rebuild the library with USE_OPENMP=1 option.
OpenBLAS Warning : Detect OpenMP Loop and this application may hang. Please rebuild the library with USE_OPENMP=1 option.
OpenBLAS Warning : Detect OpenMP Loop and this application may hang. Please rebuild the library with USE_OPENMP=1 option.
OpenBLAS Warning : Detect OpenMP Loop and this application may hang. Please rebuild the library with USE_OPENMP=1 option.
OpenBLAS Warning : Detect OpenMP Loop and this application may hang. Please rebuild the library with USE_OPENMP=1 option.
OpenBLAS Warning : Detect OpenMP Loop and this application may hang. Please rebuild the library with USE_OPENMP=1 option.
OpenBLAS Warning : Detect OpenMP Loop and this application may hang. Please rebuild the library with USE_OPENMP=1 option.
OpenBLAS Warning : Detect OpenMP Loop and this application may hang. Please rebuild the library with USE_OPENMP=1 option.
OpenBLAS Warning : Detect OpenMP Loop and this application may hang. Please rebuild the library with USE_OPENMP=1 option.
OpenBLAS Warning : Detect OpenMP Loop and this application may hang. Please rebuild the library with USE_OPENMP=1 option.
OpenBLAS Warning : Detect OpenMP Loop and this application may hang. Please rebuild the library with USE_OPENMP=1 option.
OpenBLAS Warning : Detect OpenMP Loop and this application may hang. Please rebuild the library with USE_OPENMP=1 option.
OpenBLAS Warning : Detect OpenMP Loop and this application may hang. Please rebuild the library with USE_OPENMP=1 option.
OpenBLAS Warning : Detect OpenMP Loop and this application may hang. Please rebuild the library with USE_OPENMP=1 option.
OpenBLAS Warning : Detect OpenMP Loop and this application may hang. Please rebuild the library with USE_OPENMP=1 option.
OpenBLAS Warning : Detect OpenMP Loop and this application may hang. Please rebuild the library with USE_OPENMP=1 option.
OpenBLAS Warning : Detect OpenMP Loop and this application may hang. Please rebuild the library with USE_OPENMP=1 option.
OpenBLAS Warning : Detect OpenMP Loop and this application may hang. Please rebuild the library with USE_OPENMP=1 option.
OpenBLAS Warning : Detect OpenMP Loop and this application may hang. Please rebuild the library with USE_OPENMP=1 option.
OpenBLAS Warning : Detect OpenMP Loop and this application may hang. Please rebuild the library with USE_OPENMP=1 option.
OpenBLAS Warning : Detect OpenMP Loop and this application may hang. Please rebuild the library with USE_OPENMP=1 option.
OpenBLAS Warning : Detect OpenMP Loop and this application may hang. Please rebuild the library with USE_OPENMP=1 option.
OpenBLAS Warning : Detect OpenMP Loop and this application may hang. Please rebuild the library with USE_OPENMP=1 option.
OpenBLAS Warning : Detect OpenMP Loop and this application may hang. Please rebuild the library with USE_OPENMP=1 option.
OpenBLAS Warning : Detect OpenMP Loop and this application may hang. Please rebuild the library with USE_OPENMP=1 option.
OpenBLAS Warning : Detect OpenMP Loop and this application may hang. Please rebuild the library with USE_OPENMP=1 option.
OpenBLAS Warning : Detect OpenMP Loop and this application may hang. Please rebuild the library with USE_OPENMP=1 option.
OpenBLAS Warning : Detect OpenMP Loop and this application may hang. Please rebuild the library with USE_OPENMP=1 option.
OpenBLAS Warning : Detect OpenMP Loop and this application may hang. Please rebuild the library with USE_OPENMP=1 option.
OpenBLAS Warning : Detect OpenMP Loop and this application may hang. Please rebuild the library with USE_OPENMP=1 option.
OpenBLAS Warning : Detect OpenMP Loop and this application may hang. Please rebuild the library with USE_OPENMP=1 option.
OpenBLAS Warning : Detect OpenMP Loop and this application may hang. Please rebuild the library with USE_OPENMP=1 option.
OpenBLAS Warning : Detect OpenMP Loop and this application may hang. Please rebuild the library with USE_OPENMP=1 option.
OpenBLAS Warning : Detect OpenMP Loop and this application may hang. Please rebuild the library with USE_OPENMP=1 option.
OpenBLAS Warning : Detect OpenMP Loop and this application may hang. Please rebuild the library with USE_OPENMP=1 option.
OpenBLAS Warning : Detect OpenMP Loop and this application may hang. Please rebuild the library with USE_OPENMP=1 option.
OpenBLAS Warning : Detect OpenMP Loop and this application may hang. Please rebuild the library with USE_OPENMP=1 option.
OpenBLAS Warning : Detect OpenMP Loop and this application may hang. Please rebuild the library with USE_OPENMP=1 option.
OpenBLAS Warning : Detect OpenMP Loop and this application may hang. Please rebuild the library with USE_OPENMP=1 option.
OpenBLAS Warning : Detect OpenMP Loop and this application may hang. Please rebuild the library with USE_OPENMP=1 option.
OpenBLAS Warning : Detect OpenMP Loop and this application may hang. Please rebuild the library with USE_OPENMP=1 option.
OpenBLAS Warning : Detect OpenMP Loop and this application may hang. Please rebuild the library with USE_OPENMP=1 option.
OpenBLAS Warning : Detect OpenMP Loop and this application may hang. Please rebuild the library with USE_OPENMP=1 option.
OpenBLAS Warning : Detect OpenMP Loop and this application may hang. Please rebuild the library with USE_OPENMP=1 option.
OpenBLAS Warning : Detect OpenMP Loop and this application may hang. Please rebuild the library with USE_OPENMP=1 option.
OpenBLAS Warning : Detect OpenMP Loop and this application may hang. Please rebuild the library with USE_OPENMP=1 option.
OpenBLAS Warning : Detect OpenMP Loop and this application may hang. Please rebuild the library with USE_OPENMP=1 option.
OpenBLAS Warning : Detect OpenMP Loop and this application may hang. Please rebuild the library with USE_OPENMP=1 option.
OpenBLAS Warning : Detect OpenMP Loop and this application may hang. Please rebuild the library with USE_OPENMP=1 option.
OpenBLAS Warning : Detect OpenMP Loop and this application may hang. Please rebuild the library with USE_OPENMP=1 option.
OpenBLAS Warning : Detect OpenMP Loop and this application may hang. Please rebuild the library with USE_OPENMP=1 option.
OpenBLAS Warning : Detect OpenMP Loop and this application may hang. Please rebuild the library with USE_OPENMP=1 option.
OpenBLAS Warning : Detect OpenMP Loop and this application may hang. Please rebuild the library with USE_OPENMP=1 option.
OpenBLAS Warning : Detect OpenMP Loop and this application may hang. Please rebuild the library with USE_OPENMP=1 option.
OpenBLAS Warning : Detect OpenMP Loop and this application may hang. Please rebuild the library with USE_OPENMP=1 option.
OpenBLAS Warning : Detect OpenMP Loop and this application may hang. Please rebuild the library with USE_OPENMP=1 option.
OpenBLAS Warning : Detect OpenMP Loop and this application may hang. Please rebuild the library with USE_OPENMP=1 option.
OpenBLAS Warning : Detect OpenMP Loop and this application may hang. Please rebuild the library with USE_OPENMP=1 option.
OpenBLAS Warning : Detect OpenMP Loop and this application may hang. Please rebuild the library with USE_OPENMP=1 option.
OpenBLAS Warning : Detect OpenMP Loop and this application may hang. Please rebuild the library with USE_OPENMP=1 option.
OpenBLAS Warning : Detect OpenMP Loop and this application may hang. Please rebuild the library with USE_OPENMP=1 option.
OpenBLAS Warning : Detect OpenMP Loop and this application may hang. Please rebuild the library with USE_OPENMP=1 option.
OpenBLAS Warning : Detect OpenMP Loop and this application may hang. Please rebuild the library with USE_OPENMP=1 option.
OpenBLAS Warning : Detect OpenMP Loop and this application may hang. Please rebuild the library with USE_OPENMP=1 option.
OpenBLAS Warning : Detect OpenMP Loop and this application may hang. Please rebuild the library with USE_OPENMP=1 option.
OpenBLAS Warning : Detect OpenMP Loop and this application may hang. Please rebuild the library with USE_OPENMP=1 option.
OpenBLAS Warning : Detect OpenMP Loop and this application may hang. Please rebuild the library with USE_OPENMP=1 option.
OpenBLAS Warning : Detect OpenMP Loop and this application may hang. Please rebuild the library with USE_OPENMP=1 option.
OpenBLAS Warning : Detect OpenMP Loop and this application may hang. Please rebuild the library with USE_OPENMP=1 option.
OpenBLAS Warning : Detect OpenMP Loop and this application may hang. Please rebuild the library with USE_OPENMP=1 option.
OpenBLAS Warning : Detect OpenMP Loop and this application may hang. Please rebuild the library with USE_OPENMP=1 option.
OpenBLAS Warning : Detect OpenMP Loop and this application may hang. Please rebuild the library with USE_OPENMP=1 option.
OpenBLAS Warning : Detect OpenMP Loop and this application may hang. Please rebuild the library with USE_OPENMP=1 option.
OpenBLAS Warning : Detect OpenMP Loop and this application may hang. Please rebuild the library with USE_OPENMP=1 option.
OpenBLAS Warning : Detect OpenMP Loop and this application may hang. Please rebuild the library with USE_OPENMP=1 option.
OpenBLAS Warning : Detect OpenMP Loop and this application may hang. Please rebuild the library with USE_OPENMP=1 option.
OpenBLAS Warning : Detect OpenMP Loop and this application may hang. Please rebuild the library with USE_OPENMP=1 option.
OpenBLAS Warning : Detect OpenMP Loop and this application may hang. Please rebuild the library with USE_OPENMP=1 option.
OpenBLAS Warning : Detect OpenMP Loop and this application may hang. Please rebuild the library with USE_OPENMP=1 option.
OpenBLAS Warning : Detect OpenMP Loop and this application may hang. Please rebuild the library with USE_OPENMP=1 option.
OpenBLAS Warning : Detect OpenMP Loop and this application may hang. Please rebuild the library with USE_OPENMP=1 option.
OpenBLAS Warning : Detect OpenMP Loop and this application may hang. Please rebuild the library with USE_OPENMP=1 option.
OpenBLAS Warning : Detect OpenMP Loop and this application may hang. Please rebuild the library with USE_OPENMP=1 option.
OpenBLAS Warning : Detect OpenMP Loop and this application may hang. Please rebuild the library with USE_OPENMP=1 option.
OpenBLAS Warning : Detect OpenMP Loop and this application may hang. Please rebuild the library with USE_OPENMP=1 option.
OpenBLAS Warning : Detect OpenMP Loop and this application may hang. Please rebuild the library with USE_OPENMP=1 option.
OpenBLAS Warning : Detect OpenMP Loop and this application may hang. Please rebuild the library with USE_OPENMP=1 option.
OpenBLAS Warning : Detect OpenMP Loop and this application may hang. Please rebuild the library with USE_OPENMP=1 option.
OpenBLAS Warning : Detect OpenMP Loop and this application may hang. Please rebuild the library with USE_OPENMP=1 option.
OpenBLAS Warning : Detect OpenMP Loop and this application may hang. Please rebuild the library with USE_OPENMP=1 option.
OpenBLAS Warning : Detect OpenMP Loop and this application may hang. Please rebuild the library with USE_OPENMP=1 option.
OpenBLAS Warning : Detect OpenMP Loop and this application may hang. Please rebuild the library with USE_OPENMP=1 option.
OpenBLAS Warning : Detect OpenMP Loop and this application may hang. Please rebuild the library with USE_OPENMP=1 option.
OpenBLAS Warning : Detect OpenMP Loop and this application may hang. Please rebuild the library with USE_OPENMP=1 option.
OpenBLAS Warning : Detect OpenMP Loop and this application may hang. Please rebuild the library with USE_OPENMP=1 option.
OpenBLAS Warning : Detect OpenMP Loop and this application may hang. Please rebuild the library with USE_OPENMP=1 option.
OpenBLAS Warning : Detect OpenMP Loop and this application may hang. Please rebuild the library with USE_OPENMP=1 option.
OpenBLAS Warning : Detect OpenMP Loop and this application may hang. Please rebuild the library with USE_OPENMP=1 option.
OpenBLAS Warning : Detect OpenMP Loop and this application may hang. Please rebuild the library with USE_OPENMP=1 option.
OpenBLAS Warning : Detect OpenMP Loop and this application may hang. Please rebuild the library with USE_OPENMP=1 option.
OpenBLAS Warning : Detect OpenMP Loop and this application may hang. Please rebuild the library with USE_OPENMP=1 option.
OpenBLAS Warning : Detect OpenMP Loop and this application may hang. Please rebuild the library with USE_OPENMP=1 option.
OpenBLAS Warning : Detect OpenMP Loop and this application may hang. Please rebuild the library with USE_OPENMP=1 option.
OpenBLAS Warning : Detect OpenMP Loop and this application may hang. Please rebuild the library with USE_OPENMP=1 option.
OpenBLAS Warning : Detect OpenMP Loop and this application may hang. Please rebuild the library with USE_OPENMP=1 option.
OpenBLAS Warning : Detect OpenMP Loop and this application may hang. Please rebuild the library with USE_OPENMP=1 option.
OpenBLAS Warning : Detect OpenMP Loop and this application may hang. Please rebuild the library with USE_OPENMP=1 option.
OpenBLAS Warning : Detect OpenMP Loop and this application may hang. Please rebuild the library with USE_OPENMP=1 option.
OpenBLAS Warning : Detect OpenMP Loop and this application may hang. Please rebuild the library with USE_OPENMP=1 option.
OpenBLAS Warning : Detect OpenMP Loop and this application may hang. Please rebuild the library with USE_OPENMP=1 option.
OpenBLAS Warning : Detect OpenMP Loop and this application may hang. Please rebuild the library with USE_OPENMP=1 option.
OpenBLAS Warning : Detect OpenMP Loop and this application may hang. Please rebuild the library with USE_OPENMP=1 option.
OpenBLAS Warning : Detect OpenMP Loop and this application may hang. Please rebuild the library with USE_OPENMP=1 option.
OpenBLAS Warning : Detect OpenMP Loop and this application may hang. Please rebuild the library with USE_OPENMP=1 option.
OpenBLAS Warning : Detect OpenMP Loop and this application may hang. Please rebuild the library with USE_OPENMP=1 option.
OpenBLAS Warning : Detect OpenMP Loop and this application may hang. Please rebuild the library with USE_OPENMP=1 option.
OpenBLAS Warning : Detect OpenMP Loop and this application may hang. Please rebuild the library with USE_OPENMP=1 option.
OpenBLAS Warning : Detect OpenMP Loop and this application may hang. Please rebuild the library with USE_OPENMP=1 option.
OpenBLAS Warning : Detect OpenMP Loop and this application may hang. Please rebuild the library with USE_OPENMP=1 option.
OpenBLAS Warning : Detect OpenMP Loop and this application may hang. Please rebuild the library with USE_OPENMP=1 option.
OpenBLAS Warning : Detect OpenMP Loop and this application may hang. Please rebuild the library with USE_OPENMP=1 option.
OpenBLAS Warning : Detect OpenMP Loop and this application may hang. Please rebuild the library with USE_OPENMP=1 option.
OpenBLAS Warning : Detect OpenMP Loop and this application may hang. Please rebuild the library with USE_OPENMP=1 option.
OpenBLAS Warning : Detect OpenMP Loop and this application may hang. Please rebuild the library with USE_OPENMP=1 option.
OpenBLAS Warning : Detect OpenMP Loop and this application may hang. Please rebuild the library with USE_OPENMP=1 option.
OpenBLAS Warning : Detect OpenMP Loop and this application may hang. Please rebuild the library with USE_OPENMP=1 option.
OpenBLAS Warning : Detect OpenMP Loop and this application may hang. Please rebuild the library with USE_OPENMP=1 option.
OpenBLAS Warning : Detect OpenMP Loop and this application may hang. Please rebuild the library with USE_OPENMP=1 option.
OpenBLAS Warning : Detect OpenMP Loop and this application may hang. Please rebuild the library with USE_OPENMP=1 option.
OpenBLAS Warning : Detect OpenMP Loop and this application may hang. Please rebuild the library with USE_OPENMP=1 option.
OpenBLAS Warning : Detect OpenMP Loop and this application may hang. Please rebuild the library with USE_OPENMP=1 option.
OpenBLAS Warning : Detect OpenMP Loop and this application may hang. Please rebuild the library with USE_OPENMP=1 option.
OpenBLAS Warning : Detect OpenMP Loop and this application may hang. Please rebuild the library with USE_OPENMP=1 option.
OpenBLAS Warning : Detect OpenMP Loop and this application may hang. Please rebuild the library with USE_OPENMP=1 option.
OpenBLAS Warning : Detect OpenMP Loop and this application may hang. Please rebuild the library with USE_OPENMP=1 option.
OpenBLAS Warning : Detect OpenMP Loop and this application may hang. Please rebuild the library with USE_OPENMP=1 option.
OpenBLAS Warning : Detect OpenMP Loop and this application may hang. Please rebuild the library with USE_OPENMP=1 option.
OpenBLAS Warning : Detect OpenMP Loop and this application may hang. Please rebuild the library with USE_OPENMP=1 option.
OpenBLAS Warning : Detect OpenMP Loop and this application may hang. Please rebuild the library with USE_OPENMP=1 option.
OpenBLAS Warning : Detect OpenMP Loop and this application may hang. Please rebuild the library with USE_OPENMP=1 option.
OpenBLAS Warning : Detect OpenMP Loop and this application may hang. Please rebuild the library with USE_OPENMP=1 option.
OpenBLAS Warning : Detect OpenMP Loop and this application may hang. Please rebuild the library with USE_OPENMP=1 option.
OpenBLAS Warning : Detect OpenMP Loop and this application may hang. Please rebuild the library with USE_OPENMP=1 option.
OpenBLAS Warning : Detect OpenMP Loop and this application may hang. Please rebuild the library with USE_OPENMP=1 option.
OpenBLAS Warning : Detect OpenMP Loop and this application may hang. Please rebuild the library with USE_OPENMP=1 option.
OpenBLAS Warning : Detect OpenMP Loop and this application may hang. Please rebuild the library with USE_OPENMP=1 option.
OpenBLAS Warning : Detect OpenMP Loop and this application may hang. Please rebuild the library with USE_OPENMP=1 option.
OpenBLAS Warning : Detect OpenMP Loop and this application may hang. Please rebuild the library with USE_OPENMP=1 option.
OpenBLAS Warning : Detect OpenMP Loop and this application may hang. Please rebuild the library with USE_OPENMP=1 option.
OpenBLAS Warning : Detect OpenMP Loop and this application may hang. Please rebuild the library with USE_OPENMP=1 option.
OpenBLAS Warning : Detect OpenMP Loop and this application may hang. Please rebuild the library with USE_OPENMP=1 option.
OpenBLAS Warning : Detect OpenMP Loop and this application may hang. Please rebuild the library with USE_OPENMP=1 option.
OpenBLAS Warning : Detect OpenMP Loop and this application may hang. Please rebuild the library with USE_OPENMP=1 option.
OpenBLAS Warning : Detect OpenMP Loop and this application may hang. Please rebuild the library with USE_OPENMP=1 option.
OpenBLAS Warning : Detect OpenMP Loop and this application may hang. Please rebuild the library with USE_OPENMP=1 option.
OpenBLAS Warning : Detect OpenMP Loop and this application may hang. Please rebuild the library with USE_OPENMP=1 option.
OpenBLAS Warning : Detect OpenMP Loop and this application may hang. Please rebuild the library with USE_OPENMP=1 option.
OpenBLAS Warning : Detect OpenMP Loop and this application may hang. Please rebuild the library with USE_OPENMP=1 option.
OpenBLAS Warning : Detect OpenMP Loop and this application may hang. Please rebuild the library with USE_OPENMP=1 option.
OpenBLAS Warning : Detect OpenMP Loop and this application may hang. Please rebuild the library with USE_OPENMP=1 option.
OpenBLAS Warning : Detect OpenMP Loop and this application may hang. Please rebuild the library with USE_OPENMP=1 option.
OpenBLAS Warning : Detect OpenMP Loop and this application may hang. Please rebuild the library with USE_OPENMP=1 option.
OpenBLAS Warning : Detect OpenMP Loop and this application may hang. Please rebuild the library with USE_OPENMP=1 option.
OpenBLAS Warning : Detect OpenMP Loop and this application may hang. Please rebuild the library with USE_OPENMP=1 option.
OpenBLAS Warning : Detect OpenMP Loop and this application may hang. Please rebuild the library with USE_OPENMP=1 option.
OpenBLAS Warning : Detect OpenMP Loop and this application may hang. Please rebuild the library with USE_OPENMP=1 option.
OpenBLAS Warning : Detect OpenMP Loop and this application may hang. Please rebuild the library with USE_OPENMP=1 option.
OpenBLAS Warning : Detect OpenMP Loop and this application may hang. Please rebuild the library with USE_OPENMP=1 option.
OpenBLAS Warning : Detect OpenMP Loop and this application may hang. Please rebuild the library with USE_OPENMP=1 option.
OpenBLAS Warning : Detect OpenMP Loop and this application may hang. Please rebuild the library with USE_OPENMP=1 option.
OpenBLAS Warning : Detect OpenMP Loop and this application may hang. Please rebuild the library with USE_OPENMP=1 option.
OpenBLAS Warning : Detect OpenMP Loop and this application may hang. Please rebuild the library with USE_OPENMP=1 option.
OpenBLAS Warning : Detect OpenMP Loop and this application may hang. Please rebuild the library with USE_OPENMP=1 option.
OpenBLAS Warning : Detect OpenMP Loop and this application may hang. Please rebuild the library with USE_OPENMP=1 option.
OpenBLAS Warning : Detect OpenMP Loop and this application may hang. Please rebuild the library with USE_OPENMP=1 option.
OpenBLAS Warning : Detect OpenMP Loop and this application may hang. Please rebuild the library with USE_OPENMP=1 option.
OpenBLAS Warning : Detect OpenMP Loop and this application may hang. Please rebuild the library with USE_OPENMP=1 option.
OpenBLAS Warning : Detect OpenMP Loop and this application may hang. Please rebuild the library with USE_OPENMP=1 option.
OpenBLAS Warning : Detect OpenMP Loop and this application may hang. Please rebuild the library with USE_OPENMP=1 option.
OpenBLAS Warning : Detect OpenMP Loop and this application may hang. Please rebuild the library with USE_OPENMP=1 option.
OpenBLAS Warning : Detect OpenMP Loop and this application may hang. Please rebuild the library with USE_OPENMP=1 option.
OpenBLAS Warning : Detect OpenMP Loop and this application may hang. Please rebuild the library with USE_OPENMP=1 option.
OpenBLAS Warning : Detect OpenMP Loop and this application may hang. Please rebuild the library with USE_OPENMP=1 option.
OpenBLAS Warning : Detect OpenMP Loop and this application may hang. Please rebuild the library with USE_OPENMP=1 option.
OpenBLAS Warning : Detect OpenMP Loop and this application may hang. Please rebuild the library with USE_OPENMP=1 option.
OpenBLAS Warning : Detect OpenMP Loop and this application may hang. Please rebuild the library with USE_OPENMP=1 option.
OpenBLAS Warning : Detect OpenMP Loop and this application may hang. Please rebuild the library with USE_OPENMP=1 option.
OpenBLAS Warning : Detect OpenMP Loop and this application may hang. Please rebuild the library with USE_OPENMP=1 option.
OpenBLAS Warning : Detect OpenMP Loop and this application may hang. Please rebuild the library with USE_OPENMP=1 option.
OpenBLAS Warning : Detect OpenMP Loop and this application may hang. Please rebuild the library with USE_OPENMP=1 option.
OpenBLAS Warning : Detect OpenMP Loop and this application may hang. Please rebuild the library with USE_OPENMP=1 option.
OpenBLAS Warning : Detect OpenMP Loop and this application may hang. Please rebuild the library with USE_OPENMP=1 option.
OpenBLAS Warning : Detect OpenMP Loop and this application may hang. Please rebuild the library with USE_OPENMP=1 option.
OpenBLAS Warning : Detect OpenMP Loop and this application may hang. Please rebuild the library with USE_OPENMP=1 option.
OpenBLAS Warning : Detect OpenMP Loop and this application may hang. Please rebuild the library with USE_OPENMP=1 option.
OpenBLAS Warning : Detect OpenMP Loop and this application may hang. Please rebuild the library with USE_OPENMP=1 option.
OpenBLAS Warning : Detect OpenMP Loop and this application may hang. Please rebuild the library with USE_OPENMP=1 option.
OpenBLAS Warning : Detect OpenMP Loop and this application may hang. Please rebuild the library with USE_OPENMP=1 option.
OpenBLAS Warning : Detect OpenMP Loop and this application may hang. Please rebuild the library with USE_OPENMP=1 option.
OpenBLAS Warning : Detect OpenMP Loop and this application may hang. Please rebuild the library with USE_OPENMP=1 option.
OpenBLAS Warning : Detect OpenMP Loop and this application may hang. Please rebuild the library with USE_OPENMP=1 option.
OpenBLAS Warning : Detect OpenMP Loop and this application may hang. Please rebuild the library with USE_OPENMP=1 option.
OpenBLAS Warning : Detect OpenMP Loop and this application may hang. Please rebuild the library with USE_OPENMP=1 option.
OpenBLAS Warning : Detect OpenMP Loop and this application may hang. Please rebuild the library with USE_OPENMP=1 option.
OpenBLAS Warning : Detect OpenMP Loop and this application may hang. Please rebuild the library with USE_OPENMP=1 option.
OpenBLAS Warning : Detect OpenMP Loop and this application may hang. Please rebuild the library with USE_OPENMP=1 option.
OpenBLAS Warning : Detect OpenMP Loop and this application may hang. Please rebuild the library with USE_OPENMP=1 option.
OpenBLAS Warning : Detect OpenMP Loop and this application may hang. Please rebuild the library with USE_OPENMP=1 option.
OpenBLAS Warning : Detect OpenMP Loop and this application may hang. Please rebuild the library with USE_OPENMP=1 option.
OpenBLAS Warning : Detect OpenMP Loop and this application may hang. Please rebuild the library with USE_OPENMP=1 option.
OpenBLAS Warning : Detect OpenMP Loop and this application may hang. Please rebuild the library with USE_OPENMP=1 option.
OpenBLAS Warning : Detect OpenMP Loop and this application may hang. Please rebuild the library with USE_OPENMP=1 option.
OpenBLAS Warning : Detect OpenMP Loop and this application may hang. Please rebuild the library with USE_OPENMP=1 option.
OpenBLAS Warning : Detect OpenMP Loop and this application may hang. Please rebuild the library with USE_OPENMP=1 option.
OpenBLAS Warning : Detect OpenMP Loop and this application may hang. Please rebuild the library with USE_OPENMP=1 option.
OpenBLAS Warning : Detect OpenMP Loop and this application may hang. Please rebuild the library with USE_OPENMP=1 option.
OpenBLAS Warning : Detect OpenMP Loop and this application may hang. Please rebuild the library with USE_OPENMP=1 option.
OpenBLAS Warning : Detect OpenMP Loop and this application may hang. Please rebuild the library with USE_OPENMP=1 option.
OpenBLAS Warning : Detect OpenMP Loop and this application may hang. Please rebuild the library with USE_OPENMP=1 option.
OpenBLAS Warning : Detect OpenMP Loop and this application may hang. Please rebuild the library with USE_OPENMP=1 option.
OpenBLAS Warning : Detect OpenMP Loop and this application may hang. Please rebuild the library with USE_OPENMP=1 option.
OpenBLAS Warning : Detect OpenMP Loop and this application may hang. Please rebuild the library with USE_OPENMP=1 option.
OpenBLAS Warning : Detect OpenMP Loop and this application may hang. Please rebuild the library with USE_OPENMP=1 option.
OpenBLAS Warning : Detect OpenMP Loop and this application may hang. Please rebuild the library with USE_OPENMP=1 option.
OpenBLAS Warning : Detect OpenMP Loop and this application may hang. Please rebuild the library with USE_OPENMP=1 option.
OpenBLAS Warning : Detect OpenMP Loop and this application may hang. Please rebuild the library with USE_OPENMP=1 option.
OpenBLAS Warning : Detect OpenMP Loop and this application may hang. Please rebuild the library with USE_OPENMP=1 option.
OpenBLAS Warning : Detect OpenMP Loop and this application may hang. Please rebuild the library with USE_OPENMP=1 option.
OpenBLAS Warning : Detect OpenMP Loop and this application may hang. Please rebuild the library with USE_OPENMP=1 option.
OpenBLAS Warning : Detect OpenMP Loop and this application may hang. Please rebuild the library with USE_OPENMP=1 option.
OpenBLAS Warning : Detect OpenMP Loop and this application may hang. Please rebuild the library with USE_OPENMP=1 option.
OpenBLAS Warning : Detect OpenMP Loop and this application may hang. Please rebuild the library with USE_OPENMP=1 option.
OpenBLAS Warning : Detect OpenMP Loop and this application may hang. Please rebuild the library with USE_OPENMP=1 option.
OpenBLAS Warning : Detect OpenMP Loop and this application may hang. Please rebuild the library with USE_OPENMP=1 option.
OpenBLAS Warning : Detect OpenMP Loop and this application may hang. Please rebuild the library with USE_OPENMP=1 option.
OpenBLAS Warning : Detect OpenMP Loop and this application may hang. Please rebuild the library with USE_OPENMP=1 option.
OpenBLAS Warning : Detect OpenMP Loop and this application may hang. Please rebuild the library with USE_OPENMP=1 option.
OpenBLAS Warning : Detect OpenMP Loop and this application may hang. Please rebuild the library with USE_OPENMP=1 option.
OpenBLAS Warning : Detect OpenMP Loop and this application may hang. Please rebuild the library with USE_OPENMP=1 option.
OpenBLAS Warning : Detect OpenMP Loop and this application may hang. Please rebuild the library with USE_OPENMP=1 option.
OpenBLAS Warning : Detect OpenMP Loop and this application may hang. Please rebuild the library with USE_OPENMP=1 option.
OpenBLAS Warning : Detect OpenMP Loop and this application may hang. Please rebuild the library with USE_OPENMP=1 option.
OpenBLAS Warning : Detect OpenMP Loop and this application may hang. Please rebuild the library with USE_OPENMP=1 option.
OpenBLAS Warning : Detect OpenMP Loop and this application may hang. Please rebuild the library with USE_OPENMP=1 option.
OpenBLAS Warning : Detect OpenMP Loop and this application may hang. Please rebuild the library with USE_OPENMP=1 option.
OpenBLAS Warning : Detect OpenMP Loop and this application may hang. Please rebuild the library with USE_OPENMP=1 option.
OpenBLAS Warning : Detect OpenMP Loop and this application may hang. Please rebuild the library with USE_OPENMP=1 option.
OpenBLAS Warning : Detect OpenMP Loop and this application may hang. Please rebuild the library with USE_OPENMP=1 option.
OpenBLAS Warning : Detect OpenMP Loop and this application may hang. Please rebuild the library with USE_OPENMP=1 option.
OpenBLAS Warning : Detect OpenMP Loop and this application may hang. Please rebuild the library with USE_OPENMP=1 option.
OpenBLAS Warning : Detect OpenMP Loop and this application may hang. Please rebuild the library with USE_OPENMP=1 option.
OpenBLAS Warning : Detect OpenMP Loop and this application may hang. Please rebuild the library with USE_OPENMP=1 option.
OpenBLAS Warning : Detect OpenMP Loop and this application may hang. Please rebuild the library with USE_OPENMP=1 option.
OpenBLAS Warning : Detect OpenMP Loop and this application may hang. Please rebuild the library with USE_OPENMP=1 option.
OpenBLAS Warning : Detect OpenMP Loop and this application may hang. Please rebuild the library with USE_OPENMP=1 option.
OpenBLAS Warning : Detect OpenMP Loop and this application may hang. Please rebuild the library with USE_OPENMP=1 option.
OpenBLAS Warning : Detect OpenMP Loop and this application may hang. Please rebuild the library with USE_OPENMP=1 option.
OpenBLAS Warning : Detect OpenMP Loop and this application may hang. Please rebuild the library with USE_OPENMP=1 option.
OpenBLAS Warning : Detect OpenMP Loop and this application may hang. Please rebuild the library with USE_OPENMP=1 option.
OpenBLAS Warning : Detect OpenMP Loop and this application may hang. Please rebuild the library with USE_OPENMP=1 option.
OpenBLAS Warning : Detect OpenMP Loop and this application may hang. Please rebuild the library with USE_OPENMP=1 option.
OpenBLAS Warning : Detect OpenMP Loop and this application may hang. Please rebuild the library with USE_OPENMP=1 option.
OpenBLAS Warning : Detect OpenMP Loop and this application may hang. Please rebuild the library with USE_OPENMP=1 option.
OpenBLAS Warning : Detect OpenMP Loop and this application may hang. Please rebuild the library with USE_OPENMP=1 option.
OpenBLAS Warning : Detect OpenMP Loop and this application may hang. Please rebuild the library with USE_OPENMP=1 option.
OpenBLAS Warning : Detect OpenMP Loop and this application may hang. Please rebuild the library with USE_OPENMP=1 option.
OpenBLAS Warning : Detect OpenMP Loop and this application may hang. Please rebuild the library with USE_OPENMP=1 option.
OpenBLAS Warning : Detect OpenMP Loop and this application may hang. Please rebuild the library with USE_OPENMP=1 option.
OpenBLAS Warning : Detect OpenMP Loop and this application may hang. Please rebuild the library with USE_OPENMP=1 option.
OpenBLAS Warning : Detect OpenMP Loop and this application may hang. Please rebuild the library with USE_OPENMP=1 option.
OpenBLAS Warning : Detect OpenMP Loop and this application may hang. Please rebuild the library with USE_OPENMP=1 option.
OpenBLAS Warning : Detect OpenMP Loop and this application may hang. Please rebuild the library with USE_OPENMP=1 option.
OpenBLAS Warning : Detect OpenMP Loop and this application may hang. Please rebuild the library with USE_OPENMP=1 option.
OpenBLAS Warning : Detect OpenMP Loop and this application may hang. Please rebuild the library with USE_OPENMP=1 option.
OpenBLAS Warning : Detect OpenMP Loop and this application may hang. Please rebuild the library with USE_OPENMP=1 option.
OpenBLAS Warning : Detect OpenMP Loop and this application may hang. Please rebuild the library with USE_OPENMP=1 option.
OpenBLAS Warning : Detect OpenMP Loop and this application may hang. Please rebuild the library with USE_OPENMP=1 option.
OpenBLAS Warning : Detect OpenMP Loop and this application may hang. Please rebuild the library with USE_OPENMP=1 option.
OpenBLAS Warning : Detect OpenMP Loop and this application may hang. Please rebuild the library with USE_OPENMP=1 option.
OpenBLAS Warning : Detect OpenMP Loop and this application may hang. Please rebuild the library with USE_OPENMP=1 option.
OpenBLAS Warning : Detect OpenMP Loop and this application may hang. Please rebuild the library with USE_OPENMP=1 option.
OpenBLAS Warning : Detect OpenMP Loop and this application may hang. Please rebuild the library with USE_OPENMP=1 option.
OpenBLAS Warning : Detect OpenMP Loop and this application may hang. Please rebuild the library with USE_OPENMP=1 option.
OpenBLAS Warning : Detect OpenMP Loop and this application may hang. Please rebuild the library with USE_OPENMP=1 option.
OpenBLAS Warning : Detect OpenMP Loop and this application may hang. Please rebuild the library with USE_OPENMP=1 option.
OpenBLAS Warning : Detect OpenMP Loop and this application may hang. Please rebuild the library with USE_OPENMP=1 option.
OpenBLAS Warning : Detect OpenMP Loop and this application may hang. Please rebuild the library with USE_OPENMP=1 option.
OpenBLAS Warning : Detect OpenMP Loop and this application may hang. Please rebuild the library with USE_OPENMP=1 option.
OpenBLAS Warning : Detect OpenMP Loop and this application may hang. Please rebuild the library with USE_OPENMP=1 option.
OpenBLAS Warning : Detect OpenMP Loop and this application may hang. Please rebuild the library with USE_OPENMP=1 option.
OpenBLAS Warning : Detect OpenMP Loop and this application may hang. Please rebuild the library with USE_OPENMP=1 option.
OpenBLAS Warning : Detect OpenMP Loop and this application may hang. Please rebuild the library with USE_OPENMP=1 option.
OpenBLAS Warning : Detect OpenMP Loop and this application may hang. Please rebuild the library with USE_OPENMP=1 option.
OpenBLAS Warning : Detect OpenMP Loop and this application may hang. Please rebuild the library with USE_OPENMP=1 option.
OpenBLAS Warning : Detect OpenMP Loop and this application may hang. Please rebuild the library with USE_OPENMP=1 option.
OpenBLAS Warning : Detect OpenMP Loop and this application may hang. Please rebuild the library with USE_OPENMP=1 option.
OpenBLAS Warning : Detect OpenMP Loop and this application may hang. Please rebuild the library with USE_OPENMP=1 option.
OpenBLAS Warning : Detect OpenMP Loop and this application may hang. Please rebuild the library with USE_OPENMP=1 option.
OpenBLAS Warning : Detect OpenMP Loop and this application may hang. Please rebuild the library with USE_OPENMP=1 option.
OpenBLAS Warning : Detect OpenMP Loop and this application may hang. Please rebuild the library with USE_OPENMP=1 option.
OpenBLAS Warning : Detect OpenMP Loop and this application may hang. Please rebuild the library with USE_OPENMP=1 option.
OpenBLAS Warning : Detect OpenMP Loop and this application may hang. Please rebuild the library with USE_OPENMP=1 option.
OpenBLAS Warning : Detect OpenMP Loop and this application may hang. Please rebuild the library with USE_OPENMP=1 option.
OpenBLAS Warning : Detect OpenMP Loop and this application may hang. Please rebuild the library with USE_OPENMP=1 option.
OpenBLAS Warning : Detect OpenMP Loop and this application may hang. Please rebuild the library with USE_OPENMP=1 option.
OpenBLAS Warning : Detect OpenMP Loop and this application may hang. Please rebuild the library with USE_OPENMP=1 option.
OpenBLAS Warning : Detect OpenMP Loop and this application may hang. Please rebuild the library with USE_OPENMP=1 option.
OpenBLAS Warning : Detect OpenMP Loop and this application may hang. Please rebuild the library with USE_OPENMP=1 option.
OpenBLAS Warning : Detect OpenMP Loop and this application may hang. Please rebuild the library with USE_OPENMP=1 option.
OpenBLAS Warning : Detect OpenMP Loop and this application may hang. Please rebuild the library with USE_OPENMP=1 option.
OpenBLAS Warning : Detect OpenMP Loop and this application may hang. Please rebuild the library with USE_OPENMP=1 option.
OpenBLAS Warning : Detect OpenMP Loop and this application may hang. Please rebuild the library with USE_OPENMP=1 option.
OpenBLAS Warning : Detect OpenMP Loop and this application may hang. Please rebuild the library with USE_OPENMP=1 option.
OpenBLAS Warning : Detect OpenMP Loop and this application may hang. Please rebuild the library with USE_OPENMP=1 option.
OpenBLAS Warning : Detect OpenMP Loop and this application may hang. Please rebuild the library with USE_OPENMP=1 option.
OpenBLAS Warning : Detect OpenMP Loop and this application may hang. Please rebuild the library with USE_OPENMP=1 option.
OpenBLAS Warning : Detect OpenMP Loop and this application may hang. Please rebuild the library with USE_OPENMP=1 option.
OpenBLAS Warning : Detect OpenMP Loop and this application may hang. Please rebuild the library with USE_OPENMP=1 option.
OpenBLAS Warning : Detect OpenMP Loop and this application may hang. Please rebuild the library with USE_OPENMP=1 option.
OpenBLAS Warning : Detect OpenMP Loop and this application may hang. Please rebuild the library with USE_OPENMP=1 option.
OpenBLAS Warning : Detect OpenMP Loop and this application may hang. Please rebuild the library with USE_OPENMP=1 option.
OpenBLAS Warning : Detect OpenMP Loop and this application may hang. Please rebuild the library with USE_OPENMP=1 option.
OpenBLAS Warning : Detect OpenMP Loop and this application may hang. Please rebuild the library with USE_OPENMP=1 option.
OpenBLAS Warning : Detect OpenMP Loop and this application may hang. Please rebuild the library with USE_OPENMP=1 option.
OpenBLAS Warning : Detect OpenMP Loop and this application may hang. Please rebuild the library with USE_OPENMP=1 option.
OpenBLAS Warning : Detect OpenMP Loop and this application may hang. Please rebuild the library with USE_OPENMP=1 option.
OpenBLAS Warning : Detect OpenMP Loop and this application may hang. Please rebuild the library with USE_OPENMP=1 option.
OpenBLAS Warning : Detect OpenMP Loop and this application may hang. Please rebuild the library with USE_OPENMP=1 option.
OpenBLAS Warning : Detect OpenMP Loop and this application may hang. Please rebuild the library with USE_OPENMP=1 option.
OpenBLAS Warning : Detect OpenMP Loop and this application may hang. Please rebuild the library with USE_OPENMP=1 option.
OpenBLAS Warning : Detect OpenMP Loop and this application may hang. Please rebuild the library with USE_OPENMP=1 option.
OpenBLAS Warning : Detect OpenMP Loop and this application may hang. Please rebuild the library with USE_OPENMP=1 option.
OpenBLAS Warning : Detect OpenMP Loop and this application may hang. Please rebuild the library with USE_OPENMP=1 option.
OpenBLAS Warning : Detect OpenMP Loop and this application may hang. Please rebuild the library with USE_OPENMP=1 option.
OpenBLAS Warning : Detect OpenMP Loop and this application may hang. Please rebuild the library with USE_OPENMP=1 option.
OpenBLAS Warning : Detect OpenMP Loop and this application may hang. Please rebuild the library with USE_OPENMP=1 option.
OpenBLAS Warning : Detect OpenMP Loop and this application may hang. Please rebuild the library with USE_OPENMP=1 option.
OpenBLAS Warning : Detect OpenMP Loop and this application may hang. Please rebuild the library with USE_OPENMP=1 option.
OpenBLAS Warning : Detect OpenMP Loop and this application may hang. Please rebuild the library with USE_OPENMP=1 option.
OpenBLAS Warning : Detect OpenMP Loop and this application may hang. Please rebuild the library with USE_OPENMP=1 option.
OpenBLAS Warning : Detect OpenMP Loop and this application may hang. Please rebuild the library with USE_OPENMP=1 option.
OpenBLAS Warning : Detect OpenMP Loop and this application may hang. Please rebuild the library with USE_OPENMP=1 option.
OpenBLAS Warning : Detect OpenMP Loop and this application may hang. Please rebuild the library with USE_OPENMP=1 option.
OpenBLAS Warning : Detect OpenMP Loop and this application may hang. Please rebuild the library with USE_OPENMP=1 option.
OpenBLAS Warning : Detect OpenMP Loop and this application may hang. Please rebuild the library with USE_OPENMP=1 option.
OpenBLAS Warning : Detect OpenMP Loop and this application may hang. Please rebuild the library with USE_OPENMP=1 option.
OpenBLAS Warning : Detect OpenMP Loop and this application may hang. Please rebuild the library with USE_OPENMP=1 option.
OpenBLAS Warning : Detect OpenMP Loop and this application may hang. Please rebuild the library with USE_OPENMP=1 option.
OpenBLAS Warning : Detect OpenMP Loop and this application may hang. Please rebuild the library with USE_OPENMP=1 option.
OpenBLAS Warning : Detect OpenMP Loop and this application may hang. Please rebuild the library with USE_OPENMP=1 option.
OpenBLAS Warning : Detect OpenMP Loop and this application may hang. Please rebuild the library with USE_OPENMP=1 option.
OpenBLAS Warning : Detect OpenMP Loop and this application may hang. Please rebuild the library with USE_OPENMP=1 option.
OpenBLAS Warning : Detect OpenMP Loop and this application may hang. Please rebuild the library with USE_OPENMP=1 option.
OpenBLAS Warning : Detect OpenMP Loop and this application may hang. Please rebuild the library with USE_OPENMP=1 option.
OpenBLAS Warning : Detect OpenMP Loop and this application may hang. Please rebuild the library with USE_OPENMP=1 option.
OpenBLAS Warning : Detect OpenMP Loop and this application may hang. Please rebuild the library with USE_OPENMP=1 option.
OpenBLAS Warning : Detect OpenMP Loop and this application may hang. Please rebuild the library with USE_OPENMP=1 option.
OpenBLAS Warning : Detect OpenMP Loop and this application may hang. Please rebuild the library with USE_OPENMP=1 option.
OpenBLAS Warning : Detect OpenMP Loop and this application may hang. Please rebuild the library with USE_OPENMP=1 option.
OpenBLAS Warning : Detect OpenMP Loop and this application may hang. Please rebuild the library with USE_OPENMP=1 option.
OpenBLAS Warning : Detect OpenMP Loop and this application may hang. Please rebuild the library with USE_OPENMP=1 option.
OpenBLAS Warning : Detect OpenMP Loop and this application may hang. Please rebuild the library with USE_OPENMP=1 option.
OpenBLAS Warning : Detect OpenMP Loop and this application may hang. Please rebuild the library with USE_OPENMP=1 option.
OpenBLAS Warning : Detect OpenMP Loop and this application may hang. Please rebuild the library with USE_OPENMP=1 option.
OpenBLAS Warning : Detect OpenMP Loop and this application may hang. Please rebuild the library with USE_OPENMP=1 option.
OpenBLAS Warning : Detect OpenMP Loop and this application may hang. Please rebuild the library with USE_OPENMP=1 option.
OpenBLAS Warning : Detect OpenMP Loop and this application may hang. Please rebuild the library with USE_OPENMP=1 option.
OpenBLAS Warning : Detect OpenMP Loop and this application may hang. Please rebuild the library with USE_OPENMP=1 option.
OpenBLAS Warning : Detect OpenMP Loop and this application may hang. Please rebuild the library with USE_OPENMP=1 option.
OpenBLAS Warning : Detect OpenMP Loop and this application may hang. Please rebuild the library with USE_OPENMP=1 option.
OpenBLAS Warning : Detect OpenMP Loop and this application may hang. Please rebuild the library with USE_OPENMP=1 option.
OpenBLAS Warning : Detect OpenMP Loop and this application may hang. Please rebuild the library with USE_OPENMP=1 option.
OpenBLAS Warning : Detect OpenMP Loop and this application may hang. Please rebuild the library with USE_OPENMP=1 option.
OpenBLAS Warning : Detect OpenMP Loop and this application may hang. Please rebuild the library with USE_OPENMP=1 option.
OpenBLAS Warning : Detect OpenMP Loop and this application may hang. Please rebuild the library with USE_OPENMP=1 option.
OpenBLAS Warning : Detect OpenMP Loop and this application may hang. Please rebuild the library with USE_OPENMP=1 option.
OpenBLAS Warning : Detect OpenMP Loop and this application may hang. Please rebuild the library with USE_OPENMP=1 option.
OpenBLAS Warning : Detect OpenMP Loop and this application may hang. Please rebuild the library with USE_OPENMP=1 option.
OpenBLAS Warning : Detect OpenMP Loop and this application may hang. Please rebuild the library with USE_OPENMP=1 option.
OpenBLAS Warning : Detect OpenMP Loop and this application may hang. Please rebuild the library with USE_OPENMP=1 option.
OpenBLAS Warning : Detect OpenMP Loop and this application may hang. Please rebuild the library with USE_OPENMP=1 option.
OpenBLAS Warning : Detect OpenMP Loop and this application may hang. Please rebuild the library with USE_OPENMP=1 option.
OpenBLAS Warning : Detect OpenMP Loop and this application may hang. Please rebuild the library with USE_OPENMP=1 option.
OpenBLAS Warning : Detect OpenMP Loop and this application may hang. Please rebuild the library with USE_OPENMP=1 option.
OpenBLAS Warning : Detect OpenMP Loop and this application may hang. Please rebuild the library with USE_OPENMP=1 option.
OpenBLAS Warning : Detect OpenMP Loop and this application may hang. Please rebuild the library with USE_OPENMP=1 option.
OpenBLAS Warning : Detect OpenMP Loop and this application may hang. Please rebuild the library with USE_OPENMP=1 option.
OpenBLAS Warning : Detect OpenMP Loop and this application may hang. Please rebuild the library with USE_OPENMP=1 option.
OpenBLAS Warning : Detect OpenMP Loop and this application may hang. Please rebuild the library with USE_OPENMP=1 option.
OpenBLAS Warning : Detect OpenMP Loop and this application may hang. Please rebuild the library with USE_OPENMP=1 option.
OpenBLAS Warning : Detect OpenMP Loop and this application may hang. Please rebuild the library with USE_OPENMP=1 option.
OpenBLAS Warning : Detect OpenMP Loop and this application may hang. Please rebuild the library with USE_OPENMP=1 option.
OpenBLAS Warning : Detect OpenMP Loop and this application may hang. Please rebuild the library with USE_OPENMP=1 option.
OpenBLAS Warning : Detect OpenMP Loop and this application may hang. Please rebuild the library with USE_OPENMP=1 option.
OpenBLAS Warning : Detect OpenMP Loop and this application may hang. Please rebuild the library with USE_OPENMP=1 option.
OpenBLAS Warning : Detect OpenMP Loop and this application may hang. Please rebuild the library with USE_OPENMP=1 option.
OpenBLAS Warning : Detect OpenMP Loop and this application may hang. Please rebuild the library with USE_OPENMP=1 option.
OpenBLAS Warning : Detect OpenMP Loop and this application may hang. Please rebuild the library with USE_OPENMP=1 option.
OpenBLAS Warning : Detect OpenMP Loop and this application may hang. Please rebuild the library with USE_OPENMP=1 option.
OpenBLAS Warning : Detect OpenMP Loop and this application may hang. Please rebuild the library with USE_OPENMP=1 option.
OpenBLAS Warning : Detect OpenMP Loop and this application may hang. Please rebuild the library with USE_OPENMP=1 option.
OpenBLAS Warning : Detect OpenMP Loop and this application may hang. Please rebuild the library with USE_OPENMP=1 option.
OpenBLAS Warning : Detect OpenMP Loop and this application may hang. Please rebuild the library with USE_OPENMP=1 option.
OpenBLAS Warning : Detect OpenMP Loop and this application may hang. Please rebuild the library with USE_OPENMP=1 option.
OpenBLAS Warning : Detect OpenMP Loop and this application may hang. Please rebuild the library with USE_OPENMP=1 option.
OpenBLAS Warning : Detect OpenMP Loop and this application may hang. Please rebuild the library with USE_OPENMP=1 option.
OpenBLAS Warning : Detect OpenMP Loop and this application may hang. Please rebuild the library with USE_OPENMP=1 option.
OpenBLAS Warning : Detect OpenMP Loop and this application may hang. Please rebuild the library with USE_OPENMP=1 option.
OpenBLAS Warning : Detect OpenMP Loop and this application may hang. Please rebuild the library with USE_OPENMP=1 option.
OpenBLAS Warning : Detect OpenMP Loop and this application may hang. Please rebuild the library with USE_OPENMP=1 option.
OpenBLAS Warning : Detect OpenMP Loop and this application may hang. Please rebuild the library with USE_OPENMP=1 option.
OpenBLAS Warning : Detect OpenMP Loop and this application may hang. Please rebuild the library with USE_OPENMP=1 option.
OpenBLAS Warning : Detect OpenMP Loop and this application may hang. Please rebuild the library with USE_OPENMP=1 option.
OpenBLAS Warning : Detect OpenMP Loop and this application may hang. Please rebuild the library with USE_OPENMP=1 option.
OpenBLAS Warning : Detect OpenMP Loop and this application may hang. Please rebuild the library with USE_OPENMP=1 option.
OpenBLAS Warning : Detect OpenMP Loop and this application may hang. Please rebuild the library with USE_OPENMP=1 option.
OpenBLAS Warning : Detect OpenMP Loop and this application may hang. Please rebuild the library with USE_OPENMP=1 option.
OpenBLAS Warning : Detect OpenMP Loop and this application may hang. Please rebuild the library with USE_OPENMP=1 option.
OpenBLAS Warning : Detect OpenMP Loop and this application may hang. Please rebuild the library with USE_OPENMP=1 option.
OpenBLAS Warning : Detect OpenMP Loop and this application may hang. Please rebuild the library with USE_OPENMP=1 option.
OpenBLAS Warning : Detect OpenMP Loop and this application may hang. Please rebuild the library with USE_OPENMP=1 option.
OpenBLAS Warning : Detect OpenMP Loop and this application may hang. Please rebuild the library with USE_OPENMP=1 option.
OpenBLAS Warning : Detect OpenMP Loop and this application may hang. Please rebuild the library with USE_OPENMP=1 option.
OpenBLAS Warning : Detect OpenMP Loop and this application may hang. Please rebuild the library with USE_OPENMP=1 option.
OpenBLAS Warning : Detect OpenMP Loop and this application may hang. Please rebuild the library with USE_OPENMP=1 option.
OpenBLAS Warning : Detect OpenMP Loop and this application may hang. Please rebuild the library with USE_OPENMP=1 option.
OpenBLAS Warning : Detect OpenMP Loop and this application may hang. Please rebuild the library with USE_OPENMP=1 option.
OpenBLAS Warning : Detect OpenMP Loop and this application may hang. Please rebuild the library with USE_OPENMP=1 option.
OpenBLAS Warning : Detect OpenMP Loop and this application may hang. Please rebuild the library with USE_OPENMP=1 option.
OpenBLAS Warning : Detect OpenMP Loop and this application may hang. Please rebuild the library with USE_OPENMP=1 option.
OpenBLAS Warning : Detect OpenMP Loop and this application may hang. Please rebuild the library with USE_OPENMP=1 option.
OpenBLAS Warning : Detect OpenMP Loop and this application may hang. Please rebuild the library with USE_OPENMP=1 option.
OpenBLAS Warning : Detect OpenMP Loop and this application may hang. Please rebuild the library with USE_OPENMP=1 option.
OpenBLAS Warning : Detect OpenMP Loop and this application may hang. Please rebuild the library with USE_OPENMP=1 option.
OpenBLAS Warning : Detect OpenMP Loop and this application may hang. Please rebuild the library with USE_OPENMP=1 option.
OpenBLAS Warning : Detect OpenMP Loop and this application may hang. Please rebuild the library with USE_OPENMP=1 option.
OpenBLAS Warning : Detect OpenMP Loop and this application may hang. Please rebuild the library with USE_OPENMP=1 option.
OpenBLAS Warning : Detect OpenMP Loop and this application may hang. Please rebuild the library with USE_OPENMP=1 option.
OpenBLAS Warning : Detect OpenMP Loop and this application may hang. Please rebuild the library with USE_OPENMP=1 option.
OpenBLAS Warning : Detect OpenMP Loop and this application may hang. Please rebuild the library with USE_OPENMP=1 option.
OpenBLAS Warning : Detect OpenMP Loop and this application may hang. Please rebuild the library with USE_OPENMP=1 option.
OpenBLAS Warning : Detect OpenMP Loop and this application may hang. Please rebuild the library with USE_OPENMP=1 option.
OpenBLAS Warning : Detect OpenMP Loop and this application may hang. Please rebuild the library with USE_OPENMP=1 option.
OpenBLAS Warning : Detect OpenMP Loop and this application may hang. Please rebuild the library with USE_OPENMP=1 option.
OpenBLAS Warning : Detect OpenMP Loop and this application may hang. Please rebuild the library with USE_OPENMP=1 option.
OpenBLAS Warning : Detect OpenMP Loop and this application may hang. Please rebuild the library with USE_OPENMP=1 option.
OpenBLAS Warning : Detect OpenMP Loop and this application may hang. Please rebuild the library with USE_OPENMP=1 option.
OpenBLAS Warning : Detect OpenMP Loop and this application may hang. Please rebuild the library with USE_OPENMP=1 option.
OpenBLAS Warning : Detect OpenMP Loop and this application may hang. Please rebuild the library with USE_OPENMP=1 option.
OpenBLAS Warning : Detect OpenMP Loop and this application may hang. Please rebuild the library with USE_OPENMP=1 option.
OpenBLAS Warning : Detect OpenMP Loop and this application may hang. Please rebuild the library with USE_OPENMP=1 option.
OpenBLAS Warning : Detect OpenMP Loop and this application may hang. Please rebuild the library with USE_OPENMP=1 option.
OpenBLAS Warning : Detect OpenMP Loop and this application may hang. Please rebuild the library with USE_OPENMP=1 option.
OpenBLAS Warning : Detect OpenMP Loop and this application may hang. Please rebuild the library with USE_OPENMP=1 option.
OpenBLAS Warning : Detect OpenMP Loop and this application may hang. Please rebuild the library with USE_OPENMP=1 option.
OpenBLAS Warning : Detect OpenMP Loop and this application may hang. Please rebuild the library with USE_OPENMP=1 option.
OpenBLAS Warning : Detect OpenMP Loop and this application may hang. Please rebuild the library with USE_OPENMP=1 option.
OpenBLAS Warning : Detect OpenMP Loop and this application may hang. Please rebuild the library with USE_OPENMP=1 option.
OpenBLAS Warning : Detect OpenMP Loop and this application may hang. Please rebuild the library with USE_OPENMP=1 option.
OpenBLAS Warning : Detect OpenMP Loop and this application may hang. Please rebuild the library with USE_OPENMP=1 option.
OpenBLAS Warning : Detect OpenMP Loop and this application may hang. Please rebuild the library with USE_OPENMP=1 option.
OpenBLAS Warning : Detect OpenMP Loop and this application may hang. Please rebuild the library with USE_OPENMP=1 option.
OpenBLAS Warning : Detect OpenMP Loop and this application may hang. Please rebuild the library with USE_OPENMP=1 option.
OpenBLAS Warning : Detect OpenMP Loop and this application may hang. Please rebuild the library with USE_OPENMP=1 option.
OpenBLAS Warning : Detect OpenMP Loop and this application may hang. Please rebuild the library with USE_OPENMP=1 option.
OpenBLAS Warning : Detect OpenMP Loop and this application may hang. Please rebuild the library with USE_OPENMP=1 option.
OpenBLAS Warning : Detect OpenMP Loop and this application may hang. Please rebuild the library with USE_OPENMP=1 option.
OpenBLAS Warning : Detect OpenMP Loop and this application may hang. Please rebuild the library with USE_OPENMP=1 option.
OpenBLAS Warning : Detect OpenMP Loop and this application may hang. Please rebuild the library with USE_OPENMP=1 option.
OpenBLAS Warning : Detect OpenMP Loop and this application may hang. Please rebuild the library with USE_OPENMP=1 option.
OpenBLAS Warning : Detect OpenMP Loop and this application may hang. Please rebuild the library with USE_OPENMP=1 option.
OpenBLAS Warning : Detect OpenMP Loop and this application may hang. Please rebuild the library with USE_OPENMP=1 option.
OpenBLAS Warning : Detect OpenMP Loop and this application may hang. Please rebuild the library with USE_OPENMP=1 option.
OpenBLAS Warning : Detect OpenMP Loop and this application may hang. Please rebuild the library with USE_OPENMP=1 option.
OpenBLAS Warning : Detect OpenMP Loop and this application may hang. Please rebuild the library with USE_OPENMP=1 option.
OpenBLAS Warning : Detect OpenMP Loop and this application may hang. Please rebuild the library with USE_OPENMP=1 option.
OpenBLAS Warning : Detect OpenMP Loop and this application may hang. Please rebuild the library with USE_OPENMP=1 option.
OpenBLAS Warning : Detect OpenMP Loop and this application may hang. Please rebuild the library with USE_OPENMP=1 option.
OpenBLAS Warning : Detect OpenMP Loop and this application may hang. Please rebuild the library with USE_OPENMP=1 option.
OpenBLAS Warning : Detect OpenMP Loop and this application may hang. Please rebuild the library with USE_OPENMP=1 option.
OpenBLAS Warning : Detect OpenMP Loop and this application may hang. Please rebuild the library with USE_OPENMP=1 option.
OpenBLAS Warning : Detect OpenMP Loop and this application may hang. Please rebuild the library with USE_OPENMP=1 option.
OpenBLAS Warning : Detect OpenMP Loop and this application may hang. Please rebuild the library with USE_OPENMP=1 option.
OpenBLAS Warning : Detect OpenMP Loop and this application may hang. Please rebuild the library with USE_OPENMP=1 option.
OpenBLAS Warning : Detect OpenMP Loop and this application may hang. Please rebuild the library with USE_OPENMP=1 option.
OpenBLAS Warning : Detect OpenMP Loop and this application may hang. Please rebuild the library with USE_OPENMP=1 option.
OpenBLAS Warning : Detect OpenMP Loop and this application may hang. Please rebuild the library with USE_OPENMP=1 option.
OpenBLAS Warning : Detect OpenMP Loop and this application may hang. Please rebuild the library with USE_OPENMP=1 option.
OpenBLAS Warning : Detect OpenMP Loop and this application may hang. Please rebuild the library with USE_OPENMP=1 option.
OpenBLAS Warning : Detect OpenMP Loop and this application may hang. Please rebuild the library with USE_OPENMP=1 option.
OpenBLAS Warning : Detect OpenMP Loop and this application may hang. Please rebuild the library with USE_OPENMP=1 option.
OpenBLAS Warning : Detect OpenMP Loop and this application may hang. Please rebuild the library with USE_OPENMP=1 option.
OpenBLAS Warning : Detect OpenMP Loop and this application may hang. Please rebuild the library with USE_OPENMP=1 option.
OpenBLAS Warning : Detect OpenMP Loop and this application may hang. Please rebuild the library with USE_OPENMP=1 option.
OpenBLAS Warning : Detect OpenMP Loop and this application may hang. Please rebuild the library with USE_OPENMP=1 option.
OpenBLAS Warning : Detect OpenMP Loop and this application may hang. Please rebuild the library with USE_OPENMP=1 option.
OpenBLAS Warning : Detect OpenMP Loop and this application may hang. Please rebuild the library with USE_OPENMP=1 option.
OpenBLAS Warning : Detect OpenMP Loop and this application may hang. Please rebuild the library with USE_OPENMP=1 option.
OpenBLAS Warning : Detect OpenMP Loop and this application may hang. Please rebuild the library with USE_OPENMP=1 option.
OpenBLAS Warning : Detect OpenMP Loop and this application may hang. Please rebuild the library with USE_OPENMP=1 option.
OpenBLAS Warning : Detect OpenMP Loop and this application may hang. Please rebuild the library with USE_OPENMP=1 option.
OpenBLAS Warning : Detect OpenMP Loop and this application may hang. Please rebuild the library with USE_OPENMP=1 option.
OpenBLAS Warning : Detect OpenMP Loop and this application may hang. Please rebuild the library with USE_OPENMP=1 option.
OpenBLAS Warning : Detect OpenMP Loop and this application may hang. Please rebuild the library with USE_OPENMP=1 option.
OpenBLAS Warning : Detect OpenMP Loop and this application may hang. Please rebuild the library with USE_OPENMP=1 option.
OpenBLAS Warning : Detect OpenMP Loop and this application may hang. Please rebuild the library with USE_OPENMP=1 option.
OpenBLAS Warning : Detect OpenMP Loop and this application may hang. Please rebuild the library with USE_OPENMP=1 option.
OpenBLAS Warning : Detect OpenMP Loop and this application may hang. Please rebuild the library with USE_OPENMP=1 option.
OpenBLAS Warning : Detect OpenMP Loop and this application may hang. Please rebuild the library with USE_OPENMP=1 option.
OpenBLAS Warning : Detect OpenMP Loop and this application may hang. Please rebuild the library with USE_OPENMP=1 option.
OpenBLAS Warning : Detect OpenMP Loop and this application may hang. Please rebuild the library with USE_OPENMP=1 option.
OpenBLAS Warning : Detect OpenMP Loop and this application may hang. Please rebuild the library with USE_OPENMP=1 option.
OpenBLAS Warning : Detect OpenMP Loop and this application may hang. Please rebuild the library with USE_OPENMP=1 option.
OpenBLAS Warning : Detect OpenMP Loop and this application may hang. Please rebuild the library with USE_OPENMP=1 option.
OpenBLAS Warning : Detect OpenMP Loop and this application may hang. Please rebuild the library with USE_OPENMP=1 option.
OpenBLAS Warning : Detect OpenMP Loop and this application may hang. Please rebuild the library with USE_OPENMP=1 option.
OpenBLAS Warning : Detect OpenMP Loop and this application may hang. Please rebuild the library with USE_OPENMP=1 option.
OpenBLAS Warning : Detect OpenMP Loop and this application may hang. Please rebuild the library with USE_OPENMP=1 option.
OpenBLAS Warning : Detect OpenMP Loop and this application may hang. Please rebuild the library with USE_OPENMP=1 option.
OpenBLAS Warning : Detect OpenMP Loop and this application may hang. Please rebuild the library with USE_OPENMP=1 option.
OpenBLAS Warning : Detect OpenMP Loop and this application may hang. Please rebuild the library with USE_OPENMP=1 option.
OpenBLAS Warning : Detect OpenMP Loop and this application may hang. Please rebuild the library with USE_OPENMP=1 option.
OpenBLAS Warning : Detect OpenMP Loop and this application may hang. Please rebuild the library with USE_OPENMP=1 option.
OpenBLAS Warning : Detect OpenMP Loop and this application may hang. Please rebuild the library with USE_OPENMP=1 option.
OpenBLAS Warning : Detect OpenMP Loop and this application may hang. Please rebuild the library with USE_OPENMP=1 option.
OpenBLAS Warning : Detect OpenMP Loop and this application may hang. Please rebuild the library with USE_OPENMP=1 option.
OpenBLAS Warning : Detect OpenMP Loop and this application may hang. Please rebuild the library with USE_OPENMP=1 option.
OpenBLAS Warning : Detect OpenMP Loop and this application may hang. Please rebuild the library with USE_OPENMP=1 option.
OpenBLAS Warning : Detect OpenMP Loop and this application may hang. Please rebuild the library with USE_OPENMP=1 option.
OpenBLAS Warning : Detect OpenMP Loop and this application may hang. Please rebuild the library with USE_OPENMP=1 option.
OpenBLAS Warning : Detect OpenMP Loop and this application may hang. Please rebuild the library with USE_OPENMP=1 option.
OpenBLAS Warning : Detect OpenMP Loop and this application may hang. Please rebuild the library with USE_OPENMP=1 option.
OpenBLAS Warning : Detect OpenMP Loop and this application may hang. Please rebuild the library with USE_OPENMP=1 option.
OpenBLAS Warning : Detect OpenMP Loop and this application may hang. Please rebuild the library with USE_OPENMP=1 option.
OpenBLAS Warning : Detect OpenMP Loop and this application may hang. Please rebuild the library with USE_OPENMP=1 option.
OpenBLAS Warning : Detect OpenMP Loop and this application may hang. Please rebuild the library with USE_OPENMP=1 option.
OpenBLAS Warning : Detect OpenMP Loop and this application may hang. Please rebuild the library with USE_OPENMP=1 option.
OpenBLAS Warning : Detect OpenMP Loop and this application may hang. Please rebuild the library with USE_OPENMP=1 option.
OpenBLAS Warning : Detect OpenMP Loop and this application may hang. Please rebuild the library with USE_OPENMP=1 option.
OpenBLAS Warning : Detect OpenMP Loop and this application may hang. Please rebuild the library with USE_OPENMP=1 option.
OpenBLAS Warning : Detect OpenMP Loop and this application may hang. Please rebuild the library with USE_OPENMP=1 option.
OpenBLAS Warning : Detect OpenMP Loop and this application may hang. Please rebuild the library with USE_OPENMP=1 option.
OpenBLAS Warning : Detect OpenMP Loop and this application may hang. Please rebuild the library with USE_OPENMP=1 option.
OpenBLAS Warning : Detect OpenMP Loop and this application may hang. Please rebuild the library with USE_OPENMP=1 option.
OpenBLAS Warning : Detect OpenMP Loop and this application may hang. Please rebuild the library with USE_OPENMP=1 option.
OpenBLAS Warning : Detect OpenMP Loop and this application may hang. Please rebuild the library with USE_OPENMP=1 option.
OpenBLAS Warning : Detect OpenMP Loop and this application may hang. Please rebuild the library with USE_OPENMP=1 option.
OpenBLAS Warning : Detect OpenMP Loop and this application may hang. Please rebuild the library with USE_OPENMP=1 option.
OpenBLAS Warning : Detect OpenMP Loop and this application may hang. Please rebuild the library with USE_OPENMP=1 option.
OpenBLAS Warning : Detect OpenMP Loop and this application may hang. Please rebuild the library with USE_OPENMP=1 option.
OpenBLAS Warning : Detect OpenMP Loop and this application may hang. Please rebuild the library with USE_OPENMP=1 option.
OpenBLAS Warning : Detect OpenMP Loop and this application may hang. Please rebuild the library with USE_OPENMP=1 option.
OpenBLAS Warning : Detect OpenMP Loop and this application may hang. Please rebuild the library with USE_OPENMP=1 option.
OpenBLAS Warning : Detect OpenMP Loop and this application may hang. Please rebuild the library with USE_OPENMP=1 option.
OpenBLAS Warning : Detect OpenMP Loop and this application may hang. Please rebuild the library with USE_OPENMP=1 option.
OpenBLAS Warning : Detect OpenMP Loop and this application may hang. Please rebuild the library with USE_OPENMP=1 option.
OpenBLAS Warning : Detect OpenMP Loop and this application may hang. Please rebuild the library with USE_OPENMP=1 option.
OpenBLAS Warning : Detect OpenMP Loop and this application may hang. Please rebuild the library with USE_OPENMP=1 option.
OpenBLAS Warning : Detect OpenMP Loop and this application may hang. Please rebuild the library with USE_OPENMP=1 option.
OpenBLAS Warning : Detect OpenMP Loop and this application may hang. Please rebuild the library with USE_OPENMP=1 option.
OpenBLAS Warning : Detect OpenMP Loop and this application may hang. Please rebuild the library with USE_OPENMP=1 option.
OpenBLAS Warning : Detect OpenMP Loop and this application may hang. Please rebuild the library with USE_OPENMP=1 option.
OpenBLAS Warning : Detect OpenMP Loop and this application may hang. Please rebuild the library with USE_OPENMP=1 option.
OpenBLAS Warning : Detect OpenMP Loop and this application may hang. Please rebuild the library with USE_OPENMP=1 option.
OpenBLAS Warning : Detect OpenMP Loop and this application may hang. Please rebuild the library with USE_OPENMP=1 option.
OpenBLAS Warning : Detect OpenMP Loop and this application may hang. Please rebuild the library with USE_OPENMP=1 option.
OpenBLAS Warning : Detect OpenMP Loop and this application may hang. Please rebuild the library with USE_OPENMP=1 option.
OpenBLAS Warning : Detect OpenMP Loop and this application may hang. Please rebuild the library with USE_OPENMP=1 option.
OpenBLAS Warning : Detect OpenMP Loop and this application may hang. Please rebuild the library with USE_OPENMP=1 option.
OpenBLAS Warning : Detect OpenMP Loop and this application may hang. Please rebuild the library with USE_OPENMP=1 option.
OpenBLAS Warning : Detect OpenMP Loop and this application may hang. Please rebuild the library with USE_OPENMP=1 option.
OpenBLAS Warning : Detect OpenMP Loop and this application may hang. Please rebuild the library with USE_OPENMP=1 option.
OpenBLAS Warning : Detect OpenMP Loop and this application may hang. Please rebuild the library with USE_OPENMP=1 option.
OpenBLAS Warning : Detect OpenMP Loop and this application may hang. Please rebuild the library with USE_OPENMP=1 option.
OpenBLAS Warning : Detect OpenMP Loop and this application may hang. Please rebuild the library with USE_OPENMP=1 option.
OpenBLAS Warning : Detect OpenMP Loop and this application may hang. Please rebuild the library with USE_OPENMP=1 option.
OpenBLAS Warning : Detect OpenMP Loop and this application may hang. Please rebuild the library with USE_OPENMP=1 option.
OpenBLAS Warning : Detect OpenMP Loop and this application may hang. Please rebuild the library with USE_OPENMP=1 option.
OpenBLAS Warning : Detect OpenMP Loop and this application may hang. Please rebuild the library with USE_OPENMP=1 option.
OpenBLAS Warning : Detect OpenMP Loop and this application may hang. Please rebuild the library with USE_OPENMP=1 option.
OpenBLAS Warning : Detect OpenMP Loop and this application may hang. Please rebuild the library with USE_OPENMP=1 option.
OpenBLAS Warning : Detect OpenMP Loop and this application may hang. Please rebuild the library with USE_OPENMP=1 option.
OpenBLAS Warning : Detect OpenMP Loop and this application may hang. Please rebuild the library with USE_OPENMP=1 option.
OpenBLAS Warning : Detect OpenMP Loop and this application may hang. Please rebuild the library with USE_OPENMP=1 option.
OpenBLAS Warning : Detect OpenMP Loop and this application may hang. Please rebuild the library with USE_OPENMP=1 option.
OpenBLAS Warning : Detect OpenMP Loop and this application may hang. Please rebuild the library with USE_OPENMP=1 option.
OpenBLAS Warning : Detect OpenMP Loop and this application may hang. Please rebuild the library with USE_OPENMP=1 option.
OpenBLAS Warning : Detect OpenMP Loop and this application may hang. Please rebuild the library with USE_OPENMP=1 option.
OpenBLAS Warning : Detect OpenMP Loop and this application may hang. Please rebuild the library with USE_OPENMP=1 option.
OpenBLAS Warning : Detect OpenMP Loop and this application may hang. Please rebuild the library with USE_OPENMP=1 option.
OpenBLAS Warning : Detect OpenMP Loop and this application may hang. Please rebuild the library with USE_OPENMP=1 option.
OpenBLAS Warning : Detect OpenMP Loop and this application may hang. Please rebuild the library with USE_OPENMP=1 option.
OpenBLAS Warning : Detect OpenMP Loop and this application may hang. Please rebuild the library with USE_OPENMP=1 option.
OpenBLAS Warning : Detect OpenMP Loop and this application may hang. Please rebuild the library with USE_OPENMP=1 option.
OpenBLAS Warning : Detect OpenMP Loop and this application may hang. Please rebuild the library with USE_OPENMP=1 option.
OpenBLAS Warning : Detect OpenMP Loop and this application may hang. Please rebuild the library with USE_OPENMP=1 option.
OpenBLAS Warning : Detect OpenMP Loop and this application may hang. Please rebuild the library with USE_OPENMP=1 option.
OpenBLAS Warning : Detect OpenMP Loop and this application may hang. Please rebuild the library with USE_OPENMP=1 option.
OpenBLAS Warning : Detect OpenMP Loop and this application may hang. Please rebuild the library with USE_OPENMP=1 option.
OpenBLAS Warning : Detect OpenMP Loop and this application may hang. Please rebuild the library with USE_OPENMP=1 option.
OpenBLAS Warning : Detect OpenMP Loop and this application may hang. Please rebuild the library with USE_OPENMP=1 option.
OpenBLAS Warning : Detect OpenMP Loop and this application may hang. Please rebuild the library with USE_OPENMP=1 option.
OpenBLAS Warning : Detect OpenMP Loop and this application may hang. Please rebuild the library with USE_OPENMP=1 option.
OpenBLAS Warning : Detect OpenMP Loop and this application may hang. Please rebuild the library with USE_OPENMP=1 option.
OpenBLAS Warning : Detect OpenMP Loop and this application may hang. Please rebuild the library with USE_OPENMP=1 option.
OpenBLAS Warning : Detect OpenMP Loop and this application may hang. Please rebuild the library with USE_OPENMP=1 option.
OpenBLAS Warning : Detect OpenMP Loop and this application may hang. Please rebuild the library with USE_OPENMP=1 option.
OpenBLAS Warning : Detect OpenMP Loop and this application may hang. Please rebuild the library with USE_OPENMP=1 option.
OpenBLAS Warning : Detect OpenMP Loop and this application may hang. Please rebuild the library with USE_OPENMP=1 option.
OpenBLAS Warning : Detect OpenMP Loop and this application may hang. Please rebuild the library with USE_OPENMP=1 option.
OpenBLAS Warning : Detect OpenMP Loop and this application may hang. Please rebuild the library with USE_OPENMP=1 option.
OpenBLAS Warning : Detect OpenMP Loop and this application may hang. Please rebuild the library with USE_OPENMP=1 option.
OpenBLAS Warning : Detect OpenMP Loop and this application may hang. Please rebuild the library with USE_OPENMP=1 option.
OpenBLAS Warning : Detect OpenMP Loop and this application may hang. Please rebuild the library with USE_OPENMP=1 option.
OpenBLAS Warning : Detect OpenMP Loop and this application may hang. Please rebuild the library with USE_OPENMP=1 option.
OpenBLAS Warning : Detect OpenMP Loop and this application may hang. Please rebuild the library with USE_OPENMP=1 option.
OpenBLAS Warning : Detect OpenMP Loop and this application may hang. Please rebuild the library with USE_OPENMP=1 option.
OpenBLAS Warning : Detect OpenMP Loop and this application may hang. Please rebuild the library with USE_OPENMP=1 option.
OpenBLAS Warning : Detect OpenMP Loop and this application may hang. Please rebuild the library with USE_OPENMP=1 option.
OpenBLAS Warning : Detect OpenMP Loop and this application may hang. Please rebuild the library with USE_OPENMP=1 option.
OpenBLAS Warning : Detect OpenMP Loop and this application may hang. Please rebuild the library with USE_OPENMP=1 option.
OpenBLAS Warning : Detect OpenMP Loop and this application may hang. Please rebuild the library with USE_OPENMP=1 option.
OpenBLAS Warning : Detect OpenMP Loop and this application may hang. Please rebuild the library with USE_OPENMP=1 option.
OpenBLAS Warning : Detect OpenMP Loop and this application may hang. Please rebuild the library with USE_OPENMP=1 option.
OpenBLAS Warning : Detect OpenMP Loop and this application may hang. Please rebuild the library with USE_OPENMP=1 option.
OpenBLAS Warning : Detect OpenMP Loop and this application may hang. Please rebuild the library with USE_OPENMP=1 option.
OpenBLAS Warning : Detect OpenMP Loop and this application may hang. Please rebuild the library with USE_OPENMP=1 option.
OpenBLAS Warning : Detect OpenMP Loop and this application may hang. Please rebuild the library with USE_OPENMP=1 option.
OpenBLAS Warning : Detect OpenMP Loop and this application may hang. Please rebuild the library with USE_OPENMP=1 option.
OpenBLAS Warning : Detect OpenMP Loop and this application may hang. Please rebuild the library with USE_OPENMP=1 option.
OpenBLAS Warning : Detect OpenMP Loop and this application may hang. Please rebuild the library with USE_OPENMP=1 option.
OpenBLAS Warning : Detect OpenMP Loop and this application may hang. Please rebuild the library with USE_OPENMP=1 option.
OpenBLAS Warning : Detect OpenMP Loop and this application may hang. Please rebuild the library with USE_OPENMP=1 option.
OpenBLAS Warning : Detect OpenMP Loop and this application may hang. Please rebuild the library with USE_OPENMP=1 option.
OpenBLAS Warning : Detect OpenMP Loop and this application may hang. Please rebuild the library with USE_OPENMP=1 option.
OpenBLAS Warning : Detect OpenMP Loop and this application may hang. Please rebuild the library with USE_OPENMP=1 option.
OpenBLAS Warning : Detect OpenMP Loop and this application may hang. Please rebuild the library with USE_OPENMP=1 option.
OpenBLAS Warning : Detect OpenMP Loop and this application may hang. Please rebuild the library with USE_OPENMP=1 option.
OpenBLAS Warning : Detect OpenMP Loop and this application may hang. Please rebuild the library with USE_OPENMP=1 option.
OpenBLAS Warning : Detect OpenMP Loop and this application may hang. Please rebuild the library with USE_OPENMP=1 option.
OpenBLAS Warning : Detect OpenMP Loop and this application may hang. Please rebuild the library with USE_OPENMP=1 option.
OpenBLAS Warning : Detect OpenMP Loop and this application may hang. Please rebuild the library with USE_OPENMP=1 option.
OpenBLAS Warning : Detect OpenMP Loop and this application may hang. Please rebuild the library with USE_OPENMP=1 option.
OpenBLAS Warning : Detect OpenMP Loop and this application may hang. Please rebuild the library with USE_OPENMP=1 option.
OpenBLAS Warning : Detect OpenMP Loop and this application may hang. Please rebuild the library with USE_OPENMP=1 option.
OpenBLAS Warning : Detect OpenMP Loop and this application may hang. Please rebuild the library with USE_OPENMP=1 option.
OpenBLAS Warning : Detect OpenMP Loop and this application may hang. Please rebuild the library with USE_OPENMP=1 option.
OpenBLAS Warning : Detect OpenMP Loop and this application may hang. Please rebuild the library with USE_OPENMP=1 option.
OpenBLAS Warning : Detect OpenMP Loop and this application may hang. Please rebuild the library with USE_OPENMP=1 option.
OpenBLAS Warning : Detect OpenMP Loop and this application may hang. Please rebuild the library with USE_OPENMP=1 option.
OpenBLAS Warning : Detect OpenMP Loop and this application may hang. Please rebuild the library with USE_OPENMP=1 option.
OpenBLAS Warning : Detect OpenMP Loop and this application may hang. Please rebuild the library with USE_OPENMP=1 option.
OpenBLAS Warning : Detect OpenMP Loop and this application may hang. Please rebuild the library with USE_OPENMP=1 option.
OpenBLAS Warning : Detect OpenMP Loop and this application may hang. Please rebuild the library with USE_OPENMP=1 option.
OpenBLAS Warning : Detect OpenMP Loop and this application may hang. Please rebuild the library with USE_OPENMP=1 option.
OpenBLAS Warning : Detect OpenMP Loop and this application may hang. Please rebuild the library with USE_OPENMP=1 option.
OpenBLAS Warning : Detect OpenMP Loop and this application may hang. Please rebuild the library with USE_OPENMP=1 option.
OpenBLAS Warning : Detect OpenMP Loop and this application may hang. Please rebuild the library with USE_OPENMP=1 option.
OpenBLAS Warning : Detect OpenMP Loop and this application may hang. Please rebuild the library with USE_OPENMP=1 option.
OpenBLAS Warning : Detect OpenMP Loop and this application may hang. Please rebuild the library with USE_OPENMP=1 option.
OpenBLAS Warning : Detect OpenMP Loop and this application may hang. Please rebuild the library with USE_OPENMP=1 option.
OpenBLAS Warning : Detect OpenMP Loop and this application may hang. Please rebuild the library with USE_OPENMP=1 option.
OpenBLAS Warning : Detect OpenMP Loop and this application may hang. Please rebuild the library with USE_OPENMP=1 option.
OpenBLAS Warning : Detect OpenMP Loop and this application may hang. Please rebuild the library with USE_OPENMP=1 option.
OpenBLAS Warning : Detect OpenMP Loop and this application may hang. Please rebuild the library with USE_OPENMP=1 option.
OpenBLAS Warning : Detect OpenMP Loop and this application may hang. Please rebuild the library with USE_OPENMP=1 option.
OpenBLAS Warning : Detect OpenMP Loop and this application may hang. Please rebuild the library with USE_OPENMP=1 option.
OpenBLAS Warning : Detect OpenMP Loop and this application may hang. Please rebuild the library with USE_OPENMP=1 option.
OpenBLAS Warning : Detect OpenMP Loop and this application may hang. Please rebuild the library with USE_OPENMP=1 option.
OpenBLAS Warning : Detect OpenMP Loop and this application may hang. Please rebuild the library with USE_OPENMP=1 option.
OpenBLAS Warning : Detect OpenMP Loop and this application may hang. Please rebuild the library with USE_OPENMP=1 option.
OpenBLAS Warning : Detect OpenMP Loop and this application may hang. Please rebuild the library with USE_OPENMP=1 option.
OpenBLAS Warning : Detect OpenMP Loop and this application may hang. Please rebuild the library with USE_OPENMP=1 option.
OpenBLAS Warning : Detect OpenMP Loop and this application may hang. Please rebuild the library with USE_OPENMP=1 option.
OpenBLAS Warning : Detect OpenMP Loop and this application may hang. Please rebuild the library with USE_OPENMP=1 option.
OpenBLAS Warning : Detect OpenMP Loop and this application may hang. Please rebuild the library with USE_OPENMP=1 option.
OpenBLAS Warning : Detect OpenMP Loop and this application may hang. Please rebuild the library with USE_OPENMP=1 option.
OpenBLAS Warning : Detect OpenMP Loop and this application may hang. Please rebuild the library with USE_OPENMP=1 option.
OpenBLAS Warning : Detect OpenMP Loop and this application may hang. Please rebuild the library with USE_OPENMP=1 option.
OpenBLAS Warning : Detect OpenMP Loop and this application may hang. Please rebuild the library with USE_OPENMP=1 option.
OpenBLAS Warning : Detect OpenMP Loop and this application may hang. Please rebuild the library with USE_OPENMP=1 option.
OpenBLAS Warning : Detect OpenMP Loop and this application may hang. Please rebuild the library with USE_OPENMP=1 option.
OpenBLAS Warning : Detect OpenMP Loop and this application may hang. Please rebuild the library with USE_OPENMP=1 option.
OpenBLAS Warning : Detect OpenMP Loop and this application may hang. Please rebuild the library with USE_OPENMP=1 option.
OpenBLAS Warning : Detect OpenMP Loop and this application may hang. Please rebuild the library with USE_OPENMP=1 option.
OpenBLAS Warning : Detect OpenMP Loop and this application may hang. Please rebuild the library with USE_OPENMP=1 option.
OpenBLAS Warning : Detect OpenMP Loop and this application may hang. Please rebuild the library with USE_OPENMP=1 option.
OpenBLAS Warning : Detect OpenMP Loop and this application may hang. Please rebuild the library with USE_OPENMP=1 option.
OpenBLAS Warning : Detect OpenMP Loop and this application may hang. Please rebuild the library with USE_OPENMP=1 option.
OpenBLAS Warning : Detect OpenMP Loop and this application may hang. Please rebuild the library with USE_OPENMP=1 option.
        13        2.0000           -0.4850739             -13.1995
        14        2.0000           -0.4592744             -12.4975
        15        2.0000           -0.4394718             -11.9586
        16        2.0000           -0.4141720             -11.2702
        17        2.0000           -0.4022735             -10.9464 (HOMO)
        18                         -0.2761724              -7.5150 (LUMO)
        19                         -0.2304876              -6.2719
        20                         -0.1993176              -5.4237
        21                         -0.1353223              -3.6823
        22                          0.0040267               0.1096
       ...                                ...                  ...
        31                          1.1646206              31.6909
      -------------------------------------------------------------
                  HL-Gap            0.1261011 Eh            3.4314 eV
             Fermi-level           -0.3392229 Eh           -9.2307 eV

 SCC (total)                   0 d,  0 h,  0 min,  1.059 sec
 SCC setup                      ...        0 min,  0.023 sec (  2.181%)
 Dispersion                     ...        0 min,  0.036 sec (  3.398%)
 classical contributions        ...        0 min,  0.012 sec (  1.123%)
 integral evaluation            ...        0 min,  0.060 sec (  5.685%)
 iterations                     ...        0 min,  0.532 sec ( 50.222%)
 molecular gradient             ...        0 min,  0.396 sec ( 37.370%)
 printout                       ...        0 min,  0.000 sec (  0.015%)

         :::::::::::::::::::::::::::::::::::::::::::::::::::::
         ::                     SUMMARY                     ::
         :::::::::::::::::::::::::::::::::::::::::::::::::::::
         :: total energy             -18.814678741550 Eh    ::
         :: gradient norm              0.000742691810 Eh/a0 ::
         :: HOMO-LUMO gap              3.431386816990 eV    ::
         ::.................................................::
         :: SCC energy               -19.139835225327 Eh    ::
         :: -> isotropic ES            0.018303633040 Eh    ::
         :: -> anisotropic ES          0.005384648432 Eh    ::
         :: -> anisotropic XC          0.027021845208 Eh    ::
         :: -> dispersion             -0.006832455356 Eh    ::
         :: repulsion energy           0.325156483777 Eh    ::
         :: add. restraining           0.000000000000 Eh    ::
         :: total charge              -0.000000000000 e     ::
         :::::::::::::::::::::::::::::::::::::::::::::::::::::

           ------------------------------------------------- 
          |                Numerical Hessian                |
           ------------------------------------------------- 
step length          :   0.00500
SCC accuracy         :   0.30000
Hessian scale factor :   1.00000
frozen atoms in %    :   0.00000    0
RMS gradient         :   0.00074
estimated CPU  time      0.69 min
estimated wall time      0.12 min

writing file <hessian>.

 projected vibrational frequencies (cm⁻¹)
eigval :       -0.00    -0.00     0.00     0.00     0.00     0.00
eigval :      158.44   158.52   470.14   538.98   590.62   591.19
eigval :      635.67   672.72   775.18   842.15   888.32   961.63
eigval :     1081.78  1117.67  1130.68  1263.58  1359.62  1388.60
eigval :     1425.02  1514.88  2373.68  3176.31  3188.64  3460.80
           -------------------------------------------------
          |                Property Printout                |
           -------------------------------------------------

    * Orbital Energies and Occupations

         #    Occupation            Energy/Eh            Energy/eV
      -------------------------------------------------------------
         1        2.0000           -0.7170393             -19.5116
       ...           ...                  ...                  ...
         5        2.0000           -0.6096713             -16.5900
         6        2.0000           -0.6023181             -16.3899
         7        2.0000           -0.5958299             -16.2134
         8        2.0000           -0.5655696             -15.3899
         9        2.0000           -0.5388693             -14.6634
        10        2.0000           -0.5160651             -14.0428
        11        2.0000           -0.5009727             -13.6322
        12        2.0000           -0.4993375             -13.5877
        13        2.0000           -0.4850738             -13.1995
        14        2.0000           -0.4592744             -12.4975
        15        2.0000           -0.4394716             -11.9586
        16        2.0000           -0.4141720             -11.2702
        17        2.0000           -0.4022735             -10.9464 (HOMO)
        18                         -0.2761724              -7.5150 (LUMO)
        19                         -0.2304876              -6.2719
        20                         -0.1993176              -5.4237
        21                         -0.1353224              -3.6823
        22                          0.0040266               0.1096
        23                          0.1070174               2.9121
        24                          0.1184606               3.2235
        25                          0.1675800               4.5601
        26                          0.2343521               6.3770
        27                          0.2494751               6.7886
        28                          0.4093113              11.1379
       ...                                ...                  ...
        31                          1.1646206              31.6909
      -------------------------------------------------------------
                  HL-Gap            0.1261011 Eh            3.4314 eV
             Fermi-level           -0.3392230 Eh           -9.2307 eV

     #   Z          covCN         q      C6AA      α(0)
     1   7 N        0.911    -0.207    25.496     7.303
     2   6 C        1.898     0.107    28.455     8.615
     3   6 C        3.205     0.133    24.558     8.071
     4   7 N        1.915    -0.239    27.094     7.718
     5   6 C        3.157     0.027    27.087     8.509
     6   6 C        3.029    -0.003    28.075     8.691
     7   7 N        2.814    -0.081    22.812     7.094
     8   1 H        0.926     0.048     2.349     2.397
     9   1 H        0.926     0.045     2.387     2.416
    10   1 H        0.860     0.170     1.272     1.767

 Mol. C6AA /au·bohr⁶  :       1598.415705
 Mol. C8AA /au·bohr⁸  :      38735.289477
 Mol. α(0) /au        :         62.580551


Wiberg/Mayer (AO) data.
largest (>0.10) Wiberg bond orders for each atom

 ---------------------------------------------------------------------------
     #   Z sym  total        # sym  WBO       # sym  WBO       # sym  WBO
 ---------------------------------------------------------------------------
     1   7 N    3.009 --     2 C    2.801
     2   6 C    3.954 --     1 N    2.801     3 C    1.099
     3   6 C    3.955 --     4 N    1.455     7 N    1.192     2 C    1.099
                             6 C    0.113
     4   7 N    3.040 --     3 C    1.455     5 C    1.350     7 N    0.106
     5   6 C    3.978 --     6 C    1.528     4 N    1.350     8 H    0.969
     6   6 C    3.949 --     5 C    1.528     7 N    1.251     9 H    0.969
                             3 C    0.113
     7   7 N    3.603 --     6 C    1.251     3 C    1.192    10 H    0.943
                             4 N    0.106
     8   1 H    0.996 --     5 C    0.969
     9   1 H    0.997 --     6 C    0.969
    10   1 H    0.971 --     7 N    0.943
 ---------------------------------------------------------------------------

Topologies differ in total number of bonds
Writing topology from bond orders to xtbtopo.mol

molecular dipole:
                 x           y           z       tot (Debye)
 q only:       -0.973      -0.877       0.282
   full:       -1.522      -1.417       0.458       5.412
molecular quadrupole (traceless):
                xx          xy          yy          xz          yz          zz
 q only:       -4.937      -1.229       3.064       0.224      -0.539       1.873
Molecule has the following symmetry elements: (sigma) 
It seems to be the Cs point group
  q+dip:       -7.889      -1.972       5.043       0.366      -0.984       2.846
   full:       -9.741      -1.877       5.090       0.203      -0.254       4.651

           -------------------------------------------------
          |                Geometry Summary                 |
           -------------------------------------------------

      molecular mass/u    :       93.0868755
   center of mass at/Å    :        0.5206467       0.1807850      -0.0477007
  moments of inertia/u·Å² :        0.5366206E+02   0.2416340E+03   0.2952961E+03
rotational constants/cm⁻¹ :        0.3141443E+00   0.6976514E-01   0.5708722E-01

 * 9 selected distances

     #   Z          #   Z                                           value/Å
     1   7 N        2   6 C                                       1.1466969
     3   6 C        4   7 N                                       1.3156013
     4   7 N        5   6 C                                       1.3463320
     5   6 C        6   6 C                                       1.3728767 (max)
     3   6 C        7   7 N                                       1.3681639
     6   6 C        7   7 N                                       1.3575093
     5   6 C        8   1 H                                       1.0710600
     6   6 C        9   1 H                                       1.0704267
     7   7 N       10   1 H                                       1.0076283 (min)

 * 4 distinct bonds (by element types)

   Z      Z             #   av. dist./Å        max./Å        min./Å
   1 H    6 C           2     1.0707433     1.0710600     1.0704267
   6 C    6 C           1     1.3728767     1.3728767     1.3728767
   1 H    7 N           1     1.0076283     1.0076283     1.0076283
   6 C    7 N           5     1.3068607     1.3681639     1.1466969

           -------------------------------------------------
          |               Frequency Printout                |
           -------------------------------------------------
 projected vibrational frequencies (cm⁻¹)
eigval :       -0.00    -0.00     0.00     0.00     0.00     0.00
eigval :      158.44   158.52   470.14   538.98   590.62   591.19
eigval :      635.67   672.72   775.18   842.15   888.32   961.63
eigval :     1081.78  1117.67  1130.68  1263.58  1359.62  1388.60
eigval :     1425.02  1514.88  2373.68  3176.31  3188.64  3460.80
 reduced masses (amu)
   1: 12.92   2: 12.08   3: 12.80   4: 11.96   5: 12.61   6: 11.54   7: 12.44   8: 12.07
   9: 12.23  10: 12.06  11: 10.74  12: 12.76  13:  3.72  14: 11.20  15:  3.48  16:  3.21
  17: 11.66  18:  8.62  19:  2.77  20:  6.63  21:  4.38  22: 12.46  23: 11.36  24: 11.85
  25: 11.29  26: 11.98  27: 12.78  28:  1.82  29:  1.97  30:  1.88
 IR intensities (km·mol⁻¹)
   1:  0.36   2:  1.19   3:  2.64   4:  3.07   5:  1.05   6:  9.78   7:  7.99   8:  4.83
   9: 13.16  10:  8.91  11:  5.31  12:  2.16  13: 86.10  14:  0.13  15:  6.30  16:  5.76
  17:  3.29  18:  3.67  19: 27.89  20:  0.29  21: 20.87  22: 17.43  23: 67.32  24:  6.79
  25: 54.28  26: 18.16  27:252.92  28:  2.91  29: 13.87  30: 14.02
 Raman intensities (Ä⁴*amu⁻¹)
   1:  0.00   2:  0.00   3:  0.00   4:  0.00   5:  0.00   6:  0.00   7:  0.00   8:  0.00
   9:  0.00  10:  0.00  11:  0.00  12:  0.00  13:  0.00  14:  0.00  15:  0.00  16:  0.00
  17:  0.00  18:  0.00  19:  0.00  20:  0.00  21:  0.00  22:  0.00  23:  0.00  24:  0.00
  25:  0.00  26:  0.00  27:  0.00  28:  0.00  29:  0.00  30:  0.00
 output can be read by thermo (or use thermo option).
 writing <g98.out> molden fake output.
 recommended (thermochemical) frequency scaling factor: 1.0
           -------------------------------------------------
          |             Thermodynamic Functions             |
           -------------------------------------------------

cs  symmetry found (for desy threshold:  0.10E+00) used in thermo

          ...................................................
          :                      SETUP                      :
          :.................................................:
          :  # frequencies                          24      :
Note: The following floating-point exceptions are signalling: IEEE_UNDERFLOW_FLAG IEEE_DENORMAL
normal termination of xtb
          :  # imaginary freq.                       0      :
          :  linear?                             false      :
          :  only rotor calc.                    false      :
          :  symmetry                               cs      :
          :  rotational number                       1      :
          :  scaling factor                  1.0000000      :
          :  rotor cutoff                   50.0000000 cm⁻¹ :
          :  imag. cutoff                  -20.0000000 cm⁻¹ :
          :.................................................:

    mode    ω/cm⁻¹     T·S(HO)/kcal·mol⁻¹    T·S(FR)/kcal·mol⁻¹   T·S(vib)
   ------------------------------------------------------------------------
       1    158.44    -0.76576 ( 99.02%)    -0.71473 (  0.98%)    -0.76526
       2    158.52    -0.76545 ( 99.02%)    -0.71456 (  0.98%)    -0.76495
   ------------------------------------------------------------------------

   temp. (K)  partition function   enthalpy   heat capacity  entropy
                                   cal/mol     cal/K/mol   cal/K/mol   J/K/mol
 298.15  VIB   5.65                 1670.573     13.790      9.040
         ROT  0.149E+06              888.752      2.981     26.659
         INT  0.844E+06             2559.325     16.771     35.699
         TR   0.869E+27             1481.254      4.968     39.487
         TOT                        4040.5792    21.7389    75.1855   314.5760

       T/K    H(0)-H(T)+PV         H(T)/Eh          T*S/Eh         G(T)/Eh
   ------------------------------------------------------------------------
    298.15    0.643907E-02    0.742484E-01    0.357230E-01    0.385253E-01
   ------------------------------------------------------------------------

         :::::::::::::::::::::::::::::::::::::::::::::::::::::
         ::                  THERMODYNAMIC                  ::
         :::::::::::::::::::::::::::::::::::::::::::::::::::::
         :: total free energy         -18.776153432798 Eh   ::
         ::.................................................::
         :: total energy              -18.814678741549 Eh   ::
         :: zero point energy           0.067809278820 Eh   ::
         :: G(RRHO) w/o ZPVE           -0.029283970070 Eh   ::
         :: G(RRHO) contrib.            0.038525308750 Eh   ::
         :::::::::::::::::::::::::::::::::::::::::::::::::::::

optimized geometry written to: xtbopt.xyz


           -------------------------------------------------
          | TOTAL ENERGY              -18.814678741549 Eh   |
          | TOTAL ENTHALPY            -18.740430389970 Eh   |
          | TOTAL FREE ENERGY         -18.776153432798 Eh   |
          | GRADIENT NORM               0.000742808681 Eh/α |
          | HOMO-LUMO GAP               3.431386847268 eV   |
           -------------------------------------------------

------------------------------------------------------------------------
 * finished run on 2026/08/15 at 00:32:30.277     
------------------------------------------------------------------------
 total:
 * wall-time:     0 d,  0 h,  0 min, 22.091 sec
 *  cpu-time:     0 d,  0 h,  2 min, 10.687 sec
 * ratio c/w:     5.916 speedup
 SCF:
 * wall-time:     0 d,  0 h,  0 min,  2.720 sec
 *  cpu-time:     0 d,  0 h,  0 min, 15.929 sec
 * ratio c/w:     5.856 speedup
 ANC optimizer:
 * wall-time:     0 d,  0 h,  0 min, 11.540 sec
 *  cpu-time:     0 d,  0 h,  1 min,  8.146 sec
 * ratio c/w:     5.905 speedup
 analytical hessian:
 * wall-time:     0 d,  0 h,  0 min,  7.479 sec
 *  cpu-time:     0 d,  0 h,  0 min, 44.618 sec
 * ratio c/w:     5.966 speedup

