10
 energy: -18.814678741550 gnorm: 0.000742691810 xtb: 6.7.1 (edcfbbe)
N            3.32578548648273        0.19375051545508        0.03989865847903
C            2.18115457058262        0.23736585363154       -0.01331055905870
C            0.77800730234942        0.24596926661856       -0.06261836456932
N            0.01542734462979        1.24689160352397       -0.44658803281211
C           -1.25362960134574        0.81207257619325       -0.33241145040086
C           -1.27563196922198       -0.48030740053008        0.13025460258090
N            0.02335870833964       -0.83594428716887        0.30048042282028
H           -2.07553568818982        1.44950843935185       -0.58797981228034
H           -2.08688894780256       -1.14571279867556        0.34217636018888
H            0.36795280417588       -1.72359376839982        0.63009816505220
