      -----------------------------------------------------------      
     |                   =====================                   |     
     |                           x T B                           |     
     |                   =====================                   |     
     |                         S. Grimme                         |     
     |          Mulliken Center for Theoretical Chemistry        |     
     |                    University of Bonn                     |     
      -----------------------------------------------------------      

   * xtb version 6.7.1 (edcfbbe) compiled by 'conda@5dfe00f5fb80' on 2026-06-10

   xtb is free software: you can redistribute it and/or modify it under
   the terms of the GNU Lesser General Public License as published by
   the Free Software Foundation, either version 3 of the License, or
   (at your option) any later version.
   
   xtb is distributed in the hope that it will be useful,
   but WITHOUT ANY WARRANTY; without even the implied warranty of
   MERCHANTABILITY or FITNESS FOR A PARTICULAR PURPOSE.  See the
   GNU Lesser General Public License for more details.
   
   Cite this work as:
   * C. Bannwarth, E. Caldeweyher, S. Ehlert, A. Hansen, P. Pracht,
     J. Seibert, S. Spicher, S. Grimme, WIREs Comput. Mol. Sci., 2020, 11,
     e01493. DOI: 10.1002/wcms.1493
   
   for GFN2-xTB:
   * C. Bannwarth, S. Ehlert and S. Grimme., J. Chem. Theory Comput., 2019,
     15, 1652-1671. DOI: 10.1021/acs.jctc.8b01176
   for GFN1-xTB:
   * S. Grimme, C. Bannwarth, P. Shushkov, J. Chem. Theory Comput., 2017,
     13, 1989-2009. DOI: 10.1021/acs.jctc.7b00118
   for GFN0-xTB:
   * P. Pracht, E. Caldeweyher, S. Ehlert, S. Grimme, ChemRxiv, 2019, preprint.
     DOI: 10.26434/chemrxiv.8326202.v1
   for GFN-FF:
   * S. Spicher and S. Grimme, Angew. Chem. Int. Ed., 2020, 59, 15665-15673.
     DOI: 10.1002/anie.202004239
   
   for ALPB and GBSA implicit solvation:
   * S. Ehlert, M. Stahn, S. Spicher, S. Grimme, J. Chem. Theory Comput.,
     2021, 17, 4250-4261. DOI: 10.1021/acs.jctc.1c00471
   
   for ddCOSMO and CPCM-X implicit solvation:
   * M. Stahn, S. Ehlert, S. Grimme, J. Phys. Chem. A,
     2023, XX, XXXX-XXXX. DOI: 10.1021/acs.jpca.3c04382
   
   for DFT-D4:
   * E. Caldeweyher, C. Bannwarth and S. Grimme, J. Chem. Phys., 2017,
     147, 034112. DOI: 10.1063/1.4993215
   * E. Caldeweyher, S. Ehlert, A. Hansen, H. Neugebauer, S. Spicher,
     C. Bannwarth and S. Grimme, J. Chem. Phys., 2019, 150, 154122.
     DOI: 10.1063/1.5090222
   * E. Caldeweyher, J.-M. Mewes, S. Ehlert and S. Grimme, Phys. Chem. Chem. Phys.
     2020, 22, 8499-8512. DOI: 10.1039/D0CP00502A
   
   for sTDA-xTB:
   * S. Grimme and C. Bannwarth, J. Chem. Phys., 2016, 145, 054103.
     DOI: 10.1063/1.4959605
   
   in the mass-spec context:
   * V. Asgeirsson, C. Bauer and S. Grimme, Chem. Sci., 2017, 8, 4879.
     DOI: 10.1039/c7sc00601b
   * J. Koopman and S. Grimme, ACS Omega 2019, 4, 12, 15120-15133.
     DOI: 10.1021/acsomega.9b02011
   
   for metadynamics refer to:
   * S. Grimme, J. Chem. Theory Comput., 2019, 155, 2847-2862
     DOI: 10.1021/acs.jctc.9b00143
   
   for SPH calculations refer to:
   * S. Spicher and S. Grimme, J. Chem. Theory Comput., 2021, 17, 1701-1714
     DOI: 10.1021/acs.jctc.0c01306
   
   for ONIOM refer to:
   * C. Plett, A. Katbashev, S. Ehlert, S. Grimme, M. Bursch,
     Phys. Chem. Chem. Phys., 2023, 25, 17860-17868. DOI: 10.1039/D3CP02178E
   
   for DIPRO refer to:
   * J. Kohn, N. Gildemeister, S. Grimme, D. Fazzi, A. Hansen,
     J. Chem. Phys., 2023, just accepted.
   
   for PTB refer to:
   * S. Grimme, M. Mueller, A. Hansen, J. Chem. Phys., 2023, 158, 124111.
     DOI: 10.1063/5.0137838
   
   with help from (in alphabetical order)
   P. Atkinson, C. Bannwarth, F. Bohle, G. Brandenburg, E. Caldeweyher
   M. Checinski, S. Dohm, S. Ehlert, S. Ehrlich, I. Gerasimov, C. Hölzer
   A. Katbashev, J. Kohn, J. Koopman, C. Lavigne, S. Lehtola, F. März, M. Müller,
   F. Musil, H. Neugebauer, J. Pisarek, C. Plett, P. Pracht, F. Pultar,
   J. Seibert, P. Shushkov, S. Spicher, M. Stahn, M. Steiner, T. Strunk,
   J. Stückrath, T. Rose, and J. Unsleber
   
 * started run on 2026/09/03 at 03:16:52.746     
   ID    Z sym.   atoms
    1    6 C      1-240
    2   17 Cl     241-258
    3    1 H      259-402
    4    7 N      403-528
    5    8 O      529-588
    6   30 Zn     589-612

           -------------------------------------------------
          |                Calculation Setup                |
           -------------------------------------------------

          program call               : /home/leehk/miniconda3/envs/spectra/bin/xtb POSCAR --gfnff --opt
          coordinate file            : POSCAR
          omp threads                :                     3


molecular fragmentation (1/2 indicates fragments):
111111111111111111111222111111111122211111212111112221111211211111111111
111111111111111111121111122211112211112211111111111111122211112122111111
111122211111111111111111111111111111111122111111111111111111111111111111
111111111111122111112211211121112121211111111111111121212211111112211122
211211121111121111112111121221122121122111112211121211122221111111111121
111211111112211211112111211111111121221111111111111111111111111111111111
111111121111111111111111111111111111111111111111111111111111111111111111
111111111111111111111111211112111212211122111111111121221121211121111112
211121211112111111111111111111111111
# atoms in fragment 1/2:   513    99
 fragment masses (1/2) :     7008.79      950.96
CMA distance (Bohr)    :   0.224
constraining FC (au)   :  0.0500

          ==================== Thresholds ====================
          CN  :   150.00000
          rep :   500.00000
          disp:  2500.00000
          HB1 :   250.00000
          HB2 :   450.00000

          Pauling EN used:
          Z : 1  EN :  2.20
          Z : 6  EN :  2.55
          Z : 7  EN :  3.04
          Z : 8  EN :  3.44
          Z :17  EN :  3.16
          Z :30  EN :  1.65
          electric field strengths (au): 0.000

           ------------------------------------------------- 
          |           Force Field Initialization            |
           ------------------------------------------------- 

          distances ...
          ----------------------------------------
          generating topology and atomic info file ...
          pair mat ...
          computing topology distances matrix with Floyd-Warshall algo ...
          making topology EEQ charges ...
          #fragments for EEQ constrain: 1
          ----------------------------------------
          generating topology and atomic info file ...
          pair mat ...
          computing topology distances matrix with Floyd-Warshall algo ...
          making topology EEQ charges ...
          #fragments for EEQ constrain: 1
          rings ...
          # BATM   9792
          # H in HB   144
          doing iterative Hueckel for 48 subsystem(s) ...

  atom   neighbors  erfCN metchar sp-hybrid imet pi  qest     coordinates
    1  C       3    2.94   0.00         2    0    1   0.030    8.316394   12.487602   17.513864
    2  C       3    2.94   0.00         2    0    1   0.035   40.717223   12.505527   17.572637
    3  C       3    2.82   0.00         2    0    1   0.033   42.793127    8.528823   17.398782
    4  C       3    2.84   0.00         2    0    1  -0.016   40.745158   10.032417   16.736554
    5  C       3    2.95   0.00         2    0    1   0.011   31.047922   16.650695   15.332152
    6  C       3    2.94   0.00         2    0    1   0.012   39.791656   15.354567   10.558116
    7  C       3    2.94   0.00         2    0    1   0.033   34.620900   10.091095   18.474848
    8  C       3    2.82   0.00         2    0    1  -0.007   35.314418    9.345438   22.852956
    9  C       3    2.81   0.00         2    0    1  -0.013   35.580599   10.902713   20.784182
   10  C       3    2.95   0.00         2    0    1   0.035   15.128060    1.252326   17.461292
   11  C       3    2.82   0.00         2    0    1   0.033   10.654239    1.549570   17.199942
   12  C       3    2.84   0.00         2    0    1  -0.016   13.017494    2.495563   16.556649
   13  C       3    2.95   0.00         2    0    1   0.012   23.612395    7.527464   15.339784
   14  C       3    2.81   0.00         2    0    1  -0.016   22.240934   25.509439   20.840958
   15  C       3    2.94   0.00         2    0    1   0.033   16.090361    7.696216   18.454013
   16  C       3    2.81   0.00         2    0    1  -0.013   16.286211    6.438296   20.754462
   17  C       3    2.94   0.00         2    0    1   0.035    6.610745   13.644435   35.682006
   18  C       3    2.82   0.00         2    0    1   0.033    4.267866    9.812396   35.737347
   19  C       3    2.84   0.00         2    0    1  -0.016    4.467977   12.321881   34.988672
   20  C       3    2.95   0.00         2    0    1   0.011    5.051369   24.119066   33.627517
   21  C       3    2.94   0.00         2    0    1   0.011    8.141617   16.140133   28.685268
   22  C       3    2.94   0.00         2    0    1   0.035    1.509250   17.602722    0.286926
   23  C       3    2.82   0.00         2    0    1   0.033    1.747834   16.475343    4.635053
   24  C       3    2.85   0.00         2    0    1  -0.016    2.960615   17.008206    2.374243
   25  C       3    2.94   0.00         2    0    1   0.034  -16.218070   30.131472   35.619029
   26  C       3    2.82   0.00         2    0    1   0.033  -18.357022   34.079040   35.645014
   27  C       3    2.84   0.00         2    0    1  -0.016  -16.305098   32.632901   34.875087
   28  C       3    2.82   0.00         2    0    1  -0.007   15.045889    7.428542   22.817278
   29  C       3    2.95   0.00         2    0    1   0.011   -6.451472   26.206600   33.557337
   30  C       3    2.84   0.00         2    0    1  -0.014   23.762326   25.989998   22.889794
   31  C       3    2.94   0.00         2    0    1   0.010   16.160374   26.672067   10.565008
   32  C       3    2.81   0.00         2    0    1  -0.015    8.322254    9.938615    1.172364
   33  C       3    2.95   0.00         2    0    1   0.010   18.194432   16.499542    2.995330
   34  C       3    2.94   0.00         2    0    1   0.010    9.612027   15.331795    7.769002
   35  C       3    2.94   0.00         2    0    1   0.032   14.726298    9.803842   36.538011
   36  C       3    2.84   0.00         2    0    1  -0.014   14.077302    9.050950   32.153996
   37  C       3    2.81   0.00         2    0    1  -0.015   13.728495   10.577896   34.225221
   38  C       3    2.94   0.00         2    0    1   0.032   34.414997    0.986698    0.496563
   39  C       3    2.85   0.00         2    0    1  -0.014   38.902543    0.796787    0.289137
   40  C       3    2.81   0.00         2    0    1  -0.015   36.763174    1.991744    1.145587
   41  C       3    2.95   0.00         2    0    1   0.009   26.104654    7.557453    2.922923
   42  C       3    2.94   0.00         2    0    1   0.010   31.252670    0.662107    7.795572
   43  C       3    2.94   0.00         2    0    1   0.032   33.557098    7.855597   36.514837
   44  C       3    2.94   0.00         2    0    1   0.033   23.382173   25.061840   18.509085
   45  C       3    2.84   0.00         2    0    1  -0.014   34.509826    7.723574   32.125667
   46  C       3    2.94   0.00         2    0    1   0.033   31.164411   29.101335    0.528865
   47  C       3    2.85   0.00         2    0    1  -0.014   28.972547   33.020578    0.410102
   48  C       3    2.81   0.00         2    0    1  -0.015   29.076088   30.555984    1.218772
   49  C       3    2.95   0.00         2    0    1   0.011   29.868193   18.682351    2.977239
   50  C       3    2.94   0.00         2    0    1   0.011   33.227218   26.717598    7.808768
   51  C       3    2.94   0.00         2    0    1   0.032   25.931488   24.916309   36.557499
   52  C       3    2.82   0.00         2    0    1  -0.007   25.663125   25.921555   32.186395
   53  C       3    2.81   0.00         2    0    1  -0.012   27.130709   25.358767   34.260060
   54  C       3    2.94   0.00         2    0    1   0.033   18.071745   28.974576   17.619631
   55  C       3    2.82   0.00         2    0    1   0.033   20.473638   32.766924   17.529291
   56  C       3    2.85   0.00         2    0    1  -0.016   20.220877   30.243366   16.852423
   57  C       3    2.95   0.00         2    0    1   0.011   19.377946   18.529879   15.336246
   58  C       3    2.81   0.00         2    0    1  -0.015   33.375430    6.629957   34.189782
   59  C       3    2.94   0.00         2    0    1   0.011  -15.085547   27.334142   28.807584
   60  C       3    2.95   0.00         2    0    1   0.034  -10.216744   32.563524   36.662791
   61  C       3    2.82   0.00         2    0    1   0.033  -11.147005   32.750002    4.375031
   62  C       3    2.98   0.00         2    0    1   0.051   33.967581   19.589885    3.252216
   63  C       3    2.98   0.00         2    0    1   0.053   24.822191    3.559809    3.153425
   64  C       3    3.00   0.00         2    0    1   0.048   13.436059   14.143928    9.022057
   65  C       3    3.00   0.00         2    0    1   0.048   30.395310    4.576956    9.036611
   66  C       3    3.00   0.00         2    0    1   0.054   30.271194   24.007545    9.047031
   67  C       3    3.00   0.00         2    0    1   0.052   10.884385   28.598625   27.590387
   68  C       3    3.00   0.00         2    0    1   0.048   -5.714413   38.101145   27.614326
   69  C       3    3.00   0.00         2    0    1   0.053   -5.450732   18.629166   27.630614
   70  C       3    3.00   0.00         2    0    1   0.054    5.365154   19.020765   27.421515
   71  C       3    3.00   0.00         2    0    1   0.052  -11.257303   28.383342   27.433136
   72  C       3    3.00   0.00         2    0    1   0.054    5.450511   37.871053   27.406886
   73  C       3    3.00   0.00         2    0    1   0.050   19.064296   23.911325    9.317497
   74  C       3    2.98   0.00         2    0    1   0.050   15.377193   19.608374    3.295675
   75  C       3    3.00   0.00         2    0    1   0.052   35.931046   14.291285    9.300084
   76  C       3    2.98   0.00         2    0    1   0.033   16.419310    9.204531   14.527248
   77  C       3    2.98   0.00         2    0    1   0.033   33.217670    9.588125   14.527408
   78  C       3    2.98   0.00         2    0    1   0.034   24.450979   24.004116   14.575393
   79  C       3    2.98   0.00         2    0    1   0.033    8.319179   33.278130   33.231256
   80  C       3    2.98   0.00         2    0    1   0.033   -8.473197   33.380822   32.924904
   81  C       3    2.98   0.00         2    0    1   0.034   -0.018682   18.832272   33.241016
   82  C       3    2.98   0.00         2    0    1   0.033    0.131923   18.786769   21.770252
   83  C       3    2.98   0.00         2    0    1   0.029   -8.574546   33.058273   22.161812
   84  C       3    2.98   0.00         2    0    1   0.033    8.174166   33.347978   21.783165
   85  C       3    2.98   0.00         2    0    1   0.033   24.775397   23.919980    3.814247
   86  C       3    2.98   0.00         2    0    1   0.029   33.185087    9.315518    3.772611
   87  C       3    2.98   0.00         2    0    1   0.033   16.255302    9.405497    3.767724
   88  C       3    3.00   0.00         2    0    1   0.055   19.329550    4.687000    9.225891
   89  C       3    2.98   0.00         2    0    1   0.049   -0.252535   39.116611   21.562764
   90  C       3    2.98   0.00         2    0    1   0.051   -9.172295   22.894903   21.618804
   91  C       3    2.98   0.00         2    0    1   0.053    9.164052   23.260194   21.498664
   92  C       3    2.85   0.00         2    0    1  -0.016  -11.388046   31.525373    2.075511
   93  C       3    2.94   0.00         2    0    1   0.035    9.618806   41.505470   35.592011
   94  C       3    2.82   0.00         2    0    1   0.033   14.102635   41.277336   35.500484
   95  C       3    2.84   0.00         2    0    1  -0.016   11.780755   40.280983   34.786556
   96  C       3    2.95   0.00         2    0    1   0.012    1.251139   35.104290   33.671911
   97  C       3    2.94   0.00         2    0    1   0.011    6.617087   41.708054   28.640132
   98  C       3    2.94   0.00         2    0    1   0.035    8.651985   35.234687    0.268342
   99  C       3    2.82   0.00         2    0    1   0.033    9.518135   36.003322    4.616228
  100  C       3    2.85   0.00         2    0    1  -0.016    8.457391   36.794314    2.354145
  101  C       3    2.98   0.00         2    0    1   0.029    9.523838   16.487230   18.108623
  102  C       3    2.98   0.00         2    0    1   0.029    5.566678   42.682388   18.180468
  103  C       3    2.98   0.00         2    0    1   0.034   34.034569   26.009480   18.183404
  104  C       3    2.98   0.00         2    0    1   0.029   15.027075   26.233668    0.157582
  105  C       3    2.98   0.00         2    0    1   0.033   -5.554210   42.605155    0.148631
  106  C       3    2.98   0.00         2    0    1   0.033   -9.269702   16.721588    0.182195
  107  C       3    2.98   0.00         2    0    1   0.033   15.009505   26.207197   18.471037
  108  C       3    2.98   0.00         2    0    1   0.030   -5.659979   42.593026   18.480215
  109  C       3    2.98   0.00         2    0    1   0.034   -9.417919   16.532901   18.494413
  110  C       3    2.98   0.00         2    0    1   0.033    9.552526   16.527790   36.579298
  111  C       3    2.98   0.00         2    0    1   0.033   30.350109    0.035780   36.568102
  112  C       3    2.98   0.00         2    0    1   0.034   34.109749   26.148336   36.541532
  113  C       3    2.98   0.00         2    0    1   0.049   15.278708   19.431608   15.055722
  114  C       3    2.98   0.00         2    0    1   0.051   24.926711    3.534463   15.154769
  115  C       3    2.98   0.00         2    0    1   0.055   33.868624   19.763603   15.095970
  116  C       3    2.98   0.00         2    0    1   0.053    9.163682   23.236989   33.503939
  117  C       3    2.98   0.00         2    0    1   0.053   -0.061429   39.100485   33.533018
  118  C       3    2.98   0.00         2    0    1   0.054   -9.237439   23.054585   33.418269
  119  C       3    2.85   0.00         2    0    1  -0.014    6.215256    8.623941    0.418238
  120  C       3    2.94   0.00         2    0    1   0.032    8.508148   12.485683    0.515905
  121  C       3    2.95   0.00         2    0    1   0.011   18.057533    0.913169   10.539172
  122  C       3    2.82   0.00         2    0    1   0.033   -1.708550   16.434119   13.714793
  123  C       3    2.94   0.00         2    0    1   0.032   -9.588769   41.545539   36.186955
  124  C       3    2.85   0.00         2    0    1  -0.014  -14.078267   41.632294   36.304172
  125  C       3    2.81   0.00         2    0    1  -0.015  -11.898441   40.470871   35.506794
  126  C       3    2.95   0.00         2    0    1   0.009   -1.340453   35.097284   33.720354
  127  C       3    2.94   0.00         2    0    1   0.010   -6.534631   42.022914   28.857093
  128  C       3    2.94   0.00         2    0    1   0.032   -8.835094   34.862682    0.174504
  129  C       3    2.84   0.00         2    0    1  -0.014   -9.766206   35.012279    4.567574
  130  C       3    2.81   0.00         2    0    1  -0.015   -8.628126   36.088651    2.497044
  131  C       3    2.93   0.00         2    0    1   0.032   -6.499059   13.596788   36.152058
  132  C       3    2.82   0.00         2    0    1  -0.007   -4.631496    9.507088   36.210318
  133  C       3    2.81   0.00         2    0    1  -0.012   -4.537850   11.994107   35.437688
  134  C       3    2.96   0.00         2    0    1   0.010   -5.138047   23.973360   33.635812
  135  C       3    2.81   0.00         2    0    1  -0.015   11.057963   32.140009    2.705898
  136  C       3    2.94   0.00         2    0    1   0.011   -8.455996   15.996065   28.899321
  137  C       3    2.84   0.00         2    0    1  -0.014   -0.905507   16.498779    4.798640
  138  C       3    2.81   0.00         2    0    1  -0.015   -2.370615   17.039963    2.720283
  139  C       3    2.95   0.00         2    0    1   0.034    6.504887   13.711466   19.076536
  140  C       3    2.82   0.00         2    0    1   0.033    4.135117    9.903403   19.274623
  141  C       3    2.84   0.00         2    0    1  -0.016    4.392789   12.433586   19.926517
  142  C       3    2.95   0.00         2    0    1   0.010    5.055887   24.148161   21.313760
  143  C       3    2.95   0.00         2    0    1   0.010    8.079067   16.122279   26.092391
  144  C       3    2.93   0.00         2    0    1   0.033    1.251680   17.616176   17.873027
  145  C       3    2.84   0.00         2    0    1  -0.014    0.941416   16.498445   13.516538
  146  C       3    2.81   0.00         2    0    1  -0.016    2.426150   17.064637   15.574477
  147  C       3    2.96   0.00         2    0    1   0.037  -15.909061   30.079524   19.027475
  148  C       3    2.82   0.00         2    0    1   0.012  -17.779647   34.147638   19.215235
  149  C       3    2.93   0.00         2    0    1   0.033   -1.175379   17.616622    0.438129
  150  C       3    2.84   0.00         2    0    1  -0.014   10.806728   33.684158    4.782152
  151  C       3    2.93   0.00         2    0    1   0.032    9.965046   32.893929    0.424624
  152  C       3    2.95   0.00         2    0    1   0.009   14.736638   27.654551   28.933815
  153  C       3    2.85   0.00         2    0    1  -0.014    5.988035    8.659770   17.840038
  154  C       3    2.81   0.00         2    0    1  -0.015    8.066359    9.926356   16.937320
  155  C       3    2.95   0.00         2    0    1   0.007   18.074798   16.291597   15.237156
  156  C       3    2.94   0.00         2    0    1   0.007    9.632179   15.309050   10.362560
  157  C       3    2.96   0.00         2    0    1   0.036   14.644879    9.944510   18.261005
  158  C       3    2.82   0.00         2    0    1   0.012   13.595327    9.628217   22.602750
  159  C       3    2.81   0.00         2    0    1  -0.009   13.391316   10.897720   20.340767
  160  C       3    2.94   0.00         2    0    1   0.030   34.275828    0.951231   17.568550
  161  C       3    2.85   0.00         2    0    1  -0.014   38.755954    0.863140   17.868460
  162  C       3    2.81   0.00         2    0    1  -0.015   36.611510    2.024182   16.980088
  163  C       3    2.95   0.00         2    0    1   0.007   26.202208    7.545267   15.231794
  164  C       3    2.94   0.00         2    0    1   0.007   31.236929    0.692860   10.388830
  165  C       3    2.96   0.00         2    0    1   0.036   33.386715    7.720096   18.283682
  166  C       3    2.82   0.00         2    0    1   0.012   34.132550    6.990120   22.637126
  167  C       3    2.85   0.00         2    0    1  -0.016   -2.898596   16.930084   15.995648
  168  C       3    2.93   0.00         2    0    1   0.033   31.387107   29.230066   17.455051
  169  C       3    2.82   0.00         2    0    1  -0.007   29.478581   33.285858   17.760974
  170  C       3    2.81   0.00         2    0    1  -0.013   29.398024   30.844710   16.857102
  171  C       3    2.96   0.00         2    0    1   0.011   29.752431   18.894038   15.238920
  172  C       3    2.94   0.00         2    0    1   0.012   33.176888   26.721826   10.401886
  173  C       3    2.95   0.00         2    0    1   0.034   26.060617   25.147349   18.287755
  174  C       3    2.82   0.00         2    0    1   0.033   26.409157   26.063987   22.669197
  175  C       3    2.85   0.00         2    0    1  -0.016   27.564530   25.660084   20.358249
  176  C       3    2.94   0.00         2    0    1   0.032   16.164431   30.235216   36.121804
  177  C       3    2.85   0.00         2    0    1  -0.014   18.503359   34.069021   36.228169
  178  C       3    2.81   0.00         2    0    1  -0.015   16.408885   32.765160   35.420008
  179  C       3    2.95   0.00         2    0    1   0.009    6.352366   26.359587   33.701641
  180  C       3    2.81   0.00         2    0    1  -0.009  -15.828098   32.551015   19.862523
  181  C       3    2.95   0.00         2    0    1   0.008   -6.380539   26.034334   21.378782
  182  C       3    2.81   0.00         2    0    1  -0.009   33.154724    6.171548   20.369597
  183  C       3    2.94   0.00         2    0    1   0.030   -9.971098   32.538961   18.214870
  184  C       3    2.95   0.00         2    0    1   0.035   16.051610    7.471364    0.039734
  185  C       3    2.82   0.00         2    0    1   0.033   15.370258    6.736104   32.338531
  186  C       3    2.85   0.00         2    0    1  -0.016   16.350838    5.933882   34.627887
  187  C       3    2.94   0.00         2    0    1   0.033   16.220388   30.195858   19.137500
  188  C       3    2.85   0.00         2    0    1  -0.014   18.575439   34.015929   18.900823
  189  C       3    2.81   0.00         2    0    1  -0.016   16.463226   32.754418   19.730933
  190  C       3    2.95   0.00         2    0    1   0.010    6.354964   26.389879   21.379124
  191  C       3    2.94   0.00         2    0    1   0.011   14.759137   27.581962   26.341364
  192  C       3    2.94   0.00         2    0    1   0.033   10.069679   32.654303   18.089557
  193  C       3    2.82   0.00         2    0    1   0.033   11.206957   32.998869   13.750649
  194  C       3    2.85   0.00         2    0    1  -0.016   11.340614   31.695963   16.019492
  195  C       3    2.93   0.00         2    0    1   0.030   -9.761397   41.796892   19.065275
  196  C       3    2.95   0.00         2    0    1   0.012   23.513454    7.555523    2.997531
  197  C       3    2.85   0.00         2    0    1  -0.014  -14.237224   42.054279   18.688940
  198  C       3    2.95   0.00         2    0    1   0.007   -1.581957   35.126854   21.469101
  199  C       3    2.94   0.00         2    0    1   0.007   -6.558327   41.985623   26.263775
  200  C       3    2.96   0.00         2    0    1   0.037   -8.767231   34.925298   18.406793
  201  C       3    2.82   0.00         2    0    1   0.012   -9.515089   35.646114   14.052299
  202  C       3    2.81   0.00         2    0    1  -0.009   -8.555478   36.478593   16.322165
  203  C       3    2.94   0.00         2    0    1   0.033   -6.608276   13.447192   19.143849
  204  C       3    2.85   0.00         2    0    1  -0.014   -4.487847    9.499966   18.833327
  205  C       3    2.81   0.00         2    0    1  -0.016   -4.529489   11.935169   19.731995
  206  C       3    2.95   0.00         2    0    1   0.011   -5.065075   23.802368   21.448926
  207  C       3    2.94   0.00         2    0    1   0.011   -8.444944   16.005321   26.304841
  208  C       3    2.94   0.00         2    0    1   0.033   -1.428869   17.536954   18.066568
  209  C       3    2.94   0.00         2    0    1   0.008  -15.122065   27.288979   26.214479
  210  C       3    2.81   0.00         2    0    1  -0.015  -12.149530   40.838859   19.640840
  211  C       3    2.84   0.00         2    0    1  -0.016   12.931492    2.234532    1.808309
  212  C       3    2.94   0.00         2    0    1   0.011   18.080685    0.885572    7.946272
  213  C       3    2.94   0.00         2    0    1   0.035   15.135876    1.042578    1.073737
  214  C       3    2.82   0.00         2    0    1  -0.007  -10.676911   33.280984   13.836779
  215  C       3    2.81   0.00         2    0    1  -0.012  -10.925984   31.720516   15.905332
  216  C       3    2.94   0.00         2    0    1   0.034    9.485245   41.454444   19.126360
  217  C       3    2.82   0.00         2    0    1   0.033   13.970909   41.318683   19.296802
  218  C       3    2.84   0.00         2    0    1  -0.016   11.656733   40.268579   19.959981
  219  C       3    2.95   0.00         2    0    1   0.011    1.008874   35.107342   21.394676
  220  C       3    2.95   0.00         2    0    1   0.010    6.637731   41.649190   26.047111
  221  C       3    2.93   0.00         2    0    1   0.033    8.679333   34.948347   17.909650
  222  C       3    2.84   0.00         2    0    1  -0.014    9.845148   35.274371   13.565171
  223  C       3    2.81   0.00         2    0    1  -0.016    8.602263   36.265630   15.623143
  224  C       3    2.95   0.00         2    0    1   0.031   18.010460   29.081413    1.020915
  225  C       3    2.82   0.00         2    0    1   0.033   10.646688    1.184174    1.050904
  226  C       3    2.84   0.00         2    0    1  -0.016   20.140370   30.391970    1.771223
  227  C       3    2.95   0.00         2    0    1   0.008   19.491440   18.740958    3.104641
  228  C       3    2.82   0.00         2    0    1   0.033   20.381042   32.892922    1.011579
  229  C       3    2.94   0.00         2    0    1   0.008   16.198391   26.667811    7.971363
  230  C       3    2.85   0.00         2    0    1  -0.016   36.067826   11.232743   34.627222
  231  C       3    2.82   0.00         2    0    1   0.033   35.860086   10.003403   32.327188
  232  C       3    2.94   0.00         2    0    1   0.008   39.776446   15.326491    7.964697
  233  C       3    2.95   0.00         2    0    1   0.008   31.171900   16.444725    3.084728
  234  C       3    2.81   0.00         2    0    1  -0.009   40.722035   10.171712    1.738317
  235  C       3    2.95   0.00         2    0    1   0.031   34.904533   10.173987    0.033887
  236  C       3    2.96   0.00         2    0    1   0.037   40.814962   12.680076    1.030902
  237  C       3    2.81   0.00         2    0    1  -0.009   21.816218   25.613211   34.643209
  238  C       3    2.82   0.00         2    0    1   0.012   23.031720   26.080126   32.390353
  239  C       3    2.96   0.00         2    0    1   0.037   23.258621   25.011786    0.055520
  240  C       3    2.82   0.00         2    0    1   0.012   42.641924    8.589302    0.978131
  241  Cl      1    1.06   0.00         0    0    1  -0.047    9.170956   37.904968    7.215145
  242  Cl      1    1.07   0.00         0    0    1  -0.047   42.813933    5.418486   16.516475
  243  Cl      1    1.07   0.00         0    0    1  -0.047   16.809537   39.733211   34.644694
  244  Cl      1    1.07   0.00         0    0    1  -0.047  -18.417368   37.232075   34.925730
  245  Cl      1    1.06   0.00         0    0    1  -0.047    3.572923   15.822004    7.229996
  246  Cl      1    1.07   0.00         0    0    1  -0.047    1.524615    8.206120   35.141448
  247  Cl      1    1.07   0.00         0    0    1  -0.047    8.007392    3.134224   16.234398
  248  Cl      1    1.07   0.00         0    0    1  -0.047   23.204128   34.329739   16.781395
  249  Cl      1    1.07   0.00         0    0    1  -0.047  -12.547075   31.408520    6.968642
  250  Cl      1    1.06   0.00         0    0    1  -0.047   12.707455   31.733813   11.172130
  251  Cl      1    1.07   0.00         0    0    1  -0.047   15.803595    4.836901   29.750398
  252  Cl      1    1.07   0.00         0    0    1  -0.047    7.894273    2.723447    1.767254
  253  Cl      1    1.07   0.00         0    0    1  -0.047   37.274972   11.354107   29.747028
  254  Cl      1    1.07   0.00         0    0    1  -0.047   23.046103   34.536090    1.819958
  255  Cl      1    1.07   0.00         0    0    1  -0.047   16.693013   39.798690   20.151402
  256  Cl      1    1.07   0.00         0    0    1  -0.047    1.460971    8.312715   20.151277
  257  Cl      1    1.07   0.00         0    0    1  -0.047   28.304145   26.607408   25.239294
  258  Cl      1    1.07   0.00         0    0    1  -0.047   -3.559334   15.795628   11.135093
  259  H       1    0.98   0.00         0    0    0   0.081   21.694849   29.272868   15.849134
  260  H       1    0.97   0.00         0    0    0   0.083   21.393155   18.799266   15.196101
  261  H       1    0.97   0.00         0    0    0   0.084   14.970486   27.807015   11.765602
  262  H       1    0.98   0.00         0    0    0   0.085   22.938983   26.263258   24.726113
  263  H       1    0.98   0.00         0    0    0   0.080   20.215796   25.457073   20.991861
  264  H       1    0.98   0.00         0    0    0   0.081   39.187934    9.279676   15.673656
  265  H       1    0.97   0.00         0    0    0   0.084   30.282411   14.770058   15.158823
  266  H       1    0.98   0.00         0    0    0   0.081   13.206299    4.182832   15.443304
  267  H       1    0.97   0.00         0    0    0   0.088   36.020446    9.912283   24.678301
  268  H       1    0.98   0.00         0    0    0   0.082   36.529732   12.695297   20.897260
  269  H       1    0.98   0.00         0    0    0   0.081   29.158294   25.283715   34.158659
  270  H       1    0.97   0.00         0    0    0   0.083   22.351310    9.117893   15.152354
  271  H       1    0.97   0.00         0    0    0   0.084   -7.287884   42.144795   11.776924
  272  H       1    0.97   0.00         0    0    0   0.088   15.169440    6.523279   24.638516
  273  H       1    0.98   0.00         0    0    0   0.084   -7.913334   15.774641   11.762645
  274  H       1    0.97   0.00         0    0    0   0.088   26.519117   26.261988   30.368865
  275  H       1    0.97   0.00         0    0    0   0.085   27.357520   34.177765    0.851700
  276  H       1    0.97   0.00         0    0    0   0.084   27.854284   18.952574    3.130997
  277  H       1    0.98   0.00         0    0    0   0.081   -4.917816   16.800323   16.151432
  278  H       1    0.97   0.00         0    0    0   0.085    6.033579    6.642340    0.846842
  279  H       1    0.98   0.00         0    0    0   0.079    9.834513    9.050746    2.198260
  280  H       1    0.97   0.00         0    0    0   0.084   18.960288   14.615587    3.124605
  281  H       1    0.97   0.00         0    0    0   0.084    8.043930   15.819795    6.566012
  282  H       1    0.98   0.00         0    0    0   0.085   13.408950    9.643106   30.328665
  283  H       1    0.98   0.00         0    0    0   0.079   12.731706   12.343832   34.104292
  284  H       1    0.97   0.00         0    0    0   0.085   40.739552    1.570286    0.718433
  285  H       1    0.97   0.00         0    0    0   0.079   36.876406    3.689925    2.256874
  286  H       1    0.97   0.00         0    0    0   0.084   27.343630    9.163273    3.115582
  287  H       1    0.97   0.00         0    0    0   0.084    6.965543   41.744598    6.596272
  288  H       1    0.98   0.00         0    0    0   0.085   34.322224    6.870133   30.291639
  289  H       1    0.98   0.00         0    0    0   0.080   32.343744    4.885167   34.052128
  290  H       1    0.98   0.00         0    0    0   0.082   17.363362    4.719460   20.865306
  291  H       1    0.98   0.00         0    0    0   0.080   27.582205   29.719594    2.312886
  292  H       1    0.98   0.00         0    0    0   0.084  -14.848091   27.826582    6.611057
  293  H       1    0.98   0.00         0    0    0   0.081    2.950343   13.248342   34.008579
  294  H       1    0.98   0.00         0    0    0   0.081  -14.771733   33.457272   33.830290
  295  H       1    0.97   0.00         0    0    0   0.083    9.301902   14.995067   29.907691
  296  H       1    0.97   0.00         0    0    0   0.078   35.130772   24.386097   36.625093
  297  H       1    0.97   0.00         0    0    0   0.078   17.238264    9.593065   12.704151
  298  H       1    0.97   0.00         0    0    0   0.078   32.500899   10.090735   12.689255
  299  H       1    0.97   0.00         0    0    0   0.078   24.345246   23.085639   12.763276
  300  H       1    0.97   0.00         0    0    0   0.078    7.547405   32.741351   31.425119
  301  H       1    0.97   0.00         0    0    0   0.078   -7.629262   33.009265   31.111439
  302  H       1    0.97   0.00         0    0    0   0.078   28.315164    0.099793   36.661700
  303  H       1    0.97   0.00         0    0    0   0.078   -0.103674   19.742445   31.422401
  304  H       1    0.97   0.00         0    0    0   0.079   -7.850245   32.562680   23.998678
  305  H       1    0.97   0.00         0    0    0   0.078    7.324279   32.956706   23.591504
  306  H       1    0.97   0.00         0    0    0   0.078   24.851755   23.044332    5.650397
  307  H       1    0.97   0.00         0    0    0   0.079   32.342131    9.669409    5.590124
  308  H       1    0.97   0.00         0    0    0   0.078   17.024927    9.964110    5.566690
  309  H       1    0.97   0.00         0    0    0   0.084   39.564576   15.047341   25.044702
  310  H       1    0.97   0.00         0    0    0   0.078    0.224096   19.690144   23.592239
  311  H       1    0.97   0.00         0    0    0   0.078   10.561690   18.296388   36.670269
  312  H       1    0.97   0.00         0    0    0   0.078  -10.336461   18.351463   18.554703
  313  H       1    0.97   0.00         0    0    0   0.079   -3.630153   42.436214   18.562083
  314  H       1    0.98   0.00         0    0    0   0.081    4.983198   16.907569    2.241280
  315  H       1    0.97   0.00         0    0    0   0.083   -5.696898   28.086296   33.330611
  316  H       1    0.97   0.00         0    0    0   0.083   32.698102   26.855530   30.090675
  317  H       1    0.98   0.00         0    0    0   0.081  -12.502488   29.836400    1.925642
  318  H       1    0.98   0.00         0    0    0   0.081   11.663351   38.557482   33.719285
  319  H       1    0.97   0.00         0    0    0   0.083    2.494218   33.508324   33.419754
  320  H       1    0.97   0.00         0    0    0   0.083   31.711208    0.597347   29.850076
  321  H       1    0.98   0.00         0    0    0   0.081    7.552593   38.606113    2.220998
  322  H       1    0.97   0.00         0    0    0   0.079   10.615711   18.206120   18.029452
  323  H       1    0.97   0.00         0    0    0   0.079   28.177625    0.070017   18.099052
  324  H       1    0.97   0.00         0    0    0   0.078   34.855007   24.143532   18.188565
  325  H       1    0.97   0.00         0    0    0   0.079   13.977786   24.487148    0.110079
  326  H       1    0.97   0.00         0    0    0   0.078   -3.518536   42.602350    0.050287
  327  H       1    0.97   0.00         0    0    0   0.078  -10.196431   18.536886    0.128027
  328  H       1    0.97   0.00         0    0    0   0.078   13.911250   24.490552   18.507540
  329  H       1    0.97   0.00         0    0    0   0.083    3.045784   23.855255   33.378956
  330  H       1    0.97   0.00         0    0    0   0.084   -3.053844   23.550447   21.661167
  331  H       1    0.98   0.00         0    0    0   0.080    7.581758   38.018794   15.519555
  332  H       1    0.97   0.00         0    0    0   0.085   -2.880926    8.301999   19.185645
  333  H       1    0.97   0.00         0    0    0   0.085   11.563434   33.121044    6.586886
  334  H       1    0.98   0.00         0    0    0   0.079   12.060877   30.375820    2.794390
  335  H       1    0.97   0.00         0    0    0   0.085  -15.892577   40.819949   35.866193
  336  H       1    0.98   0.00         0    0    0   0.079  -11.929177   38.749113   34.428543
  337  H       1    0.97   0.00         0    0    0   0.084   -2.574620   33.491377   33.499026
  338  H       1    0.98   0.00         0    0    0   0.084   17.782646    0.946065   30.057786
  339  H       1    0.97   0.00         0    0    0   0.084   16.324685   27.452836   30.189556
  340  H       1    0.98   0.00         0    0    0   0.085   -9.554392   35.862396    6.400080
  341  H       1    0.97   0.00         0    0    0   0.088   -3.123636    8.228374   35.723823
  342  H       1    0.97   0.00         0    0    0   0.081   -2.983387   12.722658   34.348364
  343  H       1    0.97   0.00         0    0    0   0.084   -3.123487   23.711967   33.476009
  344  H       1    0.98   0.00         0    0    0   0.084   39.601793   14.921409   30.110498
  345  H       1    0.97   0.00         0    0    0   0.085   -1.770362   16.115767    6.602174
  346  H       1    0.98   0.00         0    0    0   0.080   -4.399772   17.028732    2.805732
  347  H       1    0.98   0.00         0    0    0   0.079   -7.575435   37.821253    2.626223
  348  H       1    0.97   0.00         0    0    0   0.084    5.590428   28.239175   33.507531
  349  H       1    0.98   0.00         0    0    0   0.080   14.956671   33.649827   34.307904
  350  H       1    0.98   0.00         0    0    0   0.085   18.727548   36.038584   35.769225
  351  H       1    0.98   0.00         0    0    0   0.080   -2.985870   12.713596   20.799814
  352  H       1    0.98   0.00         0    0    0   0.085    5.760870    6.669166   17.484317
  353  H       1    0.98   0.00         0    0    0   0.080    9.516936    8.985562   15.869957
  354  H       1    0.97   0.00         0    0    0   0.085   18.838944   14.415755   15.014703
  355  H       1    0.97   0.00         0    0    0   0.085    8.138226   15.870069   11.627342
  356  H       1    0.97   0.00         0    0    0   0.085   40.587585    1.676479   17.512871
  357  H       1    0.98   0.00         0    0    0   0.080   36.686208    3.754474   15.917288
  358  H       1    0.97   0.00         0    0    0   0.085   27.421845    9.152663   14.949263
  359  H       1    0.97   0.00         0    0    0   0.085    6.817182   41.804368   11.658025
  360  H       1    0.98   0.00         0    0    0   0.085   32.312095    4.334618   20.200334
  361  H       1    0.97   0.00         0    0    0   0.088   27.938476   34.567326   17.396414
  362  H       1    0.97   0.00         0    0    0   0.082   27.816544   30.146563   15.787433
  363  H       1    0.97   0.00         0    0    0   0.084   27.745656   19.164758   15.005316
  364  H       1    0.97   0.00         0    0    0   0.083  -14.893820   27.740236   11.675278
  365  H       1    0.98   0.00         0    0    0   0.081   29.582297   25.782724   20.192348
  366  H       1    0.98   0.00         0    0    0   0.081    2.961596   13.393340   20.999678
  367  H       1    0.97   0.00         0    0    0   0.084    3.046841   23.876871   21.519778
  368  H       1    0.98   0.00         0    0    0   0.085   12.217243   12.542931   20.173013
  369  H       1    0.97   0.00         0    0    0   0.085    1.786919   16.127969   11.701367
  370  H       1    0.98   0.00         0    0    0   0.081   12.992882    3.984394    2.836096
  371  H       1    0.97   0.00         0    0    0   0.083   22.274227    9.155566    3.243770
  372  H       1    0.97   0.00         0    0    0   0.083   -7.063695   42.027122    6.716628
  373  H       1    0.98   0.00         0    0    0   0.081   17.275454    4.133385   34.771367
  374  H       1    0.98   0.00         0    0    0   0.085   18.794515   36.005806   19.267246
  375  H       1    0.98   0.00         0    0    0   0.080   14.981463   33.697277   20.752717
  376  H       1    0.98   0.00         0    0    0   0.081   37.158841   12.936749   34.785600
  377  H       1    0.97   0.00         0    0    0   0.084    5.588849   28.260724   21.636331
  378  H       1    0.98   0.00         0    0    0   0.081   12.446766   30.000928   16.166431
  379  H       1    0.97   0.00         0    0    0   0.085  -16.102015   41.311738   19.048746
  380  H       1    0.97   0.00         0    0    0   0.085   -2.829551   33.534646   21.713020
  381  H       1    0.97   0.00         0    0    0   0.085   17.840075    0.870542   24.993919
  382  H       1    0.98   0.00         0    0    0   0.085   -7.738389   38.326620   16.492282
  383  H       1    0.97   0.00         0    0    0   0.084    9.036158   14.831225   24.844928
  384  H       1    0.97   0.00         0    0    0   0.083   16.328068   27.119728   25.126296
  385  H       1    0.97   0.00         0    0    0   0.084   -7.992205   15.806410    6.701441
  386  H       1    0.97   0.00         0    0    0   0.080  -12.329889   39.151875   20.760978
  387  H       1    0.98   0.00         0    0    0   0.085   39.124020    9.444719    2.755698
  388  H       1    0.97   0.00         0    0    0   0.084   30.409538   14.569739    3.320863
  389  H       1    0.98   0.00         0    0    0   0.085  -14.246714   33.231260   20.937473
  390  H       1    0.97   0.00         0    0    0   0.085   -5.631769   27.921579   21.549193
  391  H       1    0.97   0.00         0    0    0   0.088  -11.379999   32.708735   12.011892
  392  H       1    0.98   0.00         0    0    0   0.082  -11.861396   29.920575   15.793032
  393  H       1    0.98   0.00         0    0    0   0.081   11.552241   38.549554   21.034814
  394  H       1    0.97   0.00         0    0    0   0.083    2.243856   33.495530   21.571123
  395  H       1    0.98   0.00         0    0    0   0.085   32.574531   26.850674   25.028295
  396  H       1    0.97   0.00         0    0    0   0.085    9.764865   36.210257   11.758449
  397  H       1    0.98   0.00         0    0    0   0.085   19.804127   25.812946   34.803212
  398  H       1    0.97   0.00         0    0    0   0.084   31.928811    0.424678   24.789548
  399  H       1    0.97   0.00         0    0    0   0.084   21.500412   19.008325    3.317528
  400  H       1    0.97   0.00         0    0    0   0.084   14.992376   27.709248    6.703736
  401  H       1    0.98   0.00         0    0    0   0.081   21.607341   29.468452    2.828236
  402  H       1    0.98   0.00         0    0    0   0.080    4.454045   17.092258   15.461718
  403  N       3    2.83   0.00         2    0    1  -0.123   17.728760    1.660277   17.140231
  404  N       3    2.86   0.00         2    0    1  -0.101   -8.988108   25.615185   33.440705
  405  N       3    2.83   0.00         2    0    1  -0.118  -14.437875   28.199094   35.239087
  406  N       3    2.82   0.00         2    0    1  -0.118   -9.947268   31.718431   34.165472
  407  N       3    2.82   0.00         2    0    1  -0.118    2.139868   18.354514   34.495659
  408  N       3    2.85   0.00         2    0    1  -0.102    6.427428   17.930728   29.494196
  409  N       3    2.86   0.00         2    0    1  -0.101    6.811219   22.198276   33.521565
  410  N       3    2.83   0.00         2    0    1  -0.118    7.035978   41.004356   35.253731
  411  N       3    2.83   0.00         2    0    1  -0.118    7.373509   16.162531   35.321960
  412  N       3    2.82   0.00         2    0    1  -0.119   17.141000    7.286722   16.056533
  413  N       3    2.85   0.00         2    0    1  -0.108   18.835184    3.275581   11.317711
  414  N       3    2.85   0.00         2    0    1  -0.106   22.842887    5.036002   15.296523
  415  N       3    2.85   0.00         2    0    1  -0.101  -12.685177   28.036920   29.539165
  416  N       3    2.85   0.00         2    0    1  -0.101   17.629150   20.463066   15.230222
  417  N       3    2.84   0.00         2    0    1  -0.107   37.397801   14.699852   11.373685
  418  N       3    2.85   0.00         2    0    1  -0.107   33.594720   17.211083   15.249009
  419  N       3    2.83   0.00         2    0    1  -0.124   39.027232   14.517615   17.199393
  420  N       3    2.81   0.00         2    0    1  -0.120   22.451527   24.366468   16.138348
  421  N       3    2.84   0.00         2    0    1  -0.102   17.956156   24.962298   11.388162
  422  N       3    2.83   0.00         2    0    1  -0.119   17.208155   26.496400   17.229947
  423  N       3    2.82   0.00         2    0    1  -0.120   26.804001   24.267792    2.295978
  424  N       3    2.84   0.00         2    0    1  -0.108   31.405237   25.038640    6.981011
  425  N       3    2.83   0.00         2    0    1  -0.125   31.910480   26.634133    1.079870
  426  N       3    2.82   0.00         2    0    1  -0.119   32.535140    7.377065    2.223773
  427  N       3    2.86   0.00         2    0    1  -0.101    2.021752   37.592196   33.568745
  428  N       3    2.84   0.00         2    0    1  -0.101   30.744909    3.086922    6.968115
  429  N       3    2.85   0.00         2    0    1  -0.104   26.898656    5.072744    3.014743
  430  N       3    2.82   0.00         2    0    1  -0.119   34.501855   11.180500   16.062166
  431  N       3    2.85   0.00         2    0    1  -0.102    5.900971   39.341265   29.467441
  432  N       3    2.79   0.00         2    0    1   0.274    8.253287   29.296563   27.557110
  433  N       3    2.79   0.00         2    0    1   0.274   12.959503   20.803417   14.618741
  434  N       3    2.79   0.00         2    0    1   0.276  -17.626464   36.759244   20.070741
  435  N       3    2.83   0.00         2    0    1  -0.121   31.933698    1.660292    1.078783
  436  N       3    2.79   0.00         2    0    1   0.275   42.428656    5.938163    1.690224
  437  N       3    2.79   0.00         2    0    1   0.276   12.132413   10.573129   24.733570
  438  N       3    2.79   0.00         2    0    1   0.276   34.034236    5.251018   24.767965
  439  N       3    2.79   0.00         2    0    1   0.275   -9.379778   37.366607   11.907505
  440  N       3    2.79   0.00         2    0    1   0.275   21.498416   26.916277   30.264171
  441  N       3    2.79   0.00         2    0    1   0.272   20.062735    7.312182    9.205641
  442  N       3    2.79   0.00         2    0    1   0.273   33.290026   13.609300    9.285092
  443  N       3    2.79   0.00         2    0    1   0.273   20.976367   21.967645    9.312459
  444  N       3    2.79   0.00         2    0    1   0.272    4.704502   35.253339   27.461038
  445  N       3    2.79   0.00         2    0    1   0.273   -8.617940   29.073621   27.431363
  446  N       3    2.79   0.00         2    0    1   0.272    3.452715   20.958412   27.449579
  447  N       3    2.79   0.00         2    0    1   0.274   -3.508203   20.539791   27.611466
  448  N       3    2.79   0.00         2    0    1   0.276   -5.018369   35.465327   27.618709
  449  N       3    2.79   0.00         2    0    1   0.274   28.338872   22.081964    9.054394
  450  N       3    2.79   0.00         2    0    1   0.276   29.687192    7.209233    9.037359
  451  N       3    2.79   0.00         2    0    1   0.276   16.072761   13.451261    9.032047
  452  N       3    2.79   0.00         2    0    1   0.273   24.825933    0.868507    3.602179
  453  N       3    2.79   0.00         2    0    1   0.274   36.284525   20.963349    3.694089
  454  N       3    2.79   0.00         2    0    1   0.274   13.038382   20.947632    3.728905
  455  N       3    2.79   0.00         2    0    1   0.274   -0.218994   41.819504   21.942859
  456  N       3    2.79   0.00         2    0    1   0.274  -11.504989   21.537300   22.027175
  457  N       3    2.79   0.00         2    0    1   0.273   11.494274   21.904120   21.916718
  458  N       3    2.79   0.00         2    0    1   0.273  -11.560603   21.678419   33.019653
  459  N       3    2.79   0.00         2    0    1   0.273   -0.063954   41.795722   33.107225
  460  N       3    2.79   0.00         2    0    1   0.273   11.494184   21.886233   33.071353
  461  N       3    2.79   0.00         2    0    1   0.273   36.216431   21.094938   14.688017
  462  N       3    2.79   0.00         2    0    1   0.274   24.924502    0.831303   14.773954
  463  N       3    2.82   0.00         2    0    1  -0.118    7.675343   35.397777   34.479123
  464  N       3    2.81   0.00         2    0    1  -0.121   14.870694   10.934877    2.241948
  465  N       3    2.85   0.00         2    0    1  -0.107   31.616491   20.616777    3.077247
  466  N       3    2.85   0.00         2    0    1  -0.102   15.647848   17.056103    3.108946
  467  N       3    2.82   0.00         2    0    1  -0.120    2.146429   18.380090   20.240333
  468  N       3    2.84   0.00         2    0    1  -0.103    6.352543   17.913495   25.320791
  469  N       3    2.85   0.00         2    0    1  -0.103    6.813979   22.222124   21.376727
  470  N       3    2.83   0.00         2    0    1  -0.118    7.361134   16.199498   19.413670
  471  N       3    2.82   0.00         2    0    1  -0.125   -2.048919   18.365637   34.734230
  472  N       3    2.84   0.00         2    0    1  -0.107   -6.578799   17.620856   29.710716
  473  N       3    2.85   0.00         2    0    1  -0.108   -6.879876   22.033501   33.556305
  474  N       3    2.84   0.00         2    0    1  -0.120   -7.099273   16.129479   35.649380
  475  N       3    2.82   0.00         2    0    1  -0.121   -7.805065   35.319371   34.464294
  476  N       3    2.84   0.00         2    0    1  -0.101   -6.026325   39.597878   29.683346
  477  N       3    2.85   0.00         2    0    1  -0.104   -2.135358   37.582005   33.640453
  478  N       3    2.83   0.00         2    0    1  -0.121   -7.086504   40.936172   35.633739
  479  N       3    2.84   0.00         2    0    1  -0.103   12.328908   28.290745   29.695207
  480  N       3    2.83   0.00         2    0    1  -0.121  -14.319761   28.007605   19.446877
  481  N       3    2.85   0.00         2    0    1  -0.103    8.897789   25.792368   33.635133
  482  N       3    2.82   0.00         2    0    1  -0.123   26.634928   24.494487   15.785764
  483  N       3    2.85   0.00         2    0    1  -0.106   31.314905   25.056551   11.145839
  484  N       3    2.86   0.00         2    0    1  -0.107   31.517402   20.808275   15.109809
  485  N       3    2.84   0.00         2    0    1  -0.118   31.902894   26.680191   16.947813
  486  N       3    2.82   0.00         2    0    1  -0.116   32.555985    7.472648   15.785587
  487  N       3    2.85   0.00         2    0    1  -0.100   30.735508    3.138876   11.138152
  488  N       3    2.86   0.00         2    0    1  -0.101   26.996126    5.062436   15.133761
  489  N       3    2.83   0.00         2    0    1  -0.118   31.793922    1.628300   17.002354
  490  N       3    2.81   0.00         2    0    1  -0.116   14.884734   10.813730   15.774396
  491  N       3    2.85   0.00         2    0    1  -0.100   12.005153   14.538297   11.119095
  492  N       3    2.85   0.00         2    0    1  -0.101   15.536806   16.871239   15.081697
  493  N       3    2.83   0.00         2    0    1  -0.118   10.143188   14.297703   16.934920
  494  N       3    2.84   0.00         2    0    1  -0.101   11.978834   14.589303    6.948995
  495  N       3    2.83   0.00         2    0    1  -0.119   14.359270   28.383771   35.613721
  496  N       3    2.85   0.00         2    0    1  -0.106   -8.921733   25.450550   21.479716
  497  N       3    2.82   0.00         2    0    1  -0.121    9.736452   31.753686   34.728238
  498  N       3    2.82   0.00         2    0    1  -0.117   -9.843368   31.450703   20.629249
  499  N       3    2.83   0.00         2    0    1  -0.121   10.278948   14.360426    1.055322
  500  N       3    2.84   0.00         2    0    1  -0.107  -12.738018   27.952331   25.373033
  501  N       3    2.82   0.00         2    0    1  -0.119   -2.035137   18.255479   20.549573
  502  N       3    2.85   0.00         2    0    1  -0.101   -6.550484   17.623391   25.538206
  503  N       3    2.86   0.00         2    0    1  -0.101   -6.812638   21.871219   21.580124
  504  N       3    2.83   0.00         2    0    1  -0.119   -7.235935   15.946461   19.696339
  505  N       3    2.81   0.00         2    0    1  -0.114   -7.930961   35.178893   20.902005
  506  N       3    2.85   0.00         2    0    1  -0.100   -6.077913   39.535327   25.513213
  507  N       3    2.85   0.00         2    0    1  -0.101   -2.345973   37.619321   21.558035
  508  N       3    2.82   0.00         2    0    1  -0.119    9.719880   31.742308   20.557479
  509  N       3    2.85   0.00         2    0    1  -0.102   12.361604   28.202374   25.523149
  510  N       3    2.85   0.00         2    0    1  -0.102    8.897105   25.817881   21.479358
  511  N       3    2.83   0.00         2    0    1  -0.120   14.370736   28.387654   19.651380
  512  N       3    2.82   0.00         2    0    1  -0.118   16.957557    7.299190    2.524061
  513  N       3    2.85   0.00         2    0    1  -0.102   18.849176    3.247259    7.151285
  514  N       3    2.82   0.00         2    0    1  -0.118   -7.308984   41.039518   19.674736
  515  N       3    2.85   0.00         2    0    1  -0.101    1.814145   37.587431   21.441520
  516  N       3    2.83   0.00         2    0    1  -0.118    6.902431   40.948094   19.471719
  517  N       3    2.85   0.00         2    0    1  -0.101   22.739473    5.069657    3.122897
  518  N       3    2.84   0.00         2    0    1  -0.103    5.911240   39.262924   25.294017
  519  N       3    2.82   0.00         2    0    1  -0.120    7.546101   35.319542   20.269890
  520  N       3    2.83   0.00         2    0    1  -0.117   17.199513   26.588445    1.429225
  521  N       3    2.85   0.00         2    0    1  -0.101   18.026176   24.967846    7.218440
  522  N       3    2.85   0.00         2    0    1  -0.100   17.727973   20.654367    3.270947
  523  N       3    2.83   0.00         2    0    1  -0.114   39.145618   14.688902    1.434740
  524  N       3    2.86   0.00         2    0    1  -0.100   33.708452   17.031042    3.236781
  525  N       3    2.85   0.00         2    0    1  -0.101   37.377939   14.641872    7.206633
  526  N       3    2.82   0.00         2    0    1  -0.116   34.636783   11.002029    2.537242
  527  N       3    2.83   0.00         2    0    1  -0.118   17.704663    1.610867    1.439592
  528  N       3    2.81   0.00         2    0    1  -0.115   22.615485   24.387419    2.545113
  529  O       1    0.98   0.00         2    0    1  -0.290   -1.728399   42.354661   15.043810
  530  O       1    0.98   0.00         2    0    1  -0.289    2.602139   21.648687   29.510282
  531  O       1    0.98   0.00         2    0    1  -0.290   11.406696   19.566918   32.798170
  532  O       1    0.98   0.00         2    0    1  -0.289   20.501185    8.359508   11.243130
  533  O       1    0.99   0.00         2    0    1  -0.289   32.131343   13.562822   11.307962
  534  O       1    0.98   0.00         2    0    1  -0.290    2.231920   42.445622    3.733558
  535  O       1    0.99   0.00         2    0    1  -0.289   21.610623   21.015401   11.344112
  536  O       1    0.98   0.00         2    0    1  -0.290   13.010906   23.139215   14.686971
  537  O       1    0.99   0.00         2    0    1  -0.289   27.738274   21.087060    7.033557
  538  O       1    0.98   0.00         2    0    1  -0.290  -13.076425   23.299427    3.705217
  539  O       1    0.99   0.00         2    0    1  -0.290   29.227548    8.244212    6.999978
  540  O       1    0.98   0.00         2    0    1  -0.289   35.742511   22.885196   32.788144
  541  O       1    0.98   0.00         2    0    1  -0.289  -11.076208   19.886713   14.772595
  542  O       1    0.99   0.00         2    0    1  -0.289   -7.608750   29.629463   29.460082
  543  O       1    0.98   0.00         2    0    1  -0.295  -15.869439   37.353297   21.500588
  544  O       1    0.99   0.00         2    0    1  -0.289    4.518545   34.196145   29.533267
  545  O       1    0.98   0.00         2    0    1  -0.295   22.025644   26.163956   28.120088
  546  O       1    0.98   0.00         2    0    1  -0.295   19.713113   28.356646   30.704398
  547  O       1    0.98   0.00         2    0    1  -0.295   -9.771690   39.636673   12.296883
  548  O       1    0.98   0.00         2    0    1  -0.295   -8.867649   36.510431    9.798421
  549  O       1    0.98   0.00         2    0    1  -0.295   33.645304    6.097327   26.907192
  550  O       1    0.98   0.00         2    0    1  -0.295   34.342750    2.976085   24.336023
  551  O       1    0.98   0.00         2    0    1  -0.295   13.030429   10.425566   26.882429
  552  O       1    0.98   0.00         2    0    1  -0.295   10.032776   11.496439   24.292366
  553  O       1    0.98   0.00         2    0    1  -0.295   44.031968    4.414806    0.931376
  554  O       1    0.98   0.00         2    0    1  -0.295   40.604780    5.296233    3.012810
  555  O       1    0.98   0.00         2    0    1  -0.295  -19.215638   38.300301   19.316587
  556  O       1    0.99   0.00         2    0    1  -0.290   17.216542   13.363210    7.002750
  557  O       1    0.98   0.00         2    0    1  -0.290   26.633931    0.213304   32.942477
  558  O       1    0.98   0.00         2    0    1  -0.290   11.043024   19.731045    3.770726
  559  O       1    0.98   0.00         2    0    1  -0.289   37.813050   19.343632   32.943061
  560  O       1    0.98   0.00         2    0    1  -0.290   37.886008   19.236960   22.431136
  561  O       1    0.98   0.00         2    0    1  -0.290   11.003159   19.590799   14.210763
  562  O       1    0.99   0.00         2    0    1  -0.290   -2.590777   21.168155   25.560693
  563  O       1    0.98   0.00         2    0    1  -0.290    2.287711   42.465003   14.211122
  564  O       1    0.99   0.00         2    0    1  -0.290   29.588079    8.335939   11.077107
  565  O       1    0.98   0.00         2    0    1  -0.289  -13.148583   23.396956   14.288295
  566  O       1    0.99   0.00         2    0    1  -0.289   27.336030   21.515506   11.083063
  567  O       1    0.98   0.00         2    0    1  -0.290   13.492083   23.095877   33.005450
  568  O       1    0.98   0.00         2    0    1  -0.290    7.148215   29.537872   29.596985
  569  O       1    0.98   0.00         2    0    1  -0.290   22.529970    0.213752   32.938533
  570  O       1    0.99   0.00         2    0    1  -0.290   -4.532079   34.439630   29.655140
  571  O       1    0.99   0.00         2    0    1  -0.290   -2.827375   21.459516   29.643308
  572  O       1    0.98   0.00         2    0    1  -0.290   11.459404   19.569308   21.838791
  573  O       1    0.98   0.00         2    0    1  -0.289    2.727768   21.824822   25.408338
  574  O       1    0.99   0.00         2    0    1  -0.290   17.084067   12.947432   11.072080
  575  O       1    0.99   0.00         2    0    1  -0.289   -7.469697   29.110472   25.402926
  576  O       1    0.98   0.00         2    0    1  -0.290   35.773542   22.721337   21.938142
  577  O       1    0.98   0.00         2    0    1  -0.290   22.402569    0.231801   22.337594
  578  O       1    0.98   0.00         2    0    1  -0.290    7.223440   29.650371   25.493724
  579  O       1    0.98   0.00         2    0    1  -0.290   13.442456   23.130373   22.320691
  580  O       1    0.99   0.00         2    0    1  -0.289   20.184851    8.420526    7.155752
  581  O       1    0.98   0.00         2    0    1  -0.290   -1.871179   42.459069    3.823342
  582  O       1    0.99   0.00         2    0    1  -0.290   -4.954775   34.326313   25.584987
  583  O       1    0.98   0.00         2    0    1  -0.290  -11.034931   19.754130    4.027484
  584  O       1    0.99   0.00         2    0    1  -0.289   21.927632   21.346517    7.275114
  585  O       1    0.98   0.00         2    0    1  -0.290   13.115110   23.265385    4.023075
  586  O       1    0.98   0.00         2    0    1  -0.289    4.311296   34.173106   25.430692
  587  O       1    0.99   0.00         2    0    1  -0.289   32.291196   13.068117    7.247611
  588  O       1    0.98   0.00         2    0    1  -0.290   26.476858    0.248673   21.844118
  589  Zn      4    3.46   0.15         3    2    0   0.212   -6.029125   38.303233   21.946042
  590  Zn      4    3.47   0.14         3    2    0   0.211   -5.544177   18.376741   21.976877
  591  Zn      4    3.45   0.14         3    2    0   0.211   13.224417   14.186079    3.382248
  592  Zn      4    3.45   0.14         3    2    0   0.211   30.574220    4.318216    3.376520
  593  Zn      4    3.45   0.14         3    2    0   0.211   18.844924   24.012716   14.953948
  594  Zn      4    3.46   0.14         3    2    0   0.213   36.083394   14.431230   14.910003
  595  Zn      4    3.46   0.13         3    2    0   0.212   19.190969    4.311298   14.928021
  596  Zn      4    3.46   0.13         3    2    0   0.211    5.650385   18.666559   33.117408
  597  Zn      4    3.46   0.14         3    2    0   0.211   11.359568   28.604414   21.899517
  598  Zn      4    3.47   0.14         3    2    0   0.212   30.418139   24.147125    3.439464
  599  Zn      4    3.47   0.13         3    2    0   0.211   19.089575    4.362989    3.577835
  600  Zn      4    3.45   0.14         3    2    0   0.211   -5.799039   38.328720   33.260925
  601  Zn      4    3.46   0.14         3    2    0   0.212   18.987501   24.161988    3.665883
  602  Zn      4    3.45   0.14         3    2    0   0.211    5.515452   38.225858   21.661588
  603  Zn      4    3.46   0.14         3    2    0   0.213  -11.439285   28.203748   21.817315
  604  Zn      4    3.46   0.14         3    2    0   0.211    5.654253   18.674521   21.665365
  605  Zn      4    3.47   0.15         3    2    0   0.212   -5.557418   18.536445   33.259983
  606  Zn      4    3.46   0.14         3    2    0   0.211   11.356727   28.608835   33.350630
  607  Zn      4    3.49   0.15         3    2    0   0.213   30.224456   24.279476   14.647587
  608  Zn      4    3.46   0.14         3    2    0   0.212   30.648840    4.374798   14.698335
  609  Zn      4    3.46   0.15         3    2    0   0.212   13.141242   14.010204   14.675667
  610  Zn      4    3.48   0.14         3    2    0   0.211  -11.427867   28.424594   33.050017
  611  Zn      4    3.47   0.13         3    2    0   0.212   36.178244   14.271423    3.666664
  612  Zn      4    3.46   0.13         3    2    0   0.211    5.660348   38.285016   33.083845

          #atoms :   612
          #bonds :   708
          #angl  :   1242
          #tors  :   2502
          #nmol  :   1
          #optfrag :   1
           ------------------------------------------------- 
          |                   G F N - F F                   |
          |          A general generic force-field          |
          |                  Version 1.0.3                  | 
           ------------------------------------------------- 
          Number of HB bonds (bound hydrogen)     5742981
          Number of HB bonds (unbound hydrogen)   331101
          Number of XB bonds                      91600

 E+G (total)                   0 d,  0 h,  0 min, 16.387 sec
 distance/D3 list               ...        0 min,  0.004 sec (  0.026%)
 non bonded repulsion           ...        0 min,  0.048 sec (  0.294%)
 dCN                            ...        0 min,  0.175 sec (  1.069%)
 EEQ energy and q               ...        0 min,  0.982 sec (  5.992%)
                                ...        0 min,  0.000 sec (  0.000%)
 EEQ gradient                   ...        0 min,  3.176 sec ( 19.382%)
 bonds                          ...        0 min,  0.033 sec (  0.204%)
 bend and torsion               ...        0 min,  0.001 sec (  0.003%)
 bonded ATM                     ...        0 min,  0.001 sec (  0.008%)
 HB/XB (incl list setup)        ...        0 min, 11.742 sec ( 71.654%)

         :::::::::::::::::::::::::::::::::::::::::::::::::::::
         ::                     SUMMARY                     ::
         :::::::::::::::::::::::::::::::::::::::::::::::::::::
         :: total energy            -130.780396710992 Eh    ::
         :: gradient norm              0.010000770619 Eh/a0 ::
         ::.................................................::
         :: bond energy             -136.013993163364 Eh    ::
         :: angle energy               1.141674615658 Eh    ::
         :: torsion energy             0.045090967975 Eh    ::
         :: repulsion energy           8.605391155139 Eh    ::
         :: electrostat energy        -3.136661749766 Eh    ::
         :: dispersion energy         -1.254334824537 Eh    ::
         :: HB energy                 -0.196544114131 Eh    ::
         :: XB energy                 -0.004767247378 Eh    ::
         :: bonded atm energy          0.033747649410 Eh    ::
         :: external energy            0.000000000000 Eh    ::
         :: add. restraining           0.000000000000 Eh    ::
         :: total charge               0.000000000000 e     ::
         :::::::::::::::::::::::::::::::::::::::::::::::::::::


........................................................................
.............................. CYCLE    1 ..............................
........................................................................
     iter. time                 ...        0 min, 16.376 sec
          total energy        -130.780396710992136 Eh
            energy change       -0.18+309 Eh
 
          gradient norm          0.022290806829506 Eh/a0
            max. gradient        0.011226150372798 Eh/a0
 
            step length          0.000000000000000 a0
            max. step            0.000000000000000 a0
 
       unit cell volume      11435.739834589374368 A^3
 
       current lattice:  
       49.291616234599566        0.000000000000000        0.000000000000000
      -24.645808117299772       42.687791852756682        0.000000000000000
        0.000000000000000        0.000000000000000       36.676182571858433

........................................................................
.............................. CYCLE    2 ..............................
........................................................................
     iter. time                 ...        0 min, 15.642 sec
          total energy        -130.779413431404151 Eh
            energy change        0.98E-03 Eh
 
          gradient norm          0.136175164896821 Eh/a0
            max. gradient        0.074429633234662 Eh/a0
 
            step length          0.022290806829506 a0
            max. step            0.011226150372798 a0
 
       unit cell volume      11426.114044929689044 A^3
 
       current lattice:  
       49.280683988656584       -0.005713640891916        0.000407069874548
      -24.644319940721445       42.676565702383883       -0.000219939191308
        0.001661954628123       -0.000400431756882       36.665537041204182

........................................................................
.............................. CYCLE    3 ..............................
........................................................................
     iter. time                 ...        0 min, 16.271 sec
          total energy        -130.780563018859510 Eh
            energy change       -0.11E-02 Eh
 
          gradient norm          0.014121364276461 Eh/a0
            max. gradient        0.005513905660514 Eh/a0
 
            step length          0.017023655491157 a0
            max. step            0.074429633234662 a0
 
       unit cell volume      11433.126683782882537 A^3
 
       current lattice:  
       49.287806155912342       -0.001091508604836       -0.000734981497733
      -24.644864668201961       42.684095992281776        0.000882935739051
       -0.001058093456166        0.000667939072689       36.674280445138223

........................................................................
.............................. CYCLE    4 ..............................
........................................................................
     iter. time                 ...        0 min, 15.869 sec
          total energy        -130.780471686576476 Eh
            energy change        0.91E-04 Eh
 
          gradient norm          0.046785036771756 Eh/a0
            max. gradient        0.026416445198784 Eh/a0
 
            step length          0.015370339845354 a0
            max. step            0.005513905660514 a0
 
       unit cell volume      11433.578687170649573 A^3
 
       current lattice:  
       49.290474673411353       -0.003006381103185        0.002604325459286
      -24.645975396329231       42.687241787427084       -0.001979851688803
        0.004626657806156       -0.001764507827559       36.671864898504310

........................................................................
.............................. CYCLE    5 ..............................
........................................................................
     iter. time                 ...        0 min, 17.373 sec
          total energy        -130.780747063112415 Eh
            energy change       -0.28E-03 Eh
 
          gradient norm          0.019425474214842 Eh/a0
            max. gradient        0.011645782185919 Eh/a0
 
            step length          0.015577557237968 a0
            max. step            0.026416445198784 a0
 
       unit cell volume      11432.265416895934322 A^3
 
       current lattice:  
       49.288139363005925       -0.002443053502692        0.000166442951447
      -24.645611957422684       42.682299007301275       -0.000717918334369
        0.000167350891218       -0.001036009071857       36.673394442095891

........................................................................
.............................. CYCLE    6 ..............................
........................................................................
     iter. time                 ...        0 min, 16.242 sec
          total energy        -130.779997703146336 Eh
            energy change        0.75E-03 Eh
 
          gradient norm          0.116767318683367 Eh/a0
            max. gradient        0.070710603106949 Eh/a0
 
            step length          0.043462295383073 a0
            max. step            0.011645782185919 a0
 
       unit cell volume      11429.114142889546201 A^3
 
       current lattice:  
       49.274147495797152       -0.004039786671331       -0.003229086871742
      -24.639399127181477       42.684533713759507        0.005580065988021
       -0.004027462624491        0.010987645169341       36.672463642893440

........................................................................
.............................. CYCLE    7 ..............................
........................................................................
     iter. time                 ...        0 min, 16.161 sec
          total energy        -130.781029309638484 Eh
            energy change       -0.10E-02 Eh
 
          gradient norm          0.028014966928407 Eh/a0
            max. gradient        0.016098441863279 Eh/a0
 
            step length          0.020200875578189 a0
            max. step            0.070710603106949 a0
 
       unit cell volume      11428.650168153046252 A^3
 
       current lattice:  
       49.281793106402581       -0.002064967660196       -0.001256236954991
      -24.641409554473395       42.677736677823859        0.002909297591523
       -0.002660047206674        0.001005940633266       36.670275709953081

........................................................................
.............................. CYCLE    8 ..............................
........................................................................
     iter. time                 ...        0 min, 15.823 sec
          total energy        -130.780438428130196 Eh
            energy change        0.59E-03 Eh
 
          gradient norm          0.096963245785751 Eh/a0
            max. gradient        0.052794082898857 Eh/a0
 
            step length          0.033248577345186 a0
            max. step            0.016098441863279 a0
 
       unit cell volume      11427.768079665804180 A^3
 
       current lattice:  
       49.279773022794878       -0.014898450753231       -0.000865805281089
      -24.652128011401501       42.673925619502604       -0.002178441721240
       -0.000781013844135       -0.000993434615931       36.677741711848952

........................................................................
.............................. CYCLE    9 ..............................
........................................................................
     iter. time                 ...        0 min, 16.354 sec
          total energy        -130.781314484313214 Eh
            energy change       -0.88E-03 Eh
 
          gradient norm          0.021478811277171 Eh/a0
            max. gradient        0.011844236902835 Eh/a0
 
            step length          0.026277178602394 a0
            max. step            0.052794082898857 a0
 
       unit cell volume      11426.139058674143598 A^3
 
       current lattice:  
       49.279034997778709       -0.006594328979094       -0.000879205235124
      -24.643410469035217       42.673294900815151       -0.002539793165633
       -0.002571802886365        0.001594211660391       36.670033229379271

........................................................................
.............................. CYCLE   10 ..............................
........................................................................
     iter. time                 ...        0 min, 16.267 sec
          total energy        -130.781262930399038 Eh
            energy change        0.52E-04 Eh
 
          gradient norm          0.049366822754020 Eh/a0
            max. gradient        0.033848429225660 Eh/a0
 
            step length          0.040396107445587 a0
            max. step            0.011844236902835 a0
 
       unit cell volume      11424.059878633477638 A^3
 
       current lattice:  
       49.274256295000477       -0.005658181104432       -0.000424404077537
      -24.639768891234670       42.670692212704459        0.010245955932562
        0.000557737420726       -0.002391264446006       36.668749876663242

........................................................................
.............................. CYCLE   11 ..............................
........................................................................
     iter. time                 ...        0 min, 16.512 sec
          total energy        -130.781624567851367 Eh
            energy change       -0.36E-03 Eh
 
          gradient norm          0.032445549777668 Eh/a0
            max. gradient        0.018032720123526 Eh/a0
 
            step length          0.043082411195454 a0
            max. step            0.033848429225660 a0
 
       unit cell volume      11421.310877007115778 A^3
 
       current lattice:  
       49.273330060218314       -0.010538352524705       -0.000605613649697
      -24.639894620570466       42.669117421963463        0.005002577111493
       -0.005177090078785       -0.000216736673081       36.664066190759009

........................................................................
.............................. CYCLE   12 ..............................
........................................................................
     iter. time                 ...        0 min, 16.791 sec
          total energy        -130.781101228818528 Eh
            energy change        0.52E-03 Eh
 
          gradient norm          0.088373481661674 Eh/a0
            max. gradient        0.065090281496081 Eh/a0
 
            step length          0.103775184716300 a0
            max. step            0.018032720123526 a0
 
       unit cell volume      11416.967343243992218 A^3
 
       current lattice:  
       49.262446812484868       -0.010659647156590       -0.000679948720019
      -24.637525182777537       42.656392250851262       -0.016505058842166
        0.000638808751932        0.006947474862502       36.669206788463590

........................................................................
.............................. CYCLE   13 ..............................
........................................................................
     iter. time                 ...        0 min, 15.864 sec
          total energy        -130.782069820513271 Eh
            energy change       -0.97E-03 Eh
 
          gradient norm          0.027960943321701 Eh/a0
            max. gradient        0.012194148225706 Eh/a0
 
            step length          0.021793634447766 a0
            max. step            0.065090281496081 a0
 
       unit cell volume      11415.694358053202450 A^3
 
       current lattice:  
       49.264011659407878       -0.012920970594229       -0.000182090983170
      -24.640948311349863       42.658762677735389       -0.001143202636471
       -0.003456398291223        0.004155705297790       36.662891329647252

........................................................................
.............................. CYCLE   14 ..............................
........................................................................
     iter. time                 ...        0 min, 16.349 sec
          total energy        -130.781382269948892 Eh
            energy change        0.69E-03 Eh
 
          gradient norm          0.101361317284231 Eh/a0
            max. gradient        0.064534024379791 Eh/a0
 
            step length          0.051932174372470 a0
            max. step            0.012194148225706 a0
 
       unit cell volume      11413.697803008357369 A^3
 
       current lattice:  
       49.259940437812332       -0.024736214286836       -0.001989532369435
      -24.625947863645351       42.658977423127631        0.004473035948407
       -0.008096401266394       -0.006656378178974       36.664398524157029

........................................................................
.............................. CYCLE   15 ..............................
........................................................................
     iter. time                 ...        0 min, 15.964 sec
          total energy        -130.782465871150094 Eh
            energy change       -0.11E-02 Eh
 
          gradient norm          0.015845176943358 Eh/a0
            max. gradient        0.005979251255948 Eh/a0
 
            step length          0.043400528643917 a0
            max. step            0.064534024379791 a0
 
       unit cell volume      11411.201929381724767 A^3
 
       current lattice:  
       49.256688379443375       -0.019259784058034       -0.000099260949163
      -24.636225338415418       42.653203159294591        0.002354398581528
       -0.005694037705792        0.001062494954478       36.661415770958357

........................................................................
.............................. CYCLE   16 ..............................
........................................................................
     iter. time                 ...        0 min, 16.577 sec
          total energy        -130.782716433111005 Eh
            energy change       -0.25E-03 Eh
 
          gradient norm          0.017658113569791 Eh/a0
            max. gradient        0.008025320310026 Eh/a0
 
            step length          0.062463163788833 a0
            max. step            0.005979251255948 a0
 
       unit cell volume      11407.843672391454675 A^3
 
       current lattice:  
       49.252691903700395       -0.021615581667387       -0.000721959542731
      -24.636036656652596       42.646918727030915        0.002610396318175
       -0.005071863969521        0.003442156085536       36.660016868109047

........................................................................
.............................. CYCLE   17 ..............................
........................................................................
     iter. time                 ...        0 min, 15.926 sec
          total energy        -130.782671191449253 Eh
            energy change        0.45E-04 Eh
 
          gradient norm          0.113355164000910 Eh/a0
            max. gradient        0.071851560806286 Eh/a0
 
            step length          0.472278195767384 a0
            max. step            0.008025320310026 a0
 
       unit cell volume      11382.613855841069380 A^3
 
       current lattice:  
       49.204301551154025       -0.032413245901858        0.000286948985537
      -24.638182534417421       42.611599018790400       -0.000529392029094
       -0.011499476621345        0.001519796605615       36.649930683799859

........................................................................
.............................. CYCLE   18 ..............................
........................................................................
     iter. time                 ...        0 min, 16.724 sec
          total energy        -130.783749709566223 Eh
            energy change       -0.11E-02 Eh
 
          gradient norm          0.061520985767414 Eh/a0
            max. gradient        0.033450395690545 Eh/a0
 
            step length          0.076405250482995 a0
            max. step            0.071851560806286 a0
 
       unit cell volume      11378.983781179151265 A^3
 
       current lattice:  
       49.207623680803877       -0.043341816591182        0.007555283372782
      -24.626909954085111       42.598753937549439        0.004613161667966
       -0.011820217713714        0.009379228959440       36.651520603080236

........................................................................
.............................. CYCLE   19 ..............................
........................................................................
     iter. time                 ...        0 min, 16.293 sec
          total energy        -130.783642495088230 Eh
            energy change        0.11E-03 Eh
 
          gradient norm          0.074720910096975 Eh/a0
            max. gradient        0.052988971209344 Eh/a0
 
            step length          0.091066242910877 a0
            max. step            0.033450395690545 a0
 
       unit cell volume      11382.673118742688530 A^3
 
       current lattice:  
       49.218210656971380       -0.045247787322533       -0.015685291439062
      -24.623077967597254       42.607224904585102        0.005230782075259
       -0.006215680221200        0.005381104477686       36.649041410676688

........................................................................
.............................. CYCLE   20 ..............................
........................................................................
     iter. time                 ...        0 min, 16.134 sec
          total energy        -130.784563581256350 Eh
            energy change       -0.92E-03 Eh
 
          gradient norm          0.016815877347661 Eh/a0
            max. gradient        0.006217336419141 Eh/a0
 
            step length          0.072382923590302 a0
            max. step            0.052988971209344 a0
 
       unit cell volume      11378.726925423035937 A^3
 
       current lattice:  
       49.207528138197240       -0.045456488124052       -0.002237694869130
      -24.623338224814820       42.601572221481639        0.004610004337987
       -0.012238248197653        0.004093525493744       36.649247568934832

........................................................................
.............................. CYCLE   21 ..............................
........................................................................
     iter. time                 ...        0 min, 16.314 sec
          total energy        -130.784974051244660 Eh
            energy change       -0.41E-03 Eh
 
          gradient norm          0.015557161039059 Eh/a0
            max. gradient        0.007033285261635 Eh/a0
 
            step length          0.137405063946794 a0
            max. step            0.006217336419141 a0
 
       unit cell volume      11370.727882919105468 A^3
 
       current lattice:  
       49.194366206785929       -0.051073874343463        0.001269358540599
      -24.620293028585166       42.589646266230794        0.004995082422794
       -0.015893352957134        0.003783345620295       36.645968230789293

........................................................................
.............................. CYCLE   22 ..............................
........................................................................
     iter. time                 ...        0 min, 16.286 sec
          total energy        -130.785371806151716 Eh
            energy change       -0.40E-03 Eh
 
          gradient norm          0.035007110492120 Eh/a0
            max. gradient        0.023482559370869 Eh/a0
 
            step length          0.063729342245148 a0
            max. step            0.007033285261635 a0
 
       unit cell volume      11367.416985993557319 A^3
 
       current lattice:  
       49.192254528868801       -0.055983486101014       -0.007065628085810
      -24.615777038964758       42.586554930521359        0.006011183299862
       -0.015519979784973        0.001663893852783       36.641645679532367

........................................................................
.............................. CYCLE   23 ..............................
........................................................................
     iter. time                 ...        0 min, 16.559 sec
          total energy        -130.786159129366666 Eh
            energy change       -0.79E-03 Eh
 
          gradient norm          0.020958655785515 Eh/a0
            max. gradient        0.010633828950321 Eh/a0
 
            step length          0.408782281645206 a0
            max. step            0.023482559370869 a0
 
       unit cell volume      11343.233896454370552 A^3
 
       current lattice:  
       49.154060290978940       -0.073052429380955        0.001866145362691
      -24.607588845233689       42.549702951300098        0.007325250641480
       -0.024410863593613        0.002835599497874       36.631187600996789

........................................................................
.............................. CYCLE   24 ..............................
........................................................................
     iter. time                 ...        0 min, 16.905 sec
          total energy        -130.786645668082940 Eh
            energy change       -0.49E-03 Eh
 
          gradient norm          0.029799801507325 Eh/a0
            max. gradient        0.011457034187312 Eh/a0
 
            step length          0.119319645179184 a0
            max. step            0.010633828950321 a0
 
       unit cell volume      11334.638916609326770 A^3
 
       current lattice:  
       49.144365254706486       -0.081662615344869       -0.004623455567443
      -24.602050866920468       42.538861463440867        0.008644320664819
       -0.024580076893637        0.001435007439681       36.623707299823948

........................................................................
.............................. CYCLE   25 ..............................
........................................................................
     iter. time                 ...        0 min, 16.177 sec
          total energy        -130.785751781900217 Eh
            energy change        0.89E-03 Eh
 
          gradient norm          0.156266804204772 Eh/a0
            max. gradient        0.083767898345857 Eh/a0
 
            step length          0.252069558098320 a0
            max. step            0.011457034187312 a0
 
       unit cell volume      11328.710839530753219 A^3
 
       current lattice:  
       49.132335125856770       -0.086251186169546       -0.000590716423185
      -24.600418168012016       42.525351235942523        0.009647766146081
       -0.029592226559674        0.006751712215470       36.627145157844566

........................................................................
.............................. CYCLE   26 ..............................
........................................................................
     iter. time                 ...        0 min, 16.321 sec
          total energy        -130.787521953799086 Eh
            energy change       -0.18E-02 Eh
 
          gradient norm          0.038689235829140 Eh/a0
            max. gradient        0.023170171888036 Eh/a0
 
            step length          0.189862328795844 a0
            max. step            0.083767898345857 a0
 
       unit cell volume      11308.087245749649810 A^3
 
       current lattice:  
       49.105403281561365       -0.101577544431982        0.002924185567560
      -24.594595291819029       42.498371533166875        0.010071848917284
       -0.029508168282787        0.005796751484806       36.610393540042757

........................................................................
.............................. CYCLE   27 ..............................
........................................................................
     iter. time                 ...        0 min, 16.582 sec
          total energy        -130.787781223097426 Eh
            energy change       -0.26E-03 Eh
 
          gradient norm          0.068082381105616 Eh/a0
            max. gradient        0.037630675027990 Eh/a0
 
            step length          0.114513165396487 a0
            max. step            0.023170171888036 a0
 
       unit cell volume      11301.816015706201142 A^3
 
       current lattice:  
       49.095487190070386       -0.106020161609635       -0.005593263350601
      -24.590030252534785       42.484889338350101        0.012941186840973
       -0.038391350137656        0.006281551962400       36.611034848530146

........................................................................
.............................. CYCLE   28 ..............................
........................................................................
     iter. time                 ...        0 min, 16.200 sec
          total energy        -130.788484976081264 Eh
            energy change       -0.70E-03 Eh
 
          gradient norm          0.055741978400996 Eh/a0
            max. gradient        0.033571947378083 Eh/a0
 
            step length          0.249218068454445 a0
            max. step            0.037630675027990 a0
 
       unit cell volume      11288.828316844785149 A^3
 
       current lattice:  
       49.074768954749473       -0.122692685701539       -0.004679409080518
      -24.581213920680241       42.473782426805023        0.013354528992153
       -0.032306126227460        0.006679044428270       36.601187305216079

........................................................................
.............................. CYCLE   29 ..............................
........................................................................
     iter. time                 ...        0 min, 17.208 sec
          total energy        -130.786963845952243 Eh
            energy change        0.15E-02 Eh
 
          gradient norm          0.171796155329020 Eh/a0
            max. gradient        0.095196813518499 Eh/a0
 
            step length          0.264149107895684 a0
            max. step            0.033571947378083 a0
 
       unit cell volume      11275.190540175406568 A^3
 
       current lattice:  
       49.067785263157084       -0.129522217528237        0.001705668874499
      -24.581620987697654       42.439295902511418        0.008860166818248
       -0.034780269380188       -0.009681177886551       36.594881822799358

........................................................................
.............................. CYCLE   30 ..............................
........................................................................
     iter. time                 ...        0 min, 16.585 sec
          total energy        -130.789168737782319 Eh
            energy change       -0.22E-02 Eh
 
          gradient norm          0.042552907445023 Eh/a0
            max. gradient        0.025088687261026 Eh/a0
 
            step length          0.055196247594672 a0
            max. step            0.095196813518499 a0
 
       unit cell volume      11275.871784322662279 A^3
 
       current lattice:  
       49.055260211420794       -0.128429817768041        0.000029970524528
      -24.579184170382270       42.445592954223841        0.012795970115024
       -0.041695423211189        0.005597828071423       36.600539086495360

........................................................................
.............................. CYCLE   31 ..............................
........................................................................
     iter. time                 ...        0 min, 16.007 sec
          total energy        -130.789540620895252 Eh
            energy change       -0.37E-03 Eh
 
          gradient norm          0.032778501409094 Eh/a0
            max. gradient        0.022679469814076 Eh/a0
 
            step length          0.060218796534974 a0
            max. step            0.025088687261026 a0
 
       unit cell volume      11275.781268157419618 A^3
 
       current lattice:  
       49.056172025054160       -0.133956385941144       -0.004865935258797
      -24.576246360062697       42.448888474590035        0.012236609705340
       -0.038417887286101        0.000321212095988       36.599104600247841

........................................................................
.............................. CYCLE   32 ..............................
........................................................................
     iter. time                 ...        0 min, 15.900 sec
          total energy        -130.789691833110396 Eh
            energy change       -0.15E-03 Eh
 
          gradient norm          0.043336743467018 Eh/a0
            max. gradient        0.026752921616209 Eh/a0
 
            step length          0.174291423946401 a0
            max. step            0.022679469814076 a0
 
       unit cell volume      11266.499995215659510 A^3
 
       current lattice:  
       49.040441386673365       -0.135241592011127        0.000171037537105
      -24.571105724015407       42.433769070988788        0.012294261187445
       -0.043190986893448        0.007415736479626       36.594324843497276

........................................................................
.............................. CYCLE   33 ..............................
........................................................................
     iter. time                 ...        0 min, 15.828 sec
          total energy        -130.789906924722800 Eh
            energy change       -0.22E-03 Eh
 
          gradient norm          0.064291382839253 Eh/a0
            max. gradient        0.040201291874642 Eh/a0
 
            step length          0.158816448914207 a0
            max. step            0.026752921616209 a0
 
       unit cell volume      11259.645446642047318 A^3
 
       current lattice:  
       49.024936909789986       -0.150818819711037        0.000597183913798
      -24.572829423973761       42.420790139629645        0.014590928891807
       -0.042670136669389        0.002729844555402       36.601606469388365

........................................................................
.............................. CYCLE   34 ..............................
........................................................................
     iter. time                 ...        0 min, 16.052 sec
          total energy        -130.790543861973987 Eh
            energy change       -0.64E-03 Eh
 
          gradient norm          0.026835800411872 Eh/a0
            max. gradient        0.015392654493942 Eh/a0
 
            step length          0.155980217595479 a0
            max. step            0.040201291874642 a0
 
       unit cell volume      11252.616738655571680 A^3
 
       current lattice:  
       49.017227008648689       -0.155853372666731       -0.003502789353884
      -24.565453374392661       42.412101982741056        0.011295162499467
       -0.047108974919598        0.003800514484886       36.594194883446598

........................................................................
.............................. CYCLE   35 ..............................
........................................................................
     iter. time                 ...        0 min, 16.157 sec
          total energy        -130.790553908689930 Eh
            energy change       -0.10E-04 Eh
 
          gradient norm          0.064500871010226 Eh/a0
            max. gradient        0.037218587288860 Eh/a0
 
            step length          0.188767209152207 a0
            max. step            0.015392654493942 a0
 
       unit cell volume      11244.341499625164943 A^3
 
       current lattice:  
       49.000632839862845       -0.155978005791623       -0.001818854289399
      -24.556951497665839       42.393909530438357        0.015247481173267
       -0.041598358842317        0.004578717826548       36.595445625741917

........................................................................
.............................. CYCLE   36 ..............................
........................................................................
     iter. time                 ...        0 min, 15.938 sec
          total energy        -130.791040683874513 Eh
            energy change       -0.49E-03 Eh
 
          gradient norm          0.043817368655352 Eh/a0
            max. gradient        0.021336999826443 Eh/a0
 
            step length          0.181095623329349 a0
            max. step            0.037218587288860 a0
 
       unit cell volume      11234.113766161586682 A^3
 
       current lattice:  
       48.987794590356543       -0.167509120686858        0.001171089387743
      -24.557362604634694       42.379674103302349        0.015420368321295
       -0.050409762402018        0.009001593325512       36.589065716537768

........................................................................
.............................. CYCLE   37 ..............................
........................................................................
     iter. time                 ...        0 min, 16.045 sec
          total energy        -130.791119511306420 Eh
            energy change       -0.79E-04 Eh
 
          gradient norm          0.071085257304331 Eh/a0
            max. gradient        0.034817570510215 Eh/a0
 
            step length          0.136669654513366 a0
            max. step            0.021336999826443 a0
 
       unit cell volume      11227.776136602387851 A^3
 
       current lattice:  
       48.973828756286643       -0.179020065348357        0.002039451971411
      -24.543611548656724       42.369740916840726        0.005481260665525
       -0.053570908415991        0.000888788933798       36.592412944659088

........................................................................
.............................. CYCLE   38 ..............................
........................................................................
     iter. time                 ...        0 min, 15.929 sec
          total energy        -130.791662898679959 Eh
            energy change       -0.54E-03 Eh
 
          gradient norm          0.034777898546899 Eh/a0
            max. gradient        0.020275125557657 Eh/a0
 
            step length          0.064727598439732 a0
            max. step            0.034817570510215 a0
 
       unit cell volume      11229.585461029659200 A^3
 
       current lattice:  
       48.980738437263931       -0.177986650621247       -0.002323864565986
      -24.548142647874318       42.375160004927089        0.012220230944764
       -0.050305971571370        0.001582267495917       36.588017329365272

........................................................................
.............................. CYCLE   39 ..............................
........................................................................
     iter. time                 ...        0 min, 16.230 sec
          total energy        -130.791977900908591 Eh
            energy change       -0.32E-03 Eh
 
          gradient norm          0.033237075875570 Eh/a0
            max. gradient        0.014994819398054 Eh/a0
 
            step length          0.164270053157537 a0
            max. step            0.020275125557657 a0
 
       unit cell volume      11221.034484425857954 A^3
 
       current lattice:  
       48.965561055520965       -0.182357727704633        0.003254679874840
      -24.542902047524070       42.356834878295068        0.007718993665170
       -0.054079982040083        0.008796937604111       36.589244037070863

........................................................................
.............................. CYCLE   40 ..............................
........................................................................
     iter. time                 ...        0 min, 15.994 sec
          total energy        -130.792307884288022 Eh
            energy change       -0.33E-03 Eh
 
          gradient norm          0.037126145810478 Eh/a0
            max. gradient        0.016937372566551 Eh/a0
 
            step length          0.109601093491903 a0
            max. step            0.014994819398054 a0
 
       unit cell volume      11214.842112912900120 A^3
 
       current lattice:  
       48.953641714615145       -0.186385657037080       -0.000526091611520
      -24.543810472975668       42.351161468194107        0.010947298398061
       -0.055670438656379        0.003488590209156       36.584640250819959

........................................................................
.............................. CYCLE   41 ..............................
........................................................................
     iter. time                 ...        0 min, 16.130 sec
          total energy        -130.792688846792856 Eh
            energy change       -0.38E-03 Eh
 
          gradient norm          0.056565862692301 Eh/a0
            max. gradient        0.031450728942046 Eh/a0
 
            step length          0.335748039751800 a0
            max. step            0.016937372566551 a0
 
       unit cell volume      11197.732657165784985 A^3
 
       current lattice:  
       48.928996727154711       -0.206371380367156        0.006452314127871
      -24.524631249949838       42.316833980635259        0.016006235297503
       -0.059949151346627        0.008116050016745       36.585589967132620

........................................................................
.............................. CYCLE   42 ..............................
........................................................................
     iter. time                 ...        0 min, 16.061 sec
          total energy        -130.793276129261358 Eh
            energy change       -0.59E-03 Eh
 
          gradient norm          0.031824949966729 Eh/a0
            max. gradient        0.014352071754765 Eh/a0
 
            step length          0.181197833225013 a0
            max. step            0.031450728942046 a0
 
       unit cell volume      11189.278371254400554 A^3
 
       current lattice:  
       48.912546859180402       -0.213058097245953        0.001115978479801
      -24.526283610226109       42.303322088159682        0.004529699420996
       -0.059080450624835        0.011427993230912       36.584919411519046

........................................................................
.............................. CYCLE   43 ..............................
........................................................................
     iter. time                 ...        0 min, 16.174 sec
          total energy        -130.793651268918609 Eh
            energy change       -0.38E-03 Eh
 
          gradient norm          0.031247193562838 Eh/a0
            max. gradient        0.015727823687435 Eh/a0
 
            step length          0.187461745081992 a0
            max. step            0.014352071754765 a0
 
       unit cell volume      11181.199712842641020 A^3
 
       current lattice:  
       48.893730488450487       -0.217650446480469        0.008663616968669
      -24.518374656836485       42.289389599973099        0.007620178268617
       -0.067310665471824        0.010134572921384       36.586647946301248

........................................................................
.............................. CYCLE   44 ..............................
........................................................................
     iter. time                 ...        0 min, 16.203 sec
          total energy        -130.793919370124996 Eh
            energy change       -0.27E-03 Eh
 
          gradient norm          0.042334589030836 Eh/a0
            max. gradient        0.023883122574551 Eh/a0
 
            step length          0.082632752116818 a0
            max. step            0.015727823687435 a0
 
       unit cell volume      11181.135393327345810 A^3
 
       current lattice:  
       48.899189682060317       -0.224639154444693        0.002462400039239
      -24.519303706323846       42.290699538991092        0.008726554105408
       -0.062707698368526        0.008796879249606       36.584257166160022

........................................................................
.............................. CYCLE   45 ..............................
........................................................................
     iter. time                 ...        0 min, 16.197 sec
          total energy        -130.794220032517160 Eh
            energy change       -0.30E-03 Eh
 
          gradient norm          0.016079828386780 Eh/a0
            max. gradient        0.005359910333625 Eh/a0
 
            step length          0.150444833661010 a0
            max. step            0.023883122574551 a0
 
       unit cell volume      11174.378306712233098 A^3
 
       current lattice:  
       48.883418229570438       -0.227158862619072        0.007609701417282
      -24.512900875430180       42.275910322324279        0.004896830411342
       -0.066245373686442        0.011818987815782       36.587868785447675

........................................................................
.............................. CYCLE   46 ..............................
........................................................................
     iter. time                 ...        0 min, 16.171 sec
          total energy        -130.794607751265261 Eh
            energy change       -0.39E-03 Eh
 
          gradient norm          0.017259262271292 Eh/a0
            max. gradient        0.008255089114734 Eh/a0
 
            step length          0.106277716630401 a0
            max. step            0.005359910333625 a0
 
       unit cell volume      11171.843048634205843 A^3
 
       current lattice:  
       48.879339463154437       -0.232325372415875        0.005839966573188
      -24.510100429792200       42.271147435148009        0.005801936573037
       -0.066909688198846        0.012055443177187       36.589000994352631

........................................................................
.............................. CYCLE   47 ..............................
........................................................................
     iter. time                 ...        0 min, 16.097 sec
          total energy        -130.795001907317840 Eh
            energy change       -0.39E-03 Eh
 
          gradient norm          0.033875912448658 Eh/a0
            max. gradient        0.020672812768043 Eh/a0
 
            step length          0.168593658301343 a0
            max. step            0.008255089114734 a0
 
       unit cell volume      11167.163098889091998 A^3
 
       current lattice:  
       48.866531816795899       -0.235368830068944        0.010057152075161
      -24.504645782893750       42.259813190321118        0.000922044930637
       -0.067290377867116        0.014257855771024       36.594421210315666

........................................................................
.............................. CYCLE   48 ..............................
........................................................................
     iter. time                 ...        0 min, 16.166 sec
          total energy        -130.794810152638689 Eh
            energy change        0.19E-03 Eh
 
          gradient norm          0.109850425708941 Eh/a0
            max. gradient        0.066588754383012 Eh/a0
 
            step length          0.284145975085410 a0
            max. step            0.020672812768043 a0
 
       unit cell volume      11148.232770419099324 A^3
 
       current lattice:  
       48.841110679105405       -0.254216263718966        0.013905900966858
      -24.494425672418625       42.230445639986399        0.001597233929771
       -0.071762884537820        0.017100371043061       36.585108320484402

........................................................................
.............................. CYCLE   49 ..............................
........................................................................
     iter. time                 ...        0 min, 16.045 sec
          total energy        -130.795607357907699 Eh
            energy change       -0.80E-03 Eh
 
          gradient norm          0.056891186111747 Eh/a0
            max. gradient        0.034444647137257 Eh/a0
 
            step length          0.232115367073499 a0
            max. step            0.066588754383012 a0
 
       unit cell volume      11144.753872243752994 A^3
 
       current lattice:  
       48.832382950646206       -0.261299324384422        0.004896346618372
      -24.488470902202192       42.219707408526929        0.004716810289106
       -0.079201105324583        0.017053945492033       36.592653153151076

........................................................................
.............................. CYCLE   50 ..............................
........................................................................
     iter. time                 ...        0 min, 16.027 sec
          total energy        -130.795597954409175 Eh
            energy change        0.94E-05 Eh
 
          gradient norm          0.085449199536145 Eh/a0
            max. gradient        0.060365959840861 Eh/a0
 
            step length          0.114487391078811 a0
            max. step            0.034444647137257 a0
 
       unit cell volume      11141.448614222192191 A^3
 
       current lattice:  
       48.824246205276047       -0.268192699746046        0.013736842976249
      -24.482273426638379       42.221313081860046        0.001762724094055
       -0.068352032206805        0.016700694322743       36.589485639120241

........................................................................
.............................. CYCLE   51 ..............................
........................................................................
     iter. time                 ...        0 min, 16.105 sec
          total energy        -130.796209715909328 Eh
            energy change       -0.61E-03 Eh
 
          gradient norm          0.048550361409242 Eh/a0
            max. gradient        0.021313903869180 Eh/a0
 
            step length          0.089204245334787 a0
            max. step            0.060365959840861 a0
 
       unit cell volume      11135.592013159632188 A^3
 
       current lattice:  
       48.815316530682310       -0.265872317534804        0.013605545097871
      -24.482031164597327       42.203535657370026       -0.002501596085006
       -0.072094987655090        0.015239301650426       36.591403693016844

........................................................................
.............................. CYCLE   52 ..............................
........................................................................
     iter. time                 ...        0 min, 16.457 sec
          total energy        -130.795953644757361 Eh
            energy change        0.26E-03 Eh
 
          gradient norm          0.098901342001410 Eh/a0
            max. gradient        0.062716198983725 Eh/a0
 
            step length          0.115074235168976 a0
            max. step            0.021313903869180 a0
 
       unit cell volume      11131.163841575085826 A^3
 
       current lattice:  
       48.803785088046723       -0.274820876197200        0.005640213580103
      -24.473067810592759       42.202652152174920        0.003522432431315
       -0.078794964585128        0.029229649443988       36.590165196320172

........................................................................
.............................. CYCLE   53 ..............................
........................................................................
     iter. time                 ...        0 min, 16.215 sec
          total energy        -130.796702652959510 Eh
            energy change       -0.75E-03 Eh
 
          gradient norm          0.050105825498893 Eh/a0
            max. gradient        0.028144975342586 Eh/a0
 
            step length          0.171758563698760 a0
            max. step            0.062716198983725 a0
 
       unit cell volume      11124.716047442509080 A^3
 
       current lattice:  
       48.802544406478681       -0.282881233038798        0.010370737590002
      -24.471864432868689       42.188491388094263        0.004137697246601
       -0.080388399487817        0.021403126953261       36.585720915805098

........................................................................
.............................. CYCLE   54 ..............................
........................................................................
     iter. time                 ...        0 min, 15.436 sec
          total energy        -130.797049603566819 Eh
            energy change       -0.35E-03 Eh
 
          gradient norm          0.040772478435970 Eh/a0
            max. gradient        0.024401483126736 Eh/a0
 
            step length          0.188273719478289 a0
            max. step            0.028144975342586 a0
 
       unit cell volume      11116.600962872158561 A^3
 
       current lattice:  
       48.780902653798861       -0.288305424511274        0.010580500770201
      -24.465177029458541       42.173263991001228        0.001409358673101
       -0.077621918269397        0.019616472445250       36.590891095925613

........................................................................
.............................. CYCLE   55 ..............................
........................................................................
     iter. time                 ...        0 min, 14.670 sec
          total energy        -130.797088605545724 Eh
            energy change       -0.39E-04 Eh
 
          gradient norm          0.058159804919581 Eh/a0
            max. gradient        0.030491190406167 Eh/a0
 
            step length          0.064019572195326 a0
            max. step            0.024401483126736 a0
 
       unit cell volume      11118.201008624431779 A^3
 
       current lattice:  
       48.789437885609004       -0.282102959359646        0.008825624303727
      -24.460317383677399       42.176462058209644       -0.001461697658041
       -0.079161681484840        0.022279860942727       36.584219032062840

........................................................................
.............................. CYCLE   56 ..............................
........................................................................
     iter. time                 ...        0 min, 14.543 sec
          total energy        -130.797610962022731 Eh
            energy change       -0.52E-03 Eh
 
          gradient norm          0.015607915793556 Eh/a0
            max. gradient        0.005721774013446 Eh/a0
 
            step length          0.143958303259471 a0
            max. step            0.030491190406167 a0
 
       unit cell volume      11113.944475863825573 A^3
 
       current lattice:  
       48.782774211551754       -0.293540115357083        0.011824482330218
      -24.459349223462755       42.166944612978426        0.002098630019641
       -0.079781822367183        0.022953506073302       36.588493868463729

........................................................................
.............................. CYCLE   57 ..............................
........................................................................
     iter. time                 ...        0 min, 14.523 sec
          total energy        -130.797870968997557 Eh
            energy change       -0.26E-03 Eh
 
          gradient norm          0.024403725301191 Eh/a0
            max. gradient        0.010089478338673 Eh/a0
 
            step length          0.249764527130999 a0
            max. step            0.005721774013446 a0
 
       unit cell volume      11103.856402121475185 A^3
 
       current lattice:  
       48.763920239203301       -0.303376979037986        0.012114993060076
      -24.448182829268845       42.150366540200658       -0.000135032870873
       -0.083290810475381        0.023445173207449       36.588134355710729

........................................................................
.............................. CYCLE   58 ..............................
........................................................................
     iter. time                 ...        0 min, 14.488 sec
          total energy        -130.797730990229070 Eh
            energy change        0.14E-03 Eh
 
          gradient norm          0.057142432655615 Eh/a0
            max. gradient        0.035001809625532 Eh/a0
 
            step length          0.071750004128256 a0
            max. step            0.010089478338673 a0
 
       unit cell volume      11103.927741740675629 A^3
 
       current lattice:  
       48.768136958302748       -0.302799545339368        0.006398208127137
      -24.448389137137283       42.147100256199607        0.008822812980950
       -0.073521377708575        0.023949399040685       36.587803336664535

........................................................................
.............................. CYCLE   59 ..............................
........................................................................
     iter. time                 ...        0 min, 14.406 sec
          total energy        -130.798157999852492 Eh
            energy change       -0.43E-03 Eh
 
          gradient norm          0.026076285728318 Eh/a0
            max. gradient        0.013886362477792 Eh/a0
 
            step length          0.130620736147800 a0
            max. step            0.035001809625532 a0
 
       unit cell volume      11097.961072626290843 A^3
 
       current lattice:  
       48.757799845448758       -0.311482447054878        0.012127758082936
      -24.446370522139251       42.136982906210925        0.001079504468111
       -0.082466399567961        0.027744763816522       36.588507659557806

........................................................................
.............................. CYCLE   60 ..............................
........................................................................
     iter. time                 ...        0 min, 14.508 sec
          total energy        -130.798231494324199 Eh
            energy change       -0.73E-04 Eh
 
          gradient norm          0.044158821948872 Eh/a0
            max. gradient        0.026221896667061 Eh/a0
 
            step length          0.104245644731686 a0
            max. step            0.013886362477792 a0
 
       unit cell volume      11093.929515046378583 A^3
 
       current lattice:  
       48.750575423204843       -0.319459485386177        0.008380403377990
      -24.437357378133481       42.131910082012794        0.002294656868937
       -0.082082289967559        0.021555079157960       36.588517572935757

........................................................................
.............................. CYCLE   61 ..............................
........................................................................
     iter. time                 ...        0 min, 14.611 sec
          total energy        -130.798537939183234 Eh
            energy change       -0.31E-03 Eh
 
          gradient norm          0.034694298885283 Eh/a0
            max. gradient        0.019714122653666 Eh/a0
 
            step length          0.177092274673216 a0
            max. step            0.026221896667061 a0
 
       unit cell volume      11086.032098409432365 A^3
 
       current lattice:  
       48.734840762370261       -0.320403239680963        0.013438826830040
      -24.435321109079041       42.117821041847982        0.006613467457466
       -0.085086553500246        0.027696570376595       36.586999458151737

........................................................................
.............................. CYCLE   62 ..............................
........................................................................
     iter. time                 ...        0 min, 14.586 sec
          total energy        -130.798684069616456 Eh
            energy change       -0.15E-03 Eh
 
          gradient norm          0.041050240738982 Eh/a0
            max. gradient        0.015731870851679 Eh/a0
 
            step length          0.069466028872163 a0
            max. step            0.019714122653666 a0
 
       unit cell volume      11085.164756487110935 A^3
 
       current lattice:  
       48.737931915311663       -0.327630672221975        0.010372022694450
      -24.430743450731221       42.111305921002085       -0.000711328473383
       -0.081739517618677        0.031308791949446       36.590623564352164

........................................................................
.............................. CYCLE   63 ..............................
........................................................................
     iter. time                 ...        0 min, 15.559 sec
          total energy        -130.798890386184070 Eh
            energy change       -0.21E-03 Eh
 
          gradient norm          0.046816091615299 Eh/a0
            max. gradient        0.031054562598659 Eh/a0
 
            step length          0.084992680899332 a0
            max. step            0.015731870851679 a0
 
       unit cell volume      11081.020580680922649 A^3
 
       current lattice:  
       48.728484612394773       -0.329974622033107        0.008097001513954
      -24.436013506636808       42.109643825460324        0.000191743733465
       -0.084312710900266        0.027822803405626       36.586572051176795

........................................................................
.............................. CYCLE   64 ..............................
........................................................................
     iter. time                 ...        0 min, 14.875 sec
          total energy        -130.799263577380202 Eh
            energy change       -0.37E-03 Eh
 
          gradient norm          0.035015396433517 Eh/a0
            max. gradient        0.018099422336368 Eh/a0
 
            step length          0.260445880095407 a0
            max. step            0.031054562598659 a0
 
       unit cell volume      11069.879304126248826 A^3
 
       current lattice:  
       48.709913193923541       -0.341641072709796        0.015142336281776
      -24.418076568911317       42.086290343974959        0.007016775814519
       -0.089567872482821        0.030047210889339       36.589138022286960

........................................................................
.............................. CYCLE   65 ..............................
........................................................................
     iter. time                 ...        0 min, 14.519 sec
          total energy        -130.799575114228816 Eh
            energy change       -0.31E-03 Eh
 
          gradient norm          0.017734821724147 Eh/a0
            max. gradient        0.007553388292740 Eh/a0
 
            step length          0.206812998456566 a0
            max. step            0.018099422336368 a0
 
       unit cell volume      11061.561336627215496 A^3
 
       current lattice:  
       48.696102140764303       -0.348532258873124        0.011367884227679
      -24.414700848458846       42.071252005751461        0.002706830762426
       -0.087885629112793        0.035030881653525       36.588183060784552

........................................................................
.............................. CYCLE   66 ..............................
........................................................................
     iter. time                 ...        0 min, 14.610 sec
          total energy        -130.799842544234082 Eh
            energy change       -0.27E-03 Eh
 
          gradient norm          0.026708854746879 Eh/a0
            max. gradient        0.014674753515453 Eh/a0
 
            step length          0.103350555381206 a0
            max. step            0.007553388292740 a0
 
       unit cell volume      11057.529712995577938 A^3
 
       current lattice:  
       48.691084407509905       -0.355671118010378        0.012528728881009
      -24.409801086594829       42.063485463051173        0.004061277285401
       -0.090966693260522        0.033779039169416       36.588508328930025

........................................................................
.............................. CYCLE   67 ..............................
........................................................................
     iter. time                 ...        0 min, 14.500 sec
          total energy        -130.800153862905802 Eh
            energy change       -0.31E-03 Eh
 
          gradient norm          0.025935587500826 Eh/a0
            max. gradient        0.014127511853300 Eh/a0
 
            step length          0.280960448113531 a0
            max. step            0.014674753515453 a0
 
       unit cell volume      11046.801456924602462 A^3
 
       current lattice:  
       48.671638957236503       -0.362896914455476        0.010994347253375
      -24.403824745218355       42.044932100942589        0.003722235522913
       -0.090811838744592        0.038611572898166       36.587011507797932

........................................................................
.............................. CYCLE   68 ..............................
........................................................................
     iter. time                 ...        0 min, 14.569 sec
          total energy        -130.800570115822723 Eh
            energy change       -0.42E-03 Eh
 
          gradient norm          0.020401918097615 Eh/a0
            max. gradient        0.010414042459945 Eh/a0
 
            step length          0.241068529024518 a0
            max. step            0.014127511853300 a0
 
       unit cell volume      11037.426130764139089 A^3
 
       current lattice:  
       48.658490191381027       -0.376224383679611        0.011109241948313
      -24.392872952222461       42.026442564950145        0.004926199264341
       -0.094018549265967        0.039216580817990       36.587809629108989

........................................................................
.............................. CYCLE   69 ..............................
........................................................................
     iter. time                 ...        0 min, 14.291 sec
          total energy        -130.800906833242863 Eh
            energy change       -0.34E-03 Eh
 
          gradient norm          0.023674811837343 Eh/a0
            max. gradient        0.012136075989127 Eh/a0
 
            step length          0.249081503422314 a0
            max. step            0.010414042459945 a0
 
       unit cell volume      11028.495238144598261 A^3
 
       current lattice:  
       48.642979667972149       -0.382168428001293        0.010222759960196
      -24.387838070080310       42.010509566016353        0.005393659175597
       -0.094824796787300        0.043828759509273       36.586422292682137

........................................................................
.............................. CYCLE   70 ..............................
........................................................................
     iter. time                 ...        0 min, 14.770 sec
          total energy        -130.801144537937262 Eh
            energy change       -0.24E-03 Eh
 
          gradient norm          0.025272159200237 Eh/a0
            max. gradient        0.013002217832242 Eh/a0
 
            step length          0.152718235618496 a0
            max. step            0.012136075989127 a0
 
       unit cell volume      11024.297840272569374 A^3
 
       current lattice:  
       48.637445377259802       -0.390986857810925        0.008947970956649
      -24.378886171743748       42.001114844042640        0.006561938475925
       -0.095777665147924        0.042482571910591       36.588706197711424

........................................................................
.............................. CYCLE   71 ..............................
........................................................................
     iter. time                 ...        0 min, 14.718 sec
          total energy        -130.800951934262798 Eh
            energy change        0.19E-03 Eh
 
          gradient norm          0.093866414287205 Eh/a0
            max. gradient        0.056241148206955 Eh/a0
 
            step length          0.292509480796268 a0
            max. step            0.013002217832242 a0
 
       unit cell volume      11007.711686244130760 A^3
 
       current lattice:  
       48.612143123616157       -0.401060734751499        0.012759230388337
      -24.372107710630910       41.975317702977719        0.003913665757309
       -0.094418395349465        0.049659551862813       36.579701036364369

........................................................................
.............................. CYCLE   72 ..............................
........................................................................
     iter. time                 ...        0 min, 14.311 sec
          total energy        -130.801781858813769 Eh
            energy change       -0.83E-03 Eh
 
          gradient norm          0.047122559205640 Eh/a0
            max. gradient        0.024581046890429 Eh/a0
 
            step length          0.224878389196321 a0
            max. step            0.056241148206955 a0
 
       unit cell volume      11007.325377236926215 A^3
 
       current lattice:  
       48.611359979502332       -0.404086285516126        0.004839652776656
      -24.368250251398177       41.967878937884088        0.009870211020855
       -0.100058067932823        0.049718020344310       36.586842070325829

........................................................................
.............................. CYCLE   73 ..............................
........................................................................
     iter. time                 ...        0 min, 14.597 sec
          total energy        -130.802133792633242 Eh
            energy change       -0.35E-03 Eh
 
          gradient norm          0.061380241060185 Eh/a0
            max. gradient        0.044793729179335 Eh/a0
 
            step length          0.121405126247425 a0
            max. step            0.024581046890429 a0
 
       unit cell volume      11007.781265610323317 A^3
 
       current lattice:  
       48.612744123454341       -0.410936800731850        0.010593470075834
      -24.362524783803835       41.972926945905186        0.008845221954788
       -0.095636352920018        0.049327675335292       36.585845458176678

........................................................................
.............................. CYCLE   74 ..............................
........................................................................
     iter. time                 ...        0 min, 14.953 sec
          total energy        -130.802325041398632 Eh
            energy change       -0.19E-03 Eh
 
          gradient norm          0.095108726122805 Eh/a0
            max. gradient        0.069869240800951 Eh/a0
 
            step length          0.318183327931645 a0
            max. step            0.044793729179335 a0
 
       unit cell volume      10996.364639222010737 A^3
 
       current lattice:  
       48.601306398012859       -0.418494000750036        0.006884190709172
      -24.353606105697740       41.940969378318748        0.007752808428539
       -0.103845814680737        0.045143334894687       36.587791849651779

........................................................................
.............................. CYCLE   75 ..............................
........................................................................
     iter. time                 ...        0 min, 14.722 sec
          total energy        -130.802537930252640 Eh
            energy change       -0.21E-03 Eh
 
          gradient norm          0.087266579908551 Eh/a0
            max. gradient        0.044750201583704 Eh/a0
 
            step length          0.207296905038333 a0
            max. step            0.069869240800951 a0
 
       unit cell volume      10990.118004272218968 A^3
 
       current lattice:  
       48.584755694070623       -0.425742625830692       -0.002330427194676
      -24.345920203128305       41.937332871500594        0.014683902722473
       -0.106095531638511        0.061288494826754       36.585869068270711

........................................................................
.............................. CYCLE   76 ..............................
........................................................................
     iter. time                 ...        0 min, 14.368 sec
          total energy        -130.803283470815501 Eh
            energy change       -0.75E-03 Eh
 
          gradient norm          0.056253606727706 Eh/a0
            max. gradient        0.036667435765123 Eh/a0
 
            step length          0.251614599882105 a0
            max. step            0.044750201583704 a0
 
       unit cell volume      10985.046173695915058 A^3
 
       current lattice:  
       48.578743310048907       -0.427300720665208        0.006864708588115
      -24.341789717925238       41.924812218706116        0.010871578974735
       -0.099229553262639        0.055742137342011       36.585145764992625

........................................................................
.............................. CYCLE   77 ..............................
........................................................................
     iter. time                 ...        0 min, 14.321 sec
          total energy        -130.803835391161670 Eh
            energy change       -0.55E-03 Eh
 
          gradient norm          0.027976058382808 Eh/a0
            max. gradient        0.018162648835911 Eh/a0
 
            step length          0.074679402074586 a0
            max. step            0.036667435765123 a0
 
       unit cell volume      10987.072295409423532 A^3
 
       current lattice:  
       48.583079945296177       -0.431806069455274        0.004901677235761
      -24.339581263583469       41.926139141471431        0.012611984166963
       -0.100640101465573        0.053669139523858       36.589413683676554

........................................................................
.............................. CYCLE   78 ..............................
........................................................................
     iter. time                 ...        0 min, 14.402 sec
          total energy        -130.803753567818632 Eh
            energy change        0.82E-04 Eh
 
          gradient norm          0.081963223484912 Eh/a0
            max. gradient        0.060865357751396 Eh/a0
 
            step length          0.191940263418004 a0
            max. step            0.018162648835911 a0
 
       unit cell volume      10980.661523727025269 A^3
 
       current lattice:  
       48.580972170980743       -0.433460105849944        0.005155600653963
      -24.335609973097654       41.917577296428618        0.013290293401563
       -0.106709092006937        0.060291851110747       36.577865590925626

........................................................................
.............................. CYCLE   79 ..............................
........................................................................
     iter. time                 ...        0 min, 14.632 sec
          total energy        -130.804573862244268 Eh
            energy change       -0.82E-03 Eh
 
          gradient norm          0.030314409438673 Eh/a0
            max. gradient        0.020385731687894 Eh/a0
 
            step length          0.208763646028149 a0
            max. step            0.060865357751396 a0
 
       unit cell volume      10976.692136130866857 A^3
 
       current lattice:  
       48.566023867863585       -0.438925416896132        0.004113100779554
      -24.330297954182630       41.906916502221819        0.013476946720698
       -0.106084691991627        0.059956846243613       36.587672219355902

........................................................................
.............................. CYCLE   80 ..............................
........................................................................
     iter. time                 ...        0 min, 14.768 sec
          total energy        -130.804870199740463 Eh
            energy change       -0.30E-03 Eh
 
          gradient norm          0.051732889698682 Eh/a0
            max. gradient        0.027649315010956 Eh/a0
 
            step length          0.362047074246353 a0
            max. step            0.020385731687894 a0
 
       unit cell volume      10967.085266183290514 A^3
 
       current lattice:  
       48.558520224794222       -0.453578850977353        0.001181125028501
      -24.321029413365761       41.885461769092984        0.021702878428455
       -0.101569913147967        0.063632760277613       36.586544727368342

........................................................................
.............................. CYCLE   81 ..............................
........................................................................
     iter. time                 ...        0 min, 14.593 sec
          total energy        -130.805253227911180 Eh
            energy change       -0.38E-03 Eh
 
          gradient norm          0.055019668091483 Eh/a0
            max. gradient        0.032245304122428 Eh/a0
 
            step length          0.265993408401524 a0
            max. step            0.027649315010956 a0
 
       unit cell volume      10962.941300038279223 A^3
 
       current lattice:  
       48.549154028181462       -0.461779513636919       -0.001420550881232
      -24.306161122949135       41.874034292779932        0.014858099647510
       -0.112536479983488        0.064798445462178       36.593330917936818

........................................................................
.............................. CYCLE   82 ..............................
........................................................................
     iter. time                 ...        0 min, 14.598 sec
          total energy        -130.805288989770048 Eh
            energy change       -0.36E-04 Eh
 
          gradient norm          0.065705609542668 Eh/a0
            max. gradient        0.044772995030972 Eh/a0
 
            step length          0.121543057104453 a0
            max. step            0.032245304122428 a0
 
       unit cell volume      10957.859506294176754 A^3
 
       current lattice:  
       48.538969563915046       -0.465363980245146        0.008022170849125
      -24.316000885411839       41.864454990677643        0.018603670709148
       -0.112707198276230        0.070623653218306       36.594157810164972

........................................................................
.............................. CYCLE   83 ..............................
........................................................................
     iter. time                 ...        0 min, 14.622 sec
          total energy        -130.805623828417083 Eh
            energy change       -0.33E-03 Eh
 
          gradient norm          0.056907815927967 Eh/a0
            max. gradient        0.025676492479495 Eh/a0
 
            step length          0.061012886484395 a0
            max. step            0.044772995030972 a0
 
       unit cell volume      10959.287897462541878 A^3
 
       current lattice:  
       48.540073323318957       -0.458541014637469       -0.000876944579136
      -24.309409089644536       41.869996591015642        0.021712284127796
       -0.105672524394379        0.064745704337647       36.590177044738475

........................................................................
.............................. CYCLE   84 ..............................
........................................................................
     iter. time                 ...        0 min, 14.794 sec
          total energy        -130.806195229046381 Eh
            energy change       -0.57E-03 Eh
 
          gradient norm          0.025289851964751 Eh/a0
            max. gradient        0.012434460803394 Eh/a0
 
            step length          0.102709948915712 a0
            max. step            0.025676492479495 a0
 
       unit cell volume      10958.761983650538241 A^3
 
       current lattice:  
       48.541319612915913       -0.465665643541849       -0.001346676530715
      -24.305736812141927       41.862165248001986        0.019249355697878
       -0.109463072427214        0.067933111045519       36.597462826450389

........................................................................
.............................. CYCLE   85 ..............................
........................................................................
     iter. time                 ...        0 min, 14.637 sec
          total energy        -130.806432938115393 Eh
            energy change       -0.24E-03 Eh
 
          gradient norm          0.049600508884055 Eh/a0
            max. gradient        0.026875826353425 Eh/a0
 
            step length          0.389260623591010 a0
            max. step            0.012434460803394 a0
 
       unit cell volume      10947.024245096165032 A^3
 
       current lattice:  
       48.521441735802632       -0.478913097743483       -0.000660470093461
      -24.299017471750378       41.843175671530489        0.017489724655376
       -0.112641037713941        0.069666366416791       36.595790723511591

........................................................................
.............................. CYCLE   86 ..............................
........................................................................
     iter. time                 ...        0 min, 14.375 sec
          total energy        -130.806497192802311 Eh
            energy change       -0.64E-04 Eh
 
          gradient norm          0.064469950172199 Eh/a0
            max. gradient        0.034889096657386 Eh/a0
 
            step length          0.193204285569094 a0
            max. step            0.026875826353425 a0
 
       unit cell volume      10943.980192024253483 A^3
 
       current lattice:  
       48.515180017769460       -0.481169084622722        0.007872592624236
      -24.285798863561165       41.828189084561494        0.030054360644194
       -0.118667354904362        0.074331690833195       36.604439106485721

........................................................................
.............................. CYCLE   87 ..............................
........................................................................
     iter. time                 ...        0 min, 14.198 sec
          total energy        -130.807038213681409 Eh
            energy change       -0.54E-03 Eh
 
          gradient norm          0.032232754565969 Eh/a0
            max. gradient        0.017220521300634 Eh/a0
 
            step length          0.078720046021938 a0
            max. step            0.034889096657386 a0
 
       unit cell volume      10940.289499153790530 A^3
 
       current lattice:  
       48.511489106658132       -0.490259493170722       -0.001765001747403
      -24.288499008588058       41.821237304805912        0.021822778274343
       -0.115539492870218        0.074990875805312       36.605044412233525

........................................................................
.............................. CYCLE   88 ..............................
........................................................................
     iter. time                 ...        0 min, 14.353 sec
          total energy        -130.807368526304373 Eh
            energy change       -0.33E-03 Eh
 
          gradient norm          0.013512721431244 Eh/a0
            max. gradient        0.003776994632004 Eh/a0
 
            step length          0.265496325701044 a0
            max. step            0.017220521300634 a0
 
       unit cell volume      10932.425646721052544 A^3
 
       current lattice:  
       48.498946449973467       -0.497516104095908        0.000277930643269
      -24.279159703165746       41.807388521275918        0.022732437502948
       -0.117981274763493        0.075549456479155       36.603555151723072

........................................................................
.............................. CYCLE   89 ..............................
........................................................................
     iter. time                 ...        0 min, 14.052 sec
          total energy        -130.807213812892826 Eh
            energy change        0.15E-03 Eh
 
          gradient norm          0.066037935775060 Eh/a0
            max. gradient        0.031807486527382 Eh/a0
 
            step length          0.143464094598036 a0
            max. step            0.003776994632004 a0
 
       unit cell volume      10936.639422424748773 A^3
 
       current lattice:  
       48.505525648286408       -0.498300542356315       -0.003350593175911
      -24.286047141084065       41.814625130449315        0.027242614401670
       -0.121125374521385        0.070043883479324       36.606711310534358

........................................................................
.............................. CYCLE   90 ..............................
........................................................................
     iter. time                 ...        0 min, 14.518 sec
          total energy        -130.807887514762143 Eh
            energy change       -0.67E-03 Eh
 
          gradient norm          0.025028559241499 Eh/a0
            max. gradient        0.012325587892276 Eh/a0
 
            step length          0.592091111805405 a0
            max. step            0.031807486527382 a0
 
       unit cell volume      10918.175340892687018 A^3
 
       current lattice:  
       48.477370577415677       -0.514350781124451       -0.002466846180403
      -24.266041643952740       41.778170802722968        0.028026075912053
       -0.123012421858296        0.077859823521322       36.605265147933657

........................................................................
.............................. CYCLE   91 ..............................
........................................................................
     iter. time                 ...        0 min, 14.656 sec
          total energy        -130.808172076600499 Eh
            energy change       -0.28E-03 Eh
 
          gradient norm          0.028676180199766 Eh/a0
            max. gradient        0.016214281056481 Eh/a0
 
            step length          0.165423471320795 a0
            max. step            0.012325587892276 a0
 
       unit cell volume      10913.201321103404553 A^3
 
       current lattice:  
       48.470515585770748       -0.521821667015427       -0.002467009920889
      -24.259876209389304       41.769543815696544        0.027805047404138
       -0.126068124224770        0.075574108038290       36.604638126162250

........................................................................
.............................. CYCLE   92 ..............................
........................................................................
     iter. time                 ...        0 min, 15.037 sec
          total energy        -130.808471398495044 Eh
            energy change       -0.30E-03 Eh
 
          gradient norm          0.031296067104019 Eh/a0
            max. gradient        0.018181363360929 Eh/a0
 
            step length          0.246800123858512 a0
            max. step            0.016214281056481 a0
 
       unit cell volume      10906.056882916127506 A^3
 
       current lattice:  
       48.459742432821791       -0.527577832805096       -0.001573873172047
      -24.252596313669049       41.753699618059187        0.028320345345558
       -0.125677594796570        0.080664137709931       36.605304820044445

........................................................................
.............................. CYCLE   93 ..............................
........................................................................
     iter. time                 ...        0 min, 14.419 sec
          total energy        -130.808713337671492 Eh
            energy change       -0.24E-03 Eh
 
          gradient norm          0.040420767109482 Eh/a0
            max. gradient        0.024803976084523 Eh/a0
 
            step length          0.238950481450234 a0
            max. step            0.018181363360929 a0
 
       unit cell volume      10898.770221998094712 A^3
 
       current lattice:  
       48.448662957732353       -0.535002941689663       -0.000312091606868
      -24.244757862076330       41.742675360802188        0.029091621043556
       -0.132559834922829        0.077219386548012       36.602191769472363

........................................................................
.............................. CYCLE   94 ..............................
........................................................................
     iter. time                 ...        0 min, 14.596 sec
          total energy        -130.809062560539161 Eh
            energy change       -0.35E-03 Eh
 
          gradient norm          0.037763849644311 Eh/a0
            max. gradient        0.021113250335595 Eh/a0
 
            step length          0.215528463001561 a0
            max. step            0.024803976084523 a0
 
       unit cell volume      10896.286774656226044 A^3
 
       current lattice:  
       48.445480632311508       -0.540951965734824       -0.002507955839278
      -24.238306172552932       41.735442419290145        0.031744135015749
       -0.134341552989622        0.076220651435817       36.605226691240553

........................................................................
.............................. CYCLE   95 ..............................
........................................................................
     iter. time                 ...        0 min, 14.624 sec
          total energy        -130.809255035892932 Eh
            energy change       -0.19E-03 Eh
 
          gradient norm          0.075248944216288 Eh/a0
            max. gradient        0.037684466913245 Eh/a0
 
            step length          0.153136732007458 a0
            max. step            0.021113250335595 a0
 
       unit cell volume      10895.246955684364366 A^3
 
       current lattice:  
       48.443327414624910       -0.544931829774609        0.003469895621274
      -24.236610642906872       41.733285005997423        0.032109754521261
       -0.131089091776581        0.080836985886642       36.607010332761277

........................................................................
.............................. CYCLE   96 ..............................
........................................................................
     iter. time                 ...        0 min, 14.376 sec
          total energy        -130.809062432092730 Eh
            energy change        0.19E-03 Eh
 
          gradient norm          0.110886900068364 Eh/a0
            max. gradient        0.068020195781979 Eh/a0
 
            step length          0.447432117976587 a0
            max. step            0.037684466913245 a0
 
       unit cell volume      10881.535865069119609 A^3
 
       current lattice:  
       48.426859744377630       -0.546924341617316       -0.002543349401861
      -24.228986043959136       41.697271664280073        0.035308641540048
       -0.141891496356540        0.074601608962271       36.606069868060494

........................................................................
.............................. CYCLE   97 ..............................
........................................................................
     iter. time                 ...        0 min, 14.714 sec
          total energy        -130.809653317602283 Eh
            energy change       -0.59E-03 Eh
 
          gradient norm          0.079184937824462 Eh/a0
            max. gradient        0.051382315702256 Eh/a0
 
            step length          0.116209230622459 a0
            max. step            0.068020195781979 a0
 
       unit cell volume      10885.072906334822619 A^3
 
       current lattice:  
       48.424916951487390       -0.556065316570328       -0.006808205176268
      -24.221790625602164       41.716108023390753        0.039603721755607
       -0.148615923294833        0.079220785503736       36.606791387404911

........................................................................
.............................. CYCLE   98 ..............................
........................................................................
     iter. time                 ...        0 min, 14.675 sec
          total energy        -130.809913808803486 Eh
            energy change       -0.26E-03 Eh
 
          gradient norm          0.082791494686845 Eh/a0
            max. gradient        0.045713727272583 Eh/a0
 
            step length          0.084895925541274 a0
            max. step            0.051382315702256 a0
 
       unit cell volume      10885.221969553200324 A^3
 
       current lattice:  
       48.432168404403157       -0.559238434897412        0.006828961852531
      -24.221210658707086       41.709905762679433        0.035006907088686
       -0.135476768454400        0.072601922789376       36.608608578499521

........................................................................
.............................. CYCLE   99 ..............................
........................................................................
     iter. time                 ...        0 min, 14.564 sec
          total energy        -130.810600187994908 Eh
            energy change       -0.69E-03 Eh
 
          gradient norm          0.042774199923759 Eh/a0
            max. gradient        0.025390093763484 Eh/a0
 
            step length          0.172224942136983 a0
            max. step            0.045713727272583 a0
 
       unit cell volume      10879.509720722271595 A^3
 
       current lattice:  
       48.421859348439952       -0.559034450633443       -0.002368890686799
      -24.219751733653666       41.695579746205887        0.038107434839340
       -0.142656719865481        0.081186371677148       36.609825210664340

........................................................................
.............................. CYCLE  100 ..............................
........................................................................
     iter. time                 ...        0 min, 14.558 sec
          total energy        -130.810904020728401 Eh
            energy change       -0.30E-03 Eh
 
          gradient norm          0.042126099994378 Eh/a0
            max. gradient        0.019138298510844 Eh/a0
 
            step length          0.284693395140005 a0
            max. step            0.025390093763484 a0
 
       unit cell volume      10872.655989539063739 A^3
 
       current lattice:  
       48.406439339836737       -0.567680167989272       -0.002442047000058
      -24.210874498811975       41.684455786733089        0.044062683899601
       -0.147255467449403        0.074029961307166       36.612065842811418

........................................................................
.............................. CYCLE  101 ..............................
........................................................................
     iter. time                 ...        0 min, 14.523 sec
          total energy        -130.810258761910859 Eh
            energy change        0.65E-03 Eh
 
          gradient norm          0.117737253077398 Eh/a0
            max. gradient        0.072732545061271 Eh/a0
 
            step length          0.154849733576091 a0
            max. step            0.019138298510844 a0
 
       unit cell volume      10872.871421100826410 A^3
 
       current lattice:  
       48.423682632087569       -0.568577388263094       -0.002889806792183
      -24.211008734412331       41.687518336973149        0.041001591314505
       -0.153337978099504        0.084529669026870       36.597361049479069

........................................................................
.............................. CYCLE  102 ..............................
........................................................................
     iter. time                 ...        0 min, 14.782 sec
          total energy        -130.810935734322015 Eh
            energy change       -0.68E-03 Eh
 
          gradient norm          0.065081587954175 Eh/a0
            max. gradient        0.041568759805859 Eh/a0
 
            step length          0.096978412193478 a0
            max. step            0.072732545061271 a0
 
       unit cell volume      10871.811954660948686 A^3
 
       current lattice:  
       48.407905685866290       -0.567912354632652        0.000971352102140
      -24.208863318994954       41.681426514764318        0.033951045931388
       -0.152692377640910        0.085446811560113       36.610852047570148

........................................................................
.............................. CYCLE  103 ..............................
........................................................................
     iter. time                 ...        0 min, 14.362 sec
          total energy        -130.811650897354554 Eh
            energy change       -0.72E-03 Eh
 
          gradient norm          0.035261954441678 Eh/a0
            max. gradient        0.017848884115389 Eh/a0
 
            step length          0.377406671261763 a0
            max. step            0.041568759805859 a0
 
       unit cell volume      10862.842610371881165 A^3
 
       current lattice:  
       48.396362783581800       -0.582296099986802       -0.005019226550521
      -24.199607551012594       41.663845449381945        0.047867313959923
       -0.152340071135671        0.078666660881214       36.611279069580625

........................................................................
.............................. CYCLE  104 ..............................
........................................................................
     iter. time                 ...        0 min, 14.474 sec
          total energy        -130.811875075137380 Eh
            energy change       -0.22E-03 Eh
 
          gradient norm          0.060485838636346 Eh/a0
            max. gradient        0.035779830725733 Eh/a0
 
            step length          0.128181430587592 a0
            max. step            0.017848884115389 a0
 
       unit cell volume      10858.953663745323865 A^3
 
       current lattice:  
       48.391141390149365       -0.580387191607077       -0.004707046907560
      -24.188770836387107       41.658042443543977        0.045726031069949
       -0.160087526442580        0.075709391832425       36.606316549620281

........................................................................
.............................. CYCLE  105 ..............................
........................................................................
     iter. time                 ...        0 min, 14.219 sec
          total energy        -130.812328004283785 Eh
            energy change       -0.45E-03 Eh
 
          gradient norm          0.055228477669897 Eh/a0
            max. gradient        0.034037725920028 Eh/a0
 
            step length          0.405656707163228 a0
            max. step            0.035779830725733 a0
 
       unit cell volume      10846.477412661790368 A^3
 
       current lattice:  
       48.373448008333561       -0.597996201801327        0.001191833943160
      -24.186737497828783       41.635128686828899        0.054420343477895
       -0.169016102016915        0.077414345703328       36.605774596299156

........................................................................
.............................. CYCLE  106 ..............................
........................................................................
     iter. time                 ...        0 min, 14.778 sec
          total energy        -130.812985483024335 Eh
            energy change       -0.66E-03 Eh
 
          gradient norm          0.031334709134205 Eh/a0
            max. gradient        0.019221719431667 Eh/a0
 
            step length          0.216216765044949 a0
            max. step            0.034037725920028 a0
 
       unit cell volume      10840.220315721013321 A^3
 
       current lattice:  
       48.366161372607827       -0.602776948555108       -0.006448061267382
      -24.175670568863591       41.623831465285349        0.058732545837995
       -0.167669392317688        0.077143247714392       36.602234434218019

........................................................................
.............................. CYCLE  107 ..............................
........................................................................
     iter. time                 ...        0 min, 14.292 sec
          total energy        -130.813191257077420 Eh
            energy change       -0.21E-03 Eh
 
          gradient norm          0.049639194581685 Eh/a0
            max. gradient        0.027400885042427 Eh/a0
 
            step length          0.471734193024774 a0
            max. step            0.019221719431667 a0
 
       unit cell volume      10828.078486361335308 A^3
 
       current lattice:  
       48.348264809555168       -0.620225716260747       -0.003835814137007
      -24.158401209379367       41.597260467001597        0.065977496293655
       -0.184140546280358        0.072738325688988       36.605941162293654

........................................................................
.............................. CYCLE  108 ..............................
........................................................................
     iter. time                 ...        0 min, 14.693 sec
          total energy        -130.813261021330078 Eh
            energy change       -0.70E-04 Eh
 
          gradient norm          0.075820978491362 Eh/a0
            max. gradient        0.039059116414744 Eh/a0
 
            step length          0.158697443794065 a0
            max. step            0.027400885042427 a0
 
       unit cell volume      10819.864114984644402 A^3
 
       current lattice:  
       48.334323339062756       -0.621381744069210       -0.009466068464128
      -24.161600313626863       41.591922815913179        0.060954193228513
       -0.177569392846220        0.074672981394364       36.594090105714649

........................................................................
.............................. CYCLE  109 ..............................
........................................................................
     iter. time                 ...        0 min, 14.536 sec
          total energy        -130.813707166246331 Eh
            energy change       -0.45E-03 Eh
 
          gradient norm          0.052663479793086 Eh/a0
            max. gradient        0.021398032105838 Eh/a0
 
            step length          0.180222271680395 a0
            max. step            0.039059116414744 a0
 
       unit cell volume      10825.277344889173037 A^3
 
       current lattice:  
       48.343677962385982       -0.613814251631712       -0.004190335123043
      -24.159833190064756       41.597819310760222        0.071782881092626
       -0.177567940999099        0.076217845465624       36.596667087259533

........................................................................
.............................. CYCLE  110 ..............................
........................................................................
     iter. time                 ...        0 min, 14.775 sec
          total energy        -130.814238152463616 Eh
            energy change       -0.53E-03 Eh
 
          gradient norm          0.022619703870896 Eh/a0
            max. gradient        0.009045793420440 Eh/a0
 
            step length          0.395051365799518 a0
            max. step            0.021398032105838 a0
 
       unit cell volume      10813.660673776344993 A^3
 
       current lattice:  
       48.329008229318895       -0.632940093897064       -0.008707511020532
      -24.149817590853523       41.573232096584285        0.069306383801760
       -0.184957364676491        0.076037798799012       36.598734490657712

........................................................................
.............................. CYCLE  111 ..............................
........................................................................
     iter. time                 ...        0 min, 14.833 sec
          total energy        -130.814547803548606 Eh
            energy change       -0.31E-03 Eh
 
          gradient norm          0.026406362542742 Eh/a0
            max. gradient        0.014506317719164 Eh/a0
 
            step length          0.331454835056312 a0
            max. step            0.009045793420440 a0
 
       unit cell volume      10801.906464843221329 A^3
 
       current lattice:  
       48.309049905767878       -0.640683186642256       -0.006858896103462
      -24.137304567991038       41.552750500804294        0.078417924316175
       -0.191844018777829        0.076125128495712       36.595637924051374

........................................................................
.............................. CYCLE  112 ..............................
........................................................................
     iter. time                 ...        0 min, 14.483 sec
          total energy        -130.814809358396758 Eh
            energy change       -0.26E-03 Eh
 
          gradient norm          0.029024635309399 Eh/a0
            max. gradient        0.014697275065414 Eh/a0
 
            step length          0.075600319334432 a0
            max. step            0.014506317719164 a0
 
       unit cell volume      10798.656672777962740 A^3
 
       current lattice:  
       48.307712667617388       -0.647202239934861       -0.010851091217159
      -24.138192543387213       41.545655780780862        0.077384749277450
       -0.191000562016082        0.078379752637003       36.594860983124910

........................................................................
.............................. CYCLE  113 ..............................
........................................................................
     iter. time                 ...        0 min, 14.548 sec
          total energy        -130.815001334870743 Eh
            energy change       -0.19E-03 Eh
 
          gradient norm          0.031795806834085 Eh/a0
            max. gradient        0.018142569826989 Eh/a0
 
            step length          0.398429503533082 a0
            max. step            0.014697275065414 a0
 
       unit cell volume      10787.972501180724066 A^3
 
       current lattice:  
       48.290246751481874       -0.656970803114156       -0.010951277459538
      -24.124421721426238       41.525260937613218        0.083404578107322
       -0.196520996444004        0.078263182415890       36.594266475141410

........................................................................
.............................. CYCLE  114 ..............................
........................................................................
     iter. time                 ...        0 min, 14.692 sec
          total energy        -130.815228169832494 Eh
            energy change       -0.23E-03 Eh
 
          gradient norm          0.028876329269298 Eh/a0
            max. gradient        0.013816439667131 Eh/a0
 
            step length          0.125904215728947 a0
            max. step            0.018142569826989 a0
 
       unit cell volume      10786.218796934357670 A^3
 
       current lattice:  
       48.287994026329741       -0.657782604492956       -0.009841702721374
      -24.125549403998189       41.523621798816293        0.085597821623326
       -0.200805111367123        0.075391609733119       36.591863648083219

........................................................................
.............................. CYCLE  115 ..............................
........................................................................
     iter. time                 ...        0 min, 14.819 sec
          total energy        -130.815475047045169 Eh
            energy change       -0.25E-03 Eh
 
          gradient norm          0.026728080633951 Eh/a0
            max. gradient        0.014654258841234 Eh/a0
 
            step length          0.187646652171093 a0
            max. step            0.013816439667131 a0
 
       unit cell volume      10781.170230072260892 A^3
 
       current lattice:  
       48.282070805967784       -0.663613345832999       -0.011824794574345
      -24.120993771278595       41.512920980226703        0.086269210457787
       -0.199994757433730        0.079138392232116       36.591311426464031

........................................................................
.............................. CYCLE  116 ..............................
........................................................................
     iter. time                 ...        0 min, 14.406 sec
          total energy        -130.815708513522878 Eh
            energy change       -0.23E-03 Eh
 
          gradient norm          0.035744937477395 Eh/a0
            max. gradient        0.023024304248354 Eh/a0
 
            step length          0.358850406470899 a0
            max. step            0.014654258841234 a0
 
       unit cell volume      10767.662047183162940 A^3
 
       current lattice:  
       48.262029045757664       -0.679260296076411       -0.012945959056970
      -24.109563316233970       41.490053891089019        0.093121189852638
       -0.206182446183700        0.076587392325084       36.587897035886094

........................................................................
.............................. CYCLE  117 ..............................
........................................................................
     iter. time                 ...        0 min, 14.595 sec
          total energy        -130.815813209014266 Eh
            energy change       -0.10E-03 Eh
 
          gradient norm          0.050329958785636 Eh/a0
            max. gradient        0.028340185733777 Eh/a0
 
            step length          0.317350123472933 a0
            max. step            0.023024304248354 a0
 
       unit cell volume      10775.002522495380617 A^3
 
       current lattice:  
       48.275057010120484       -0.663086069552154       -0.015373950193598
      -24.117135106362255       41.500900920557022        0.093595324934891
       -0.207077907508835        0.075372227708292       36.586151180149734

........................................................................
.............................. CYCLE  118 ..............................
........................................................................
     iter. time                 ...        0 min, 14.458 sec
          total energy        -130.816059547809715 Eh
            energy change       -0.25E-03 Eh
 
          gradient norm          0.046099847932778 Eh/a0
            max. gradient        0.027561051012316 Eh/a0
 
            step length          0.293880140960769 a0
            max. step            0.028340185733777 a0
 
       unit cell volume      10765.752532072549002 A^3
 
       current lattice:  
       48.259755720055232       -0.680253403061881       -0.013308917077248
      -24.106543666492790       41.490153901924550        0.096220122585679
       -0.208893840238971        0.081103876765865       36.583477639646709

........................................................................
.............................. CYCLE  119 ..............................
........................................................................
     iter. time                 ...        0 min, 14.750 sec
          total energy        -130.816409306020006 Eh
            energy change       -0.35E-03 Eh
 
          gradient norm          0.031377826874727 Eh/a0
            max. gradient        0.017864002872931 Eh/a0
 
            step length          0.429317672687825 a0
            max. step            0.027561051012316 a0
 
       unit cell volume      10751.987322921455416 A^3
 
       current lattice:  
       48.244590989399505       -0.691936191159024       -0.015809665279564
      -24.095317688802837       41.458545813865825        0.100190444155269
       -0.210858828797018        0.078037422067903       36.581435852322187

........................................................................
.............................. CYCLE  120 ..............................
........................................................................
     iter. time                 ...        0 min, 14.523 sec
          total energy        -130.816751440243650 Eh
            energy change       -0.34E-03 Eh
 
          gradient norm          0.035369609672396 Eh/a0
            max. gradient        0.018430338877645 Eh/a0
 
            step length          0.184500795381539 a0
            max. step            0.017864002872931 a0
 
       unit cell volume      10755.322712835495622 A^3
 
       current lattice:  
       48.249229974466651       -0.688214709679504       -0.020472200751686
      -24.095853439628623       41.470269069178578        0.104058838076601
       -0.213056929867582        0.080881202003036       36.577190024097753

........................................................................
.............................. CYCLE  121 ..............................
........................................................................
     iter. time                 ...        0 min, 14.428 sec
          total energy        -130.817006226995574 Eh
            energy change       -0.25E-03 Eh
 
          gradient norm          0.046812318305808 Eh/a0
            max. gradient        0.024738802533202 Eh/a0
 
            step length          0.206300418798769 a0
            max. step            0.018430338877645 a0
 
       unit cell volume      10749.451495354427607 A^3
 
       current lattice:  
       48.245078568564026       -0.693360549908122       -0.013766157525773
      -24.088803029483120       41.460543121339576        0.107507290376604
       -0.210647304736320        0.074516159857805       36.571205994678913

........................................................................
.............................. CYCLE  122 ..............................
........................................................................
     iter. time                 ...        0 min, 14.513 sec
          total energy        -130.817455199785257 Eh
            energy change       -0.45E-03 Eh
 
          gradient norm          0.027752187837398 Eh/a0
            max. gradient        0.014720826054998 Eh/a0
 
            step length          0.521749288768752 a0
            max. step            0.024738802533202 a0
 
       unit cell volume      10732.131020978102242 A^3
 
       current lattice:  
       48.219739435170915       -0.712572337390795       -0.021922290997535
      -24.074865238644168       41.431739431833307        0.116920891238647
       -0.222964936802027        0.078256469489826       36.565657101336676

........................................................................
.............................. CYCLE  123 ..............................
........................................................................
     iter. time                 ...        0 min, 14.731 sec
          total energy        -130.817725558369290 Eh
            energy change       -0.27E-03 Eh
 
          gradient norm          0.039164794347299 Eh/a0
            max. gradient        0.020156780098644 Eh/a0
 
            step length          0.156467098958062 a0
            max. step            0.014720826054998 a0
 
       unit cell volume      10733.465659551333374 A^3
 
       current lattice:  
       48.229728126904639       -0.710253514574635       -0.021664785559311
      -24.071100446657514       41.435075810678590        0.120066171018964
       -0.221728121214121        0.079077155863170       36.558522394239858

........................................................................
.............................. CYCLE  124 ..............................
........................................................................
     iter. time                 ...        0 min, 14.659 sec
          total energy        -130.817702920541251 Eh
            energy change        0.23E-04 Eh
 
          gradient norm          0.086281379485678 Eh/a0
            max. gradient        0.061654607361198 Eh/a0
 
            step length          0.305385072086825 a0
            max. step            0.020156780098644 a0
 
       unit cell volume      10724.941001163426336 A^3
 
       current lattice:  
       48.205398519505742       -0.719293205685414       -0.021585557835203
      -24.065102615320431       41.420315945262345        0.124823729383167
       -0.223081926504446        0.077194187861713       36.565162473150615

........................................................................
.............................. CYCLE  125 ..............................
........................................................................
     iter. time                 ...        0 min, 14.911 sec
          total energy        -130.818512392533307 Eh
            energy change       -0.81E-03 Eh
 
          gradient norm          0.027029209113885 Eh/a0
            max. gradient        0.014377843769008 Eh/a0
 
            step length          0.278718394692984 a0
            max. step            0.061654607361198 a0
 
       unit cell volume      10715.251948636276211 A^3
 
       current lattice:  
       48.202067144263872       -0.728338825450282       -0.025227157780658
      -24.055481962557796       41.405897733481822        0.131438051194053
       -0.229624074461936        0.078549790301409       36.551433891129683

........................................................................
.............................. CYCLE  126 ..............................
........................................................................
     iter. time                 ...        0 min, 14.478 sec
          total energy        -130.819029314399216 Eh
            energy change       -0.52E-03 Eh
 
          gradient norm          0.038014539446324 Eh/a0
            max. gradient        0.017552714614233 Eh/a0
 
            step length          0.196870483785257 a0
            max. step            0.014377843769008 a0
 
       unit cell volume      10713.485126781082727 A^3
 
       current lattice:  
       48.202817119353803       -0.732163334864312       -0.027236543414174
      -24.053197173975352       41.402883830807838        0.137900029144266
       -0.230370691024620        0.077789608014683       36.549203683546395

........................................................................
.............................. CYCLE  127 ..............................
........................................................................
     iter. time                 ...        0 min, 14.726 sec
          total energy        -130.818651618206616 Eh
            energy change        0.38E-03 Eh
 
          gradient norm          0.082835080299832 Eh/a0
            max. gradient        0.041576361417646 Eh/a0
 
            step length          0.678488139711433 a0
            max. step            0.017552714614233 a0
 
       unit cell volume      10692.645446493599593 A^3
 
       current lattice:  
       48.169197581412035       -0.746543888501858       -0.028031435482693
      -24.023687800709851       41.366396143455454        0.135935228750049
       -0.243617587313663        0.084591175911792       36.542300591986496

........................................................................
.............................. CYCLE  128 ..............................
........................................................................
     iter. time                 ...        0 min, 14.606 sec
          total energy        -130.819766934952611 Eh
            energy change       -0.11E-02 Eh
 
          gradient norm          0.051787077154032 Eh/a0
            max. gradient        0.024314781434892 Eh/a0
 
            step length          0.271482516886983 a0
            max. step            0.041576361417646 a0
 
       unit cell volume      10695.575636869882146 A^3
 
       current lattice:  
       48.179608991344459       -0.743844291547431       -0.027298137614018
      -24.033124715525133       41.375826268389659        0.154442005623536
       -0.242068678712879        0.081778945972036       36.534892954591449

........................................................................
.............................. CYCLE  129 ..............................
........................................................................
     iter. time                 ...        0 min, 14.585 sec
          total energy        -130.819996708407501 Eh
            energy change       -0.23E-03 Eh
 
          gradient norm          0.084549022965106 Eh/a0
            max. gradient        0.051076606610465 Eh/a0
 
            step length          0.388692204303305 a0
            max. step            0.024314781434892 a0
 
       unit cell volume      10691.514053341792533 A^3
 
       current lattice:  
       48.179040389679940       -0.753685420944935       -0.041932308803967
      -24.017471112935137       41.373408270709000        0.160940209298501
       -0.246844309133502        0.068828359358260       36.527794521369607

........................................................................
.............................. CYCLE  130 ..............................
........................................................................
     iter. time                 ...        0 min, 14.638 sec
          total energy        -130.820842832503246 Eh
            energy change       -0.85E-03 Eh
 
          gradient norm          0.047164522831535 Eh/a0
            max. gradient        0.026701756922742 Eh/a0
 
            step length          0.309191016641040 a0
            max. step            0.051076606610465 a0
 
       unit cell volume      10685.792171452687398 A^3
 
       current lattice:  
       48.174193182321737       -0.755219393471837       -0.034484710455309
      -24.015347105562661       41.359542397354979        0.165743720929523
       -0.255409028049767        0.077295602508453       36.524969257427159

........................................................................
.............................. CYCLE  131 ..............................
........................................................................
     iter. time                 ...        0 min, 14.811 sec
          total energy        -130.821039728906953 Eh
            energy change       -0.20E-03 Eh
 
          gradient norm          0.059112517866465 Eh/a0
            max. gradient        0.031702585548111 Eh/a0
 
            step length          0.347860226775098 a0
            max. step            0.026701756922742 a0
 
       unit cell volume      10678.413961591297266 A^3
 
       current lattice:  
       48.165004845000581       -0.764036528032736       -0.038840722825166
      -23.998620025454912       41.344751071114736        0.178205081599955
       -0.252715302417741        0.079817329159336       36.523689474862906

........................................................................
.............................. CYCLE  132 ..............................
........................................................................
     iter. time                 ...        0 min, 14.853 sec
          total energy        -130.821139431323104 Eh
            energy change       -0.10E-03 Eh
 
          gradient norm          0.069956339314753 Eh/a0
            max. gradient        0.040536677711968 Eh/a0
 
            step length          0.613508983052535 a0
            max. step            0.031702585548111 a0
 
       unit cell volume      10697.726890345937136 A^3
 
       current lattice:  
       48.191047216616880       -0.742162711239384       -0.034857141308090
      -24.028979509920205       41.389496373788646        0.162222617145945
       -0.250428159717003        0.073894746047646       36.520534119597208

........................................................................
.............................. CYCLE  133 ..............................
........................................................................
     iter. time                 ...        0 min, 14.560 sec
          total energy        -130.821701950589471 Eh
            energy change       -0.56E-03 Eh
 
          gradient norm          0.041704026170459 Eh/a0
            max. gradient        0.020935616167561 Eh/a0
 
            step length          0.399128551683689 a0
            max. step            0.040536677711968 a0
 
       unit cell volume      10686.903677991740551 A^3
 
       current lattice:  
       48.179483013630247       -0.758246033753363       -0.033879817111484
      -24.013048144317125       41.361104777413821        0.171632092439766
       -0.259205266350015        0.077833783917832       36.524653131586689

........................................................................
.............................. CYCLE  134 ..............................
........................................................................
     iter. time                 ...        0 min, 14.524 sec
          total energy        -130.821603820610648 Eh
            energy change        0.98E-04 Eh
 
          gradient norm          0.081011617051373 Eh/a0
            max. gradient        0.045722591169244 Eh/a0
 
            step length          0.376926434782102 a0
            max. step            0.020935616167561 a0
 
       unit cell volume      10675.938182337316903 A^3
 
       current lattice:  
       48.164642929331649       -0.764056813940944       -0.045502295756857
      -23.998308435458398       41.346115694401583        0.176202328624686
       -0.251229807029766        0.084372728592241       36.514327621335056

........................................................................
.............................. CYCLE  135 ..............................
........................................................................
     iter. time                 ...        0 min, 14.475 sec
          total energy        -130.822374242927452 Eh
            energy change       -0.77E-03 Eh
 
          gradient norm          0.042382360526523 Eh/a0
            max. gradient        0.026825718734185 Eh/a0
 
            step length          0.056028634245426 a0
            max. step            0.045722591169244 a0
 
       unit cell volume      10679.321427272010624 A^3
 
       current lattice:  
       48.170500092278097       -0.763034973447581       -0.040389688509265
      -23.994598038039047       41.351467314718384        0.181345459250989
       -0.257412643379468        0.077978224811690       36.516108059958441

........................................................................
.............................. CYCLE  136 ..............................
........................................................................
     iter. time                 ...        0 min, 14.865 sec
          total energy        -130.822682939889802 Eh
            energy change       -0.31E-03 Eh
 
          gradient norm          0.051358140351756 Eh/a0
            max. gradient        0.035199584719691 Eh/a0
 
            step length          0.076913763157383 a0
            max. step            0.026825718734185 a0
 
       unit cell volume      10676.468501763551103 A^3
 
       current lattice:  
       48.167326859935812       -0.766870390320096       -0.039355325683347
      -23.995121752470290       41.348853817152865        0.182818685618308
       -0.261096472155082        0.077453664555099       36.512818276014052

........................................................................
.............................. CYCLE  137 ..............................
........................................................................
     iter. time                 ...        0 min, 14.663 sec
          total energy        -130.822998014093884 Eh
            energy change       -0.32E-03 Eh
 
          gradient norm          0.053103889374535 Eh/a0
            max. gradient        0.040127185391822 Eh/a0
 
            step length          0.199356152544266 a0
            max. step            0.035199584719691 a0
 
       unit cell volume      10677.268362214466833 A^3
 
       current lattice:  
       48.177687841812094       -0.769445728585505       -0.042720733440153
      -23.990872609172570       41.344733378782074        0.182874971078948
       -0.260733250334951        0.077398704048739       36.512397474291859

........................................................................
.............................. CYCLE  138 ..............................
........................................................................
     iter. time                 ...        0 min, 14.571 sec
          total energy        -130.823316058119616 Eh
            energy change       -0.32E-03 Eh
 
          gradient norm          0.037434042315283 Eh/a0
            max. gradient        0.019146456983691 Eh/a0
 
            step length          0.127273265168262 a0
            max. step            0.040127185391822 a0
 
       unit cell volume      10678.185248754429267 A^3
 
       current lattice:  
       48.174668781144263       -0.763068098722855       -0.037531011002992
      -23.985594071080097       41.349690859818153        0.191235818855838
       -0.263552145597622        0.074591565126454       36.510500259131845

........................................................................
.............................. CYCLE  139 ..............................
........................................................................
     iter. time                 ...        0 min, 14.721 sec
          total energy        -130.823533588627896 Eh
            energy change       -0.22E-03 Eh
 
          gradient norm          0.050965524403353 Eh/a0
            max. gradient        0.032906716562261 Eh/a0
 
            step length          0.348442014000777 a0
            max. step            0.019146456983691 a0
 
       unit cell volume      10668.169475971713837 A^3
 
       current lattice:  
       48.164673425722285       -0.784100493815008       -0.038266234787189
      -23.976624566124165       41.334997239329930        0.192960113392826
       -0.265087464974244        0.076000918904133       36.506203389950549

........................................................................
.............................. CYCLE  140 ..............................
........................................................................
     iter. time                 ...        0 min, 15.060 sec
          total energy        -130.823896125552977 Eh
            energy change       -0.36E-03 Eh
 
          gradient norm          0.052715419632525 Eh/a0
            max. gradient        0.024377499213431 Eh/a0
 
            step length          0.210548138431577 a0
            max. step            0.032906716562261 a0
 
       unit cell volume      10670.362891294947985 A^3
 
       current lattice:  
       48.171109068912635       -0.771792054998688       -0.046050233101464
      -23.980134075948850       41.336417859155326        0.194246595423337
       -0.262715889958865        0.073393026303140       36.502132022204613

........................................................................
.............................. CYCLE  141 ..............................
........................................................................
     iter. time                 ...        0 min, 14.561 sec
          total energy        -130.824235225056498 Eh
            energy change       -0.34E-03 Eh
 
          gradient norm          0.029423631929498 Eh/a0
            max. gradient        0.016267485579021 Eh/a0
 
            step length          0.145511874648587 a0
            max. step            0.024377499213431 a0
 
       unit cell volume      10674.272918567972738 A^3
 
       current lattice:  
       48.179659939208946       -0.772422931457652       -0.042056003391066
      -23.974086977531591       41.346655971993130        0.197362534595313
       -0.261454764996362        0.076403656560505       36.500033395950524

........................................................................
.............................. CYCLE  142 ..............................
........................................................................
     iter. time                 ...        0 min, 14.642 sec
          total energy        -130.824591245542990 Eh
            energy change       -0.36E-03 Eh
 
          gradient norm          0.027845061763140 Eh/a0
            max. gradient        0.015989299417740 Eh/a0
 
            step length          0.510091140588243 a0
            max. step            0.016267485579021 a0
 
       unit cell volume      10657.300409845129252 A^3
 
       current lattice:  
       48.157308329107877       -0.789465325364099       -0.046204994708466
      -23.957244645511345       41.315952553839438        0.207007123291687
       -0.268658966830986        0.072286296222302       36.493760463967234

........................................................................
.............................. CYCLE  143 ..............................
........................................................................
     iter. time                 ...        0 min, 14.475 sec
          total energy        -130.824911501600923 Eh
            energy change       -0.32E-03 Eh
 
          gradient norm          0.021947650121396 Eh/a0
            max. gradient        0.009472257547693 Eh/a0
 
            step length          0.233200270431641 a0
            max. step            0.015989299417740 a0
 
       unit cell volume      10664.435385643551854 A^3
 
       current lattice:  
       48.169321230564194       -0.784234835940868       -0.043340621814234
      -23.963986570084469       41.328904494559040        0.202188315434577
       -0.263354815312312        0.073910185976591       36.495206699066216

........................................................................
.............................. CYCLE  144 ..............................
........................................................................
     iter. time                 ...        0 min, 14.893 sec
          total energy        -130.824948032830378 Eh
            energy change       -0.37E-04 Eh
 
          gradient norm          0.058739900453383 Eh/a0
            max. gradient        0.032248370218555 Eh/a0
 
            step length          0.251115101396515 a0
            max. step            0.009472257547693 a0
 
       unit cell volume      10657.460353008458696 A^3
 
       current lattice:  
       48.159690444853020       -0.792132466213826       -0.052590434517502
      -23.952505908383738       41.318774595812449        0.210776979214817
       -0.273297183193769        0.077322767995208       36.491146909136134

........................................................................
.............................. CYCLE  145 ..............................
........................................................................
     iter. time                 ...        0 min, 14.615 sec
          total energy        -130.825537833308175 Eh
            energy change       -0.59E-03 Eh
 
          gradient norm          0.031665157022375 Eh/a0
            max. gradient        0.016340480960310 Eh/a0
 
            step length          0.198411188603063 a0
            max. step            0.032248370218555 a0
 
       unit cell volume      10653.132677738738494 A^3
 
       current lattice:  
       48.161148099991323       -0.796656453292183       -0.046862670945319
      -23.942096978520816       41.308129102024424        0.213622248509844
       -0.268481282497889        0.072522098070722       36.486508828046915

........................................................................
.............................. CYCLE  146 ..............................
........................................................................
     iter. time                 ...        0 min, 14.719 sec
          total energy        -130.825713553969280 Eh
            energy change       -0.18E-03 Eh
 
          gradient norm          0.053415745828898 Eh/a0
            max. gradient        0.031414626095673 Eh/a0
 
            step length          0.393034166411207 a0
            max. step            0.016340480960310 a0
 
       unit cell volume      10643.681650377835467 A^3
 
       current lattice:  
       48.142578813021430       -0.809265658273518       -0.049947603987539
      -23.931593719067763       41.292540464904860        0.217945225682241
       -0.274389491154840        0.075374152683428       36.487715458710511

........................................................................
.............................. CYCLE  147 ..............................
........................................................................
     iter. time                 ...        0 min, 14.369 sec
          total energy        -130.826116572869267 Eh
            energy change       -0.40E-03 Eh
 
          gradient norm          0.036748224182527 Eh/a0
            max. gradient        0.019959882938727 Eh/a0
 
            step length          0.174462194448436 a0
            max. step            0.031414626095673 a0
 
       unit cell volume      10645.127164712908780 A^3
 
       current lattice:  
       48.154525271980411       -0.807572393767962       -0.050554545967477
      -23.927211843418672       41.296270277934269        0.220016782094113
       -0.277924402638668        0.078118205879723       36.479407848662525

........................................................................
.............................. CYCLE  148 ..............................
........................................................................
     iter. time                 ...        0 min, 14.809 sec
          total energy        -130.826365773840706 Eh
            energy change       -0.25E-03 Eh
 
          gradient norm          0.025236210915606 Eh/a0
            max. gradient        0.013926648364530 Eh/a0
 
            step length          0.128811998408763 a0
            max. step            0.019959882938727 a0
 
       unit cell volume      10642.960193639089994 A^3
 
       current lattice:  
       48.149476557973266       -0.811541792379560       -0.050310978025576
      -23.925076075087453       41.289904804318660        0.220704236639265
       -0.274975102275343        0.073242512607848       36.483223918343576

........................................................................
.............................. CYCLE  149 ..............................
........................................................................
     iter. time                 ...        0 min, 14.904 sec
          total energy        -130.826530241306671 Eh
            energy change       -0.16E-03 Eh
 
          gradient norm          0.029171082298232 Eh/a0
            max. gradient        0.013217438962319 Eh/a0
 
            step length          0.310364222948786 a0
            max. step            0.013926648364530 a0
 
       unit cell volume      10635.521015154108682 A^3
 
       current lattice:  
       48.141690852188987       -0.816137455526264       -0.051438643650420
      -23.915468590102122       41.278065315384943        0.223149673180028
       -0.281176258821029        0.079363569812069       36.476177357353940

........................................................................
.............................. CYCLE  150 ..............................
........................................................................
     iter. time                 ...        0 min, 14.725 sec
          total energy        -130.826772351259109 Eh
            energy change       -0.24E-03 Eh
 
          gradient norm          0.024939541695536 Eh/a0
            max. gradient        0.016449441286495 Eh/a0
 
            step length          0.210694942282186 a0
            max. step            0.013217438962319 a0
 
       unit cell volume      10640.799445584776549 A^3
 
       current lattice:  
       48.149695948658895       -0.813144844724018       -0.050068738812450
      -23.922536047202218       41.288570629654664        0.226924387524024
       -0.276785536738544        0.075374979669185       36.477533476615484

........................................................................
.............................. CYCLE  151 ..............................
........................................................................
     iter. time                 ...        0 min, 14.786 sec
          total energy        -130.826813617944481 Eh
            energy change       -0.41E-04 Eh
 
          gradient norm          0.063433631342470 Eh/a0
            max. gradient        0.036299830418127 Eh/a0
 
            step length          0.342597029012961 a0
            max. step            0.016449441286495 a0
 
       unit cell volume      10631.935270495750956 A^3
 
       current lattice:  
       48.140176984926541       -0.823112965993893       -0.058534653980730
      -23.903444087321454       41.274234150448386        0.224165310581508
       -0.282895360733207        0.073463453690616       36.471375532177952

........................................................................
.............................. CYCLE  152 ..............................
........................................................................
     iter. time                 ...        0 min, 14.931 sec
          total energy        -130.827312330298781 Eh
            energy change       -0.50E-03 Eh
 
          gradient norm          0.028133338898332 Eh/a0
            max. gradient        0.016909524528048 Eh/a0
 
            step length          0.227938858947561 a0
            max. step            0.036299830418127 a0
 
       unit cell volume      10625.756181170052514 A^3
 
       current lattice:  
       48.134510406998878       -0.827219549793976       -0.052946425682643
      -23.900011289011861       41.259939607007318        0.232928713367218
       -0.284342369721931        0.078276585676685       36.469049407662006

........................................................................
.............................. CYCLE  153 ..............................
........................................................................
     iter. time                 ...        0 min, 14.909 sec
          total energy        -130.827594152843290 Eh
            energy change       -0.28E-03 Eh
 
          gradient norm          0.024002861204698 Eh/a0
            max. gradient        0.010793918215808 Eh/a0
 
            step length          0.193326475838722 a0
            max. step            0.016909524528048 a0
 
       unit cell volume      10628.956579830201008 A^3
 
       current lattice:  
       48.141651741189484       -0.826015728523342       -0.055431635612041
      -23.898843929165160       41.270089382563718        0.236620399268965
       -0.282737741888293        0.077081528460453       36.464967227398780

........................................................................
.............................. CYCLE  154 ..............................
........................................................................
     iter. time                 ...        0 min, 14.730 sec
          total energy        -130.827764594615530 Eh
            energy change       -0.17E-03 Eh
 
          gradient norm          0.029349865611193 Eh/a0
            max. gradient        0.014198943879837 Eh/a0
 
            step length          0.132008786096531 a0
            max. step            0.010793918215808 a0
 
       unit cell volume      10625.852742038161523 A^3
 
       current lattice:  
       48.136976437487334       -0.829176538232065       -0.053988756104515
      -23.897063511819372       41.262393861576726        0.234679882854997
       -0.286041940344679        0.073307783258343       36.466109693519158

........................................................................
.............................. CYCLE  155 ..............................
........................................................................
     iter. time                 ...        0 min, 14.508 sec
          total energy        -130.828073242842379 Eh
            energy change       -0.31E-03 Eh
 
          gradient norm          0.033732526915608 Eh/a0
            max. gradient        0.019074652358661 Eh/a0
 
            step length          0.293721702936647 a0
            max. step            0.014198943879837 a0
 
       unit cell volume      10618.783305725433820 A^3
 
       current lattice:  
       48.133783944594796       -0.839169416782888       -0.060176191718591
      -23.882758148740340       41.248609287939978        0.242961221718787
       -0.287549006728206        0.079070979449378       36.460875970028724

........................................................................
.............................. CYCLE  156 ..............................
........................................................................
     iter. time                 ...        0 min, 14.631 sec
          total energy        -130.828358573919303 Eh
            energy change       -0.29E-03 Eh
 
          gradient norm          0.051415339757700 Eh/a0
            max. gradient        0.028285644275783 Eh/a0
 
            step length          0.172673064692107 a0
            max. step            0.019074652358661 a0
 
       unit cell volume      10620.374483873050849 A^3
 
       current lattice:  
       48.136677941695005       -0.836391560231816       -0.060364065376752
      -23.880144305865009       41.258077218422393        0.246120578544657
       -0.283303926030562        0.071166917202400       36.454360947790391

........................................................................
.............................. CYCLE  157 ..............................
........................................................................
     iter. time                 ...        0 min, 14.665 sec
          total energy        -130.828554191782331 Eh
            energy change       -0.20E-03 Eh
 
          gradient norm          0.051136396400236 Eh/a0
            max. gradient        0.035970657798482 Eh/a0
 
            step length          0.219882804808371 a0
            max. step            0.028285644275783 a0
 
       unit cell volume      10620.136928736761547 A^3
 
       current lattice:  
       48.143259448970419       -0.843653642792893       -0.056143636283490
      -23.873861801754497       41.253491689111193        0.251649486142785
       -0.297578709406269        0.071455844185184       36.455725524187386

........................................................................
.............................. CYCLE  158 ..............................
........................................................................
     iter. time                 ...        0 min, 14.617 sec
          total energy        -130.828784257814959 Eh
            energy change       -0.23E-03 Eh
 
          gradient norm          0.039516512658819 Eh/a0
            max. gradient        0.024977467092163 Eh/a0
 
            step length          0.483326923729162 a0
            max. step            0.035970657798482 a0
 
       unit cell volume      10602.117359489397131 A^3
 
       current lattice:  
       48.115661526539547       -0.859787096447345       -0.063777023076080
      -23.862317481429045       41.217006831129140        0.254320390783639
       -0.292000091037645        0.075173311083318       36.454550530778910

........................................................................
.............................. CYCLE  159 ..............................
........................................................................
     iter. time                 ...        0 min, 14.835 sec
          total energy        -130.828810622011588 Eh
            energy change       -0.26E-04 Eh
 
          gradient norm          0.061366280546021 Eh/a0
            max. gradient        0.036566152511828 Eh/a0
 
            step length          0.418356190536323 a0
            max. step            0.024977467092163 a0
 
       unit cell volume      10619.880879449568965 A^3
 
       current lattice:  
       48.145361068581920       -0.840967522648456       -0.066441101464171
      -23.868594501576354       41.251005694125027        0.251987328465017
       -0.286640074278292        0.073853998868711       36.454241889189504

........................................................................
.............................. CYCLE  160 ..............................
........................................................................
     iter. time                 ...        0 min, 14.461 sec
          total energy        -130.829166681996355 Eh
            energy change       -0.36E-03 Eh
 
          gradient norm          0.044856955749995 Eh/a0
            max. gradient        0.029230782362871 Eh/a0
 
            step length          0.279151602222828 a0
            max. step            0.036566152511828 a0
 
       unit cell volume      10609.184703303180868 A^3
 
       current lattice:  
       48.128441735054999       -0.853165714334111       -0.060296683139964
      -23.859815543185007       41.237786681577809        0.260047157934696
       -0.296514304342750        0.071817421729836       36.447500778716382

........................................................................
.............................. CYCLE  161 ..............................
........................................................................
     iter. time                 ...        0 min, 14.774 sec
          total energy        -130.829553968988733 Eh
            energy change       -0.39E-03 Eh
 
          gradient norm          0.022960146015087 Eh/a0
            max. gradient        0.012045327838558 Eh/a0
 
            step length          0.204157576075906 a0
            max. step            0.029230782362871 a0
 
       unit cell volume      10603.720086630592050 A^3
 
       current lattice:  
       48.122728880869687       -0.860704968404981       -0.062585819374159
      -23.855784686574030       41.222269147756855        0.260853847659617
       -0.296282426867355        0.070493171999543       36.450234528027714

........................................................................
.............................. CYCLE  162 ..............................
........................................................................
     iter. time                 ...        0 min, 14.623 sec
          total energy        -130.829824063481311 Eh
            energy change       -0.27E-03 Eh
 
          gradient norm          0.043704672098632 Eh/a0
            max. gradient        0.021188854651595 Eh/a0
 
            step length          0.144357456249745 a0
            max. step            0.012045327838558 a0
 
       unit cell volume      10600.581012952507081 A^3
 
       current lattice:  
       48.121109510057536       -0.866708970934904       -0.064710902163953
      -23.846066455571389       41.219378997904855        0.264458833258615
       -0.298368328432249        0.075305580311422       36.445814904633409

........................................................................
.............................. CYCLE  163 ..............................
........................................................................
     iter. time                 ...        0 min, 14.908 sec
          total energy        -130.830040219790874 Eh
            energy change       -0.22E-03 Eh
 
          gradient norm          0.057605450369508 Eh/a0
            max. gradient        0.029868671354757 Eh/a0
 
            step length          0.231673505587784 a0
            max. step            0.021188854651595 a0
 
       unit cell volume      10603.031787799132871 A^3
 
       current lattice:  
       48.126264014046221       -0.859126978737893       -0.068786989607748
      -23.849314029691953       41.217986379924980        0.267193585711440
       -0.298209384402832        0.068661530406145       36.448223147247106

........................................................................
.............................. CYCLE  164 ..............................
........................................................................
     iter. time                 ...        0 min, 14.608 sec
          total energy        -130.830536405483372 Eh
            energy change       -0.50E-03 Eh
 
          gradient norm          0.039107122752445 Eh/a0
            max. gradient        0.025771571782742 Eh/a0
 
            step length          0.483184742550519 a0
            max. step            0.029868671354757 a0
 
       unit cell volume      10590.887107206943256 A^3
 
       current lattice:  
       48.115108805148623       -0.882709549365982       -0.069822084001986
      -23.832837531103927       41.198723254512842        0.273055040675485
       -0.301702857672855        0.072381802267361       36.442426841761439

........................................................................
.............................. CYCLE  165 ..............................
........................................................................
     iter. time                 ...        0 min, 14.789 sec
          total energy        -130.830824853614956 Eh
            energy change       -0.29E-03 Eh
 
          gradient norm          0.039969015947279 Eh/a0
            max. gradient        0.023885679706196 Eh/a0
 
            step length          0.165967327339343 a0
            max. step            0.025771571782742 a0
 
       unit cell volume      10586.395633422665924 A^3
 
       current lattice:  
       48.109029609057181       -0.885955637948824       -0.070395965111275
      -23.817396676896504       41.188193311157214        0.282898145676708
       -0.304745462675535        0.070327607441527       36.442233011268073

........................................................................
.............................. CYCLE  166 ..............................
........................................................................
     iter. time                 ...        0 min, 14.676 sec
          total energy        -130.831122589520334 Eh
            energy change       -0.30E-03 Eh
 
          gradient norm          0.044692677764456 Eh/a0
            max. gradient        0.033186208776503 Eh/a0
 
            step length          0.287579863291083 a0
            max. step            0.023885679706196 a0
 
       unit cell volume      10592.618540481777018 A^3
 
       current lattice:  
       48.126468032996662       -0.883381437925098       -0.074350972644670
      -23.823857716598795       41.204302933774123        0.282278134575968
       -0.304921833205519        0.068206868283067       36.434871465575242

........................................................................
.............................. CYCLE  167 ..............................
........................................................................
     iter. time                 ...        0 min, 14.916 sec
          total energy        -130.831034012923311 Eh
            energy change        0.89E-04 Eh
 
          gradient norm          0.082963844340416 Eh/a0
            max. gradient        0.067589050989151 Eh/a0
 
            step length          0.224124406724208 a0
            max. step            0.033186208776503 a0
 
       unit cell volume      10589.442990080826348 A^3
 
       current lattice:  
       48.109359031172858       -0.888739191222230       -0.069524639064613
      -23.818253870290256       41.192205609017087        0.280251373730232
       -0.303422216966536        0.074616764326905       36.450143437425751

........................................................................
.............................. CYCLE  168 ..............................
........................................................................
     iter. time                 ...        0 min, 14.999 sec
          total energy        -130.831504343867778 Eh
            energy change       -0.47E-03 Eh
 
          gradient norm          0.039642121365113 Eh/a0
            max. gradient        0.017222478711122 Eh/a0
 
            step length          0.192196852874525 a0
            max. step            0.067589050989151 a0
 
       unit cell volume      10583.125707761577360 A^3
 
       current lattice:  
       48.110711744765808       -0.893994243672613       -0.070613667827237
      -23.810277541918637       41.179733481386535        0.287133285599696
       -0.305051755231544        0.070053304018515       36.440701475203241

........................................................................
.............................. CYCLE  169 ..............................
........................................................................
     iter. time                 ...        0 min, 15.004 sec
          total energy        -130.831642237639784 Eh
            energy change       -0.14E-03 Eh
 
          gradient norm          0.049465480024159 Eh/a0
            max. gradient        0.028228223550856 Eh/a0
 
            step length          0.463837954316974 a0
            max. step            0.017222478711122 a0
 
       unit cell volume      10578.738122906070203 A^3
 
       current lattice:  
       48.108500457566286       -0.903742664929439       -0.082782065215850
      -23.795900601203599       41.178213918520875        0.301992796605599
       -0.314976325732939        0.067876702578606       36.432811628666947

........................................................................
.............................. CYCLE  170 ..............................
........................................................................
     iter. time                 ...        0 min, 14.715 sec
          total energy        -130.831831557475965 Eh
            energy change       -0.19E-03 Eh
 
          gradient norm          0.051166840339069 Eh/a0
            max. gradient        0.028859192079133 Eh/a0
 
            step length          0.483263337818864 a0
            max. step            0.028228223550856 a0
 
       unit cell volume      10591.997761764145253 A^3
 
       current lattice:  
       48.129938975113042       -0.889672949484381       -0.069840934508940
      -23.809627864734964       41.201796367927855        0.287579858152943
       -0.304101558498880        0.067696705620316       36.434847598073070

........................................................................
.............................. CYCLE  171 ..............................
........................................................................
     iter. time                 ...        0 min, 15.068 sec
          total energy        -130.831828901675436 Eh
            energy change        0.27E-05 Eh
 
          gradient norm          0.066711256310266 Eh/a0
            max. gradient        0.039239306468119 Eh/a0
 
            step length          0.275060893879465 a0
            max. step            0.028859192079133 a0
 
       unit cell volume      10587.386057964258725 A^3
 
       current lattice:  
       48.118269233375081       -0.889900386502818       -0.076205630082275
      -23.812566227003273       41.192460553711108        0.290047025080716
       -0.312842829854404        0.070590980195590       36.436476289887530

........................................................................
.............................. CYCLE  172 ..............................
........................................................................
     iter. time                 ...        0 min, 14.846 sec
          total energy        -130.832347747565223 Eh
            energy change       -0.52E-03 Eh
 
          gradient norm          0.037914838630324 Eh/a0
            max. gradient        0.022917899058074 Eh/a0
 
            step length          0.444144921418722 a0
            max. step            0.039239306468119 a0
 
       unit cell volume      10580.277579355626585 A^3
 
       current lattice:  
       48.113355334452770       -0.905967951241430       -0.079170483118946
      -23.794236042969629       41.178896945910822        0.303120080624667
       -0.311770292598439        0.063916627725773       36.434691859909101

........................................................................
.............................. CYCLE  173 ..............................
........................................................................
     iter. time                 ...        0 min, 15.105 sec
          total energy        -130.832564160060599 Eh
            energy change       -0.22E-03 Eh
 
          gradient norm          0.027377340812511 Eh/a0
            max. gradient        0.014561698328448 Eh/a0
 
            step length          0.189645482119261 a0
            max. step            0.022917899058074 a0
 
       unit cell volume      10578.736402990412898 A^3
 
       current lattice:  
       48.114975471009167       -0.904550296061759       -0.078243376243762
      -23.787691541356828       41.176418864369779        0.301914128757899
       -0.315088821798779        0.068823604472243       36.429653596018781

........................................................................
.............................. CYCLE  174 ..............................
........................................................................
     iter. time                 ...        0 min, 14.547 sec
          total energy        -130.832930102718393 Eh
            energy change       -0.37E-03 Eh
 
          gradient norm          0.014861280657394 Eh/a0
            max. gradient        0.006826650191277 Eh/a0
 
            step length          0.153777046783363 a0
            max. step            0.014561698328448 a0
 
       unit cell volume      10581.225648690058733 A^3
 
       current lattice:  
       48.120330403619626       -0.904754844120546       -0.078401021881628
      -23.789654141656349       41.182187044957445        0.304968610235886
       -0.314127737838447        0.064481108955632       36.429066255631561

........................................................................
.............................. CYCLE  175 ..............................
........................................................................
     iter. time                 ...        0 min, 14.749 sec
          total energy        -130.833141864929445 Eh
            energy change       -0.21E-03 Eh
 
          gradient norm          0.031008880327743 Eh/a0
            max. gradient        0.016970115795814 Eh/a0
 
            step length          0.382535628475764 a0
            max. step            0.006826650191277 a0
 
       unit cell volume      10570.069772124090377 A^3
 
       current lattice:  
       48.107359846418134       -0.919202864704682       -0.082243471136584
      -23.770455394224335       41.160144431682582        0.309598205445727
       -0.319894461794336        0.069553308988283       36.426421833772181

........................................................................
.............................. CYCLE  176 ..............................
........................................................................
     iter. time                 ...        0 min, 14.607 sec
          total energy        -130.833356506158140 Eh
            energy change       -0.21E-03 Eh
 
          gradient norm          0.039575603425447 Eh/a0
            max. gradient        0.021446174478787 Eh/a0
 
            step length          0.275641913742985 a0
            max. step            0.016970115795814 a0
 
       unit cell volume      10575.842100303470943 A^3
 
       current lattice:  
       48.120609906151635       -0.916504499723581       -0.079491946129125
      -23.775718740180523       41.172879027866308        0.320387177058211
       -0.318698827698575        0.067389151821710       36.423652790647502

........................................................................
.............................. CYCLE  177 ..............................
........................................................................
     iter. time                 ...        0 min, 14.685 sec
          total energy        -130.833457986843086 Eh
            energy change       -0.10E-03 Eh
 
          gradient norm          0.052830682020523 Eh/a0
            max. gradient        0.030795591611921 Eh/a0
 
            step length          0.144168906043314 a0
            max. step            0.021446174478787 a0
 
       unit cell volume      10573.546880194378900 A^3
 
       current lattice:  
       48.112862240867564       -0.917779291660396       -0.081718396421797
      -23.768664488560749       41.171142188664703        0.312551894764783
       -0.319053658507641        0.059439902725209       36.423622722974699

........................................................................
.............................. CYCLE  178 ..............................
........................................................................
     iter. time                 ...        0 min, 14.660 sec
          total energy        -130.833759001338478 Eh
            energy change       -0.30E-03 Eh
 
          gradient norm          0.032003823673376 Eh/a0
            max. gradient        0.016502326493661 Eh/a0
 
            step length          0.057581430009898 a0
            max. step            0.030795591611921 a0
 
       unit cell volume      10572.994001843724618 A^3
 
       current lattice:  
       48.116046411269366       -0.921949801736040       -0.081763445288927
      -23.770182346462466       41.165518570572338        0.312329250460620
       -0.320723667012346        0.065029983649636       36.426220741313884

........................................................................
.............................. CYCLE  179 ..............................
........................................................................
     iter. time                 ...        0 min, 14.708 sec
          total energy        -130.834000781653231 Eh
            energy change       -0.24E-03 Eh
 
          gradient norm          0.036089614519480 Eh/a0
            max. gradient        0.017935667192942 Eh/a0
 
            step length          0.184563785132559 a0
            max. step            0.016502326493661 a0
 
       unit cell volume      10568.446287363205556 A^3
 
       current lattice:  
       48.108265608950568       -0.925093995060209       -0.084886317611218
      -23.762022067336932       41.159973199890324        0.318936577108278
       -0.317634029439532        0.068668424118145       36.422766541384732

........................................................................
.............................. CYCLE  180 ..............................
........................................................................
     iter. time                 ...        0 min, 14.479 sec
          total energy        -130.834201555841190 Eh
            energy change       -0.20E-03 Eh
 
          gradient norm          0.051512724094474 Eh/a0
            max. gradient        0.030005275759765 Eh/a0
 
            step length          0.319184195655697 a0
            max. step            0.017935667192942 a0
 
       unit cell volume      10568.802506121079205 A^3
 
       current lattice:  
       48.116358377091103       -0.934248773515093       -0.081271151363932
      -23.751454901949479       41.159823404959148        0.327082691021663
       -0.327425850428765        0.063978441607811       36.421768302098108

........................................................................
.............................. CYCLE  181 ..............................
........................................................................
     iter. time                 ...        0 min, 14.684 sec
          total energy        -130.834441279467029 Eh
            energy change       -0.24E-03 Eh
 
          gradient norm          0.053731154850808 Eh/a0
            max. gradient        0.029252149218587 Eh/a0
 
            step length          0.155078065717586 a0
            max. step            0.030005275759765 a0
 
       unit cell volume      10562.487716941921462 A^3
 
       current lattice:  
       48.103042056864481       -0.938180261860947       -0.081289137709945
      -23.754006062175776       41.149628989516209        0.324976081037506
       -0.325805717727869        0.063029771598855       36.421090075133257

........................................................................
.............................. CYCLE  182 ..............................
........................................................................
     iter. time                 ...        0 min, 14.522 sec
          total energy        -130.834643759370039 Eh
            energy change       -0.20E-03 Eh
 
          gradient norm          0.047050664357237 Eh/a0
            max. gradient        0.024746197855984 Eh/a0
 
            step length          0.225763792327867 a0
            max. step            0.029252149218587 a0
 
       unit cell volume      10570.415278454456711 A^3
 
       current lattice:  
       48.117819058777059       -0.933982905088380       -0.089778939019406
      -23.755992430348513       41.162029020562805        0.319921327010255
       -0.316518113361042        0.065797147161982       36.424230352982590

........................................................................
.............................. CYCLE  183 ..............................
........................................................................
     iter. time                 ...        0 min, 14.724 sec
          total energy        -130.835168434505107 Eh
            energy change       -0.52E-03 Eh
 
          gradient norm          0.020152615696936 Eh/a0
            max. gradient        0.008916936048362 Eh/a0
 
            step length          0.332138196987911 a0
            max. step            0.024746197855984 a0
 
       unit cell volume      10563.225259149116027 A^3
 
       current lattice:  
       48.108054900026083       -0.943532520466336       -0.085197572631198
      -23.742225635015469       41.151098176617431        0.330031720118132
       -0.327316191971139        0.067163215639862       36.420700683740812

........................................................................
.............................. CYCLE  184 ..............................
........................................................................
     iter. time                 ...        0 min, 14.890 sec
          total energy        -130.835414903668834 Eh
            energy change       -0.25E-03 Eh
 
          gradient norm          0.020031508140149 Eh/a0
            max. gradient        0.009812370876566 Eh/a0
 
            step length          0.095306003554617 a0
            max. step            0.008916936048362 a0
 
       unit cell volume      10560.675787067288184 A^3
 
       current lattice:  
       48.104873442870428       -0.946103186083335       -0.088182178868832
      -23.740784696415851       41.145594661781949        0.330387955756502
       -0.325922056463410        0.065554694771973       36.420388008364284

........................................................................
.............................. CYCLE  185 ..............................
........................................................................
     iter. time                 ...        0 min, 14.874 sec
          total energy        -130.835737196026628 Eh
            energy change       -0.32E-03 Eh
 
          gradient norm          0.032813515212932 Eh/a0
            max. gradient        0.017701353661731 Eh/a0
 
            step length          0.209347607280481 a0
            max. step            0.009812370876566 a0
 
       unit cell volume      10557.964541895931688 A^3
 
       current lattice:  
       48.103315864317473       -0.954126848936308       -0.083098002474596
      -23.732779282523538       41.144220102119760        0.336089395719958
       -0.332350451928454        0.067275587178589       36.416863760338330

........................................................................
.............................. CYCLE  186 ..............................
........................................................................
     iter. time                 ...        0 min, 15.115 sec
          total energy        -130.836007556501556 Eh
            energy change       -0.27E-03 Eh
 
          gradient norm          0.044433919757312 Eh/a0
            max. gradient        0.028992683497164 Eh/a0
 
            step length          0.347000647209569 a0
            max. step            0.017701353661731 a0
 
       unit cell volume      10551.836413643246487 A^3
 
       current lattice:  
       48.094956991797687       -0.957469554049872       -0.090594583793044
      -23.717532716820994       41.130073290727417        0.342592448392339
       -0.335651346580118        0.064803843733333       36.416040055523212

........................................................................
.............................. CYCLE  187 ..............................
........................................................................
     iter. time                 ...        0 min, 14.744 sec
          total energy        -130.836415805148164 Eh
            energy change       -0.41E-03 Eh
 
          gradient norm          0.030393846627967 Eh/a0
            max. gradient        0.014726248261791 Eh/a0
 
            step length          0.167875606635260 a0
            max. step            0.028992683497164 a0
 
       unit cell volume      10546.116786113287162 A^3
 
       current lattice:  
       48.091215868325520       -0.971362689903743       -0.091750874964565
      -23.713107810595485       41.124919057584080        0.345169380100927
       -0.335483158531524        0.067190975747387       36.409864426290675

........................................................................
.............................. CYCLE  188 ..............................
........................................................................
     iter. time                 ...        0 min, 14.864 sec
          total energy        -130.836856774330329 Eh
            energy change       -0.44E-03 Eh
 
          gradient norm          0.021315927291378 Eh/a0
            max. gradient        0.009013731072401 Eh/a0
 
            step length          0.144193297073522 a0
            max. step            0.014726248261791 a0
 
       unit cell volume      10547.118943564362780 A^3
 
       current lattice:  
       48.092520395618891       -0.969568176222268       -0.087088828200146
      -23.706234807300213       41.125526079253945        0.348435396927424
       -0.338922453794170        0.066265390494235       36.410838974218713

........................................................................
.............................. CYCLE  189 ..............................
........................................................................
     iter. time                 ...        0 min, 14.699 sec
          total energy        -130.837093117006333 Eh
            energy change       -0.24E-03 Eh
 
          gradient norm          0.039044853534423 Eh/a0
            max. gradient        0.017444835035255 Eh/a0
 
            step length          0.639474592819403 a0
            max. step            0.009013731072401 a0
 
       unit cell volume      10535.546671852482177 A^3
 
       current lattice:  
       48.086896736728214       -0.989755946291737       -0.097041321840060
      -23.683731000936586       41.110699975733340        0.361856276481277
       -0.345891002284014        0.065665186073581       36.397055774932241

........................................................................
.............................. CYCLE  190 ..............................
........................................................................
     iter. time                 ...        0 min, 14.678 sec
          total energy        -130.837328294191110 Eh
            energy change       -0.24E-03 Eh
 
          gradient norm          0.053197404538918 Eh/a0
            max. gradient        0.022008014114196 Eh/a0
 
            step length          0.382261605400167 a0
            max. step            0.017444835035255 a0
 
       unit cell volume      10539.291611603752244 A^3
 
       current lattice:  
       48.080932773699956       -0.987474810873588       -0.093167408352980
      -23.687189762779671       41.116568095437067        0.355540705377351
       -0.340363952379768        0.071322031425856       36.408360007504101

........................................................................
.............................. CYCLE  191 ..............................
........................................................................
     iter. time                 ...        0 min, 14.431 sec
          total energy        -130.837361902241895 Eh
            energy change       -0.34E-04 Eh
 
          gradient norm          0.078488779638794 Eh/a0
            max. gradient        0.033469178259078 Eh/a0
 
            step length          0.441229738568769 a0
            max. step            0.022008014114196 a0
 
       unit cell volume      10530.717402242144090 A^3
 
       current lattice:  
       48.085593471503230       -0.994742680254011       -0.087215004502611
      -23.666972671020808       41.097897690304535        0.368673519347633
       -0.344383567708174        0.063975946965502       36.394659662341162

........................................................................
.............................. CYCLE  192 ..............................
........................................................................
     iter. time                 ...        0 min, 14.406 sec
          total energy        -130.837881251501074 Eh
            energy change       -0.52E-03 Eh
 
          gradient norm          0.040970728433959 Eh/a0
            max. gradient        0.023363477750161 Eh/a0
 
            step length          0.255780326459914 a0
            max. step            0.033469178259078 a0
 
       unit cell volume      10530.092218666874032 A^3
 
       current lattice:  
       48.081978956284075       -1.000742069602057       -0.091533733557779
      -23.665293079975150       41.100248608720591        0.371371231974404
       -0.354244454520711        0.065529767943603       36.395837085973959

........................................................................
.............................. CYCLE  193 ..............................
........................................................................
     iter. time                 ...        0 min, 14.693 sec
          total energy        -130.838080388364205 Eh
            energy change       -0.20E-03 Eh
 
          gradient norm          0.043602059052117 Eh/a0
            max. gradient        0.025430478268331 Eh/a0
 
            step length          0.130848623854056 a0
            max. step            0.023363477750161 a0
 
       unit cell volume      10531.446631431754213 A^3
 
       current lattice:  
       48.082998756238652       -1.003938671154505       -0.098553698009363
      -23.656422461467951       41.106968272090548        0.371850222010374
       -0.347917923930469        0.062895303756361       36.394972927555671

........................................................................
.............................. CYCLE  194 ..............................
........................................................................
     iter. time                 ...        0 min, 14.503 sec
          total energy        -130.838299584378234 Eh
            energy change       -0.22E-03 Eh
 
          gradient norm          0.034081833066424 Eh/a0
            max. gradient        0.023295130103758 Eh/a0
 
            step length          0.165905980568205 a0
            max. step            0.025430478268331 a0
 
       unit cell volume      10529.112221140587280 A^3
 
       current lattice:  
       48.077271848894114       -1.003165161744746       -0.093423503082030
      -23.661005717266963       41.100871719564303        0.368315176225788
       -0.349056185545521        0.071157243004875       36.396530098918880

........................................................................
.............................. CYCLE  195 ..............................
........................................................................
     iter. time                 ...        0 min, 14.699 sec
          total energy        -130.838258244574774 Eh
            energy change        0.41E-04 Eh
 
          gradient norm          0.055900383331239 Eh/a0
            max. gradient        0.031805099098653 Eh/a0
 
            step length          0.375596554115603 a0
            max. step            0.023295130103758 a0
 
       unit cell volume      10522.539188422941152 A^3
 
       current lattice:  
       48.072045456809406       -1.020340721899123       -0.092157176169822
      -23.647164931706158       41.087040473213165        0.379090460397874
       -0.351620222238859        0.063329171521261       36.397471064296830

........................................................................
.............................. CYCLE  196 ..............................
........................................................................
     iter. time                 ...        0 min, 14.909 sec
          total energy        -130.838525800627878 Eh
            energy change       -0.27E-03 Eh
 
          gradient norm          0.036516851240026 Eh/a0
            max. gradient        0.020714417056059 Eh/a0
 
            step length          0.158886991717056 a0
            max. step            0.031805099098653 a0
 
       unit cell volume      10526.368434216141395 A^3
 
       current lattice:  
       48.078914155702968       -1.011879409499082       -0.096603729994378
      -23.646390710897741       41.097358626273497        0.379500632067833
       -0.357206454788966        0.062111766648216       36.392482649343059

........................................................................
.............................. CYCLE  197 ..............................
........................................................................
     iter. time                 ...        0 min, 14.560 sec
          total energy        -130.838729627782584 Eh
            energy change       -0.20E-03 Eh
 
          gradient norm          0.025777555645302 Eh/a0
            max. gradient        0.013541324482819 Eh/a0
 
            step length          0.138977184481580 a0
            max. step            0.020714417056059 a0
 
       unit cell volume      10529.320269132775138 A^3
 
       current lattice:  
       48.081079327999873       -1.009532280942763       -0.092698983360065
      -23.652827749261657       41.102906816508032        0.371117201078934
       -0.349016253521333        0.067786582519045       36.395134654951775

........................................................................
.............................. CYCLE  198 ..............................
........................................................................
     iter. time                 ...        0 min, 14.852 sec
          total energy        -130.838965714328594 Eh
            energy change       -0.24E-03 Eh
 
          gradient norm          0.015911275287451 Eh/a0
            max. gradient        0.006994485720711 Eh/a0
 
            step length          0.125697367934592 a0
            max. step            0.013541324482819 a0
 
       unit cell volume      10526.608391856998423 A^3
 
       current lattice:  
       48.078121778141643       -1.013619932919654       -0.093305692568411
      -23.647684240111360       41.099401191841004        0.377732194232417
       -0.352357035329288        0.066908734176635       36.392886074719449

........................................................................
.............................. CYCLE  199 ..............................
........................................................................
     iter. time                 ...        0 min, 14.752 sec
          total energy        -130.839216741566702 Eh
            energy change       -0.25E-03 Eh
 
          gradient norm          0.038653242354820 Eh/a0
            max. gradient        0.026574104540001 Eh/a0
 
            step length          0.283670745861584 a0
            max. step            0.006994485720711 a0
 
       unit cell volume      10524.124922422990494 A^3
 
       current lattice:  
       48.075389927694189       -1.023208176246816       -0.091000731250656
      -23.632828216967930       41.097553246983644        0.375682457796055
       -0.355185791790066        0.067670764935058       36.391985896660287

........................................................................
.............................. CYCLE  200 ..............................
........................................................................
     iter. time                 ...        0 min, 14.708 sec
          total energy        -130.839446411098834 Eh
            energy change       -0.23E-03 Eh
 
          gradient norm          0.033197723947507 Eh/a0
            max. gradient        0.015003654463567 Eh/a0
 
            step length          0.171678467543058 a0
            max. step            0.026574104540001 a0
 
       unit cell volume      10523.306313944873182 A^3
 
       current lattice:  
       48.078843555083829       -1.024035492955537       -0.096892012638366
      -23.628661389168077       41.095524286084455        0.385082847778832
       -0.355028495846365        0.070223562902490       36.388686731230813

........................................................................
.............................. CYCLE  201 ..............................
........................................................................
     iter. time                 ...        0 min, 14.750 sec
          total energy        -130.839498956969351 Eh
            energy change       -0.53E-04 Eh
 
          gradient norm          0.046162406236028 Eh/a0
            max. gradient        0.025605576747290 Eh/a0
 
            step length          0.062386266529355 a0
            max. step            0.015003654463567 a0
 
       unit cell volume      10522.539184338185805 A^3
 
       current lattice:  
       48.072559511060369       -1.023681099364887       -0.089557473123049
      -23.629132086160684       41.101835775717340        0.385256556119902
       -0.356627134017586        0.064824608668365       36.384954044951350

........................................................................
.............................. CYCLE  202 ..............................
........................................................................
     iter. time                 ...        0 min, 14.716 sec
          total energy        -130.839692277711151 Eh
            energy change       -0.19E-03 Eh
 
          gradient norm          0.033964658654190 Eh/a0
            max. gradient        0.022021520090317 Eh/a0
 
            step length          0.080619813816554 a0
            max. step            0.025605576747290 a0
 
       unit cell volume      10519.738876266928855 A^3
 
       current lattice:  
       48.071907216316234       -1.030831168767897       -0.090303582672574
      -23.627004786608513       41.093082827140407        0.382393431196956
       -0.361259406523243        0.068076955622086       36.386760301447381

........................................................................
.............................. CYCLE  203 ..............................
........................................................................
     iter. time                 ...        0 min, 14.739 sec
          total energy        -130.839860367600949 Eh
            energy change       -0.17E-03 Eh
 
          gradient norm          0.029547408833505 Eh/a0
            max. gradient        0.013130498571286 Eh/a0
 
            step length          0.386089740585917 a0
            max. step            0.022021520090317 a0
 
       unit cell volume      10515.283605446322326 A^3
 
       current lattice:  
       48.069845697386377       -1.035567677291679       -0.096314175401254
      -23.611659961702124       41.087684042695557        0.390985802688671
       -0.359291091798842        0.070832870034949       36.379632278565587

........................................................................
.............................. CYCLE  204 ..............................
........................................................................
     iter. time                 ...        0 min, 14.872 sec
          total energy        -130.840003192555457 Eh
            energy change       -0.14E-03 Eh
 
          gradient norm          0.034059760801005 Eh/a0
            max. gradient        0.016204906346138 Eh/a0
 
            step length          0.229440268385344 a0
            max. step            0.013130498571286 a0
 
       unit cell volume      10517.088243752354174 A^3
 
       current lattice:  
       48.069482349690595       -1.031070153364745       -0.094925662750218
      -23.620148938126434       41.090487533303794        0.386949201278131
       -0.357143307441836        0.067088643853136       36.381772583893685

........................................................................
.............................. CYCLE  205 ..............................
........................................................................
     iter. time                 ...        0 min, 14.906 sec
          total energy        -130.839909032610251 Eh
            energy change        0.94E-04 Eh
 
          gradient norm          0.064287104063830 Eh/a0
            max. gradient        0.043237404259328 Eh/a0
 
            step length          0.084130762755356 a0
            max. step            0.016204906346138 a0
 
       unit cell volume      10519.171214699634220 A^3
 
       current lattice:  
       48.076166771356675       -1.037161313410360       -0.091615562077175
      -23.618507653729583       41.096065311119951        0.387760074996556
       -0.358912841926787        0.070024023836366       36.381512732328375

........................................................................
.............................. CYCLE  206 ..............................
........................................................................
     iter. time                 ...        0 min, 14.765 sec
          total energy        -130.840112475592178 Eh
            energy change       -0.20E-03 Eh
 
          gradient norm          0.046005169468320 Eh/a0
            max. gradient        0.021132235010047 Eh/a0
 
            step length          0.404901714824077 a0
            max. step            0.043237404259328 a0
 
       unit cell volume      10507.537006775995906 A^3
 
       current lattice:  
       48.062243637221911       -1.047868234658785       -0.094422614132877
      -23.599796647498831       41.079085066576731        0.398131601745046
       -0.367241790260808        0.072593954790915       36.371573044486652

........................................................................
.............................. CYCLE  207 ..............................
........................................................................
     iter. time                 ...        0 min, 14.749 sec
          total energy        -130.840410642691296 Eh
            energy change       -0.30E-03 Eh
 
          gradient norm          0.030657833749562 Eh/a0
            max. gradient        0.016714300752841 Eh/a0
 
            step length          0.212629156302076 a0
            max. step            0.021132235010047 a0
 
       unit cell volume      10511.713569519321027 A^3
 
       current lattice:  
       48.064327918792479       -1.040088196975640       -0.094427616847855
      -23.606486165694911       41.082326621604622        0.391527174881523
       -0.361664906054025        0.067999611895075       36.378169874782593

........................................................................
.............................. CYCLE  208 ..............................
........................................................................
     iter. time                 ...        0 min, 14.565 sec
          total energy        -130.840614580111691 Eh
            energy change       -0.20E-03 Eh
 
          gradient norm          0.025139909503818 Eh/a0
            max. gradient        0.016693829102928 Eh/a0
 
            step length          0.202171735116123 a0
            max. step            0.016714300752841 a0
 
       unit cell volume      10509.875500030801049 A^3
 
       current lattice:  
       48.067600895039881       -1.049734225849127       -0.096304679386499
      -23.600065806313452       41.085082188872654        0.396577873546327
       -0.362731951922462        0.069418739258816       36.370985888970544

........................................................................
.............................. CYCLE  209 ..............................
........................................................................
     iter. time                 ...        0 min, 14.548 sec
          total energy        -130.840857278284972 Eh
            energy change       -0.24E-03 Eh
 
          gradient norm          0.013939702781269 Eh/a0
            max. gradient        0.006217601113072 Eh/a0
 
            step length          0.117269328989053 a0
            max. step            0.016693829102928 a0
 
       unit cell volume      10508.855934981209430 A^3
 
       current lattice:  
       48.065792310698193       -1.051665957833630       -0.092994441699116
      -23.595252568883424       41.082165527038448        0.397919256082347
       -0.365583200830493        0.069146222414970       36.372196185228788

........................................................................
.............................. CYCLE  210 ..............................
........................................................................
     iter. time                 ...        0 min, 14.830 sec
          total energy        -130.841023185086669 Eh
            energy change       -0.17E-03 Eh
 
          gradient norm          0.021567519040119 Eh/a0
            max. gradient        0.010132379831352 Eh/a0
 
            step length          0.334259225480922 a0
            max. step            0.006217601113072 a0
 
       unit cell volume      10504.354272150620091 A^3
 
       current lattice:  
       48.063984959942324       -1.061441898785912       -0.097237596717606
      -23.582039505789961       41.078692066826498        0.403874873564947
       -0.365999771664532        0.070650265113310       36.365206200333532

........................................................................
.............................. CYCLE  211 ..............................
........................................................................
     iter. time                 ...        0 min, 14.700 sec
          total energy        -130.841182186613224 Eh
            energy change       -0.16E-03 Eh
 
          gradient norm          0.019560215804534 Eh/a0
            max. gradient        0.011100163967263 Eh/a0
 
            step length          0.218122855922239 a0
            max. step            0.010132379831352 a0
 
       unit cell volume      10507.970891117272913 A^3
 
       current lattice:  
       48.066172398181465       -1.056048763593873       -0.093070930393332
      -23.588576607406981       41.083611732762130        0.400447189775579
       -0.365659163571971        0.067798293954763       36.369335026913504

........................................................................
.............................. CYCLE  212 ..............................
........................................................................
     iter. time                 ...        0 min, 14.702 sec
          total energy        -130.841424745663744 Eh
            energy change       -0.24E-03 Eh
 
          gradient norm          0.017668926416728 Eh/a0
            max. gradient        0.006894076392712 Eh/a0
 
            step length          0.271648529010235 a0
            max. step            0.011100163967263 a0
 
       unit cell volume      10504.767509814735604 A^3
 
       current lattice:  
       48.064085497180940       -1.064924789041263       -0.095484810792087
      -23.577138087313052       41.081454470318533        0.405285757851596
       -0.367665290281643        0.071206108040116       36.365515518353519

........................................................................
.............................. CYCLE  213 ..............................
........................................................................
     iter. time                 ...        0 min, 15.146 sec
          total energy        -130.841201932425378 Eh
            energy change        0.22E-03 Eh
 
          gradient norm          0.082875365432783 Eh/a0
            max. gradient        0.043906637691916 Eh/a0
 
            step length          0.156800380923105 a0
            max. step            0.006894076392712 a0
 
       unit cell volume      10500.169978355401327 A^3
 
       current lattice:  
       48.064801487634497       -1.067153419026842       -0.093196303158288
      -23.574449675125123       41.071627691672902        0.403245844605149
       -0.367777481063701        0.063455112970918       36.358700044479093

........................................................................
.............................. CYCLE  214 ..............................
........................................................................
     iter. time                 ...        0 min, 14.685 sec
          total energy        -130.841761952594197 Eh
            energy change       -0.56E-03 Eh
 
          gradient norm          0.027149901005430 Eh/a0
            max. gradient        0.015948729747819 Eh/a0
 
            step length          0.185675567437873 a0
            max. step            0.043906637691916 a0
 
       unit cell volume      10505.557153648627718 A^3
 
       current lattice:  
       48.064185789064460       -1.065099173173499       -0.094649933683872
      -23.581813490115756       41.084473972536507        0.401894815788940
       -0.367931777623118        0.068420526491285       36.365599500422391

........................................................................
.............................. CYCLE  215 ..............................
........................................................................
     iter. time                 ...        0 min, 14.755 sec
          total energy        -130.841669218028727 Eh
            energy change        0.93E-04 Eh
 
          gradient norm          0.061746685706134 Eh/a0
            max. gradient        0.042488859489822 Eh/a0
 
            step length          0.133637048624768 a0
            max. step            0.015948729747819 a0
 
       unit cell volume      10505.858859271056645 A^3
 
       current lattice:  
       48.069967005182264       -1.065919530004236       -0.090516025384661
      -23.568752961923984       41.086017253709635        0.408873138921758
       -0.364678879897555        0.069801710351851       36.360920267598168

........................................................................
.............................. CYCLE  216 ..............................
........................................................................
     iter. time                 ...        0 min, 14.832 sec
          total energy        -130.842065832698751 Eh
            energy change       -0.40E-03 Eh
 
          gradient norm          0.026211437212703 Eh/a0
            max. gradient        0.013975580798205 Eh/a0
 
            step length          0.311652130116341 a0
            max. step            0.042488859489822 a0
 
       unit cell volume      10501.322723830811810 A^3
 
       current lattice:  
       48.066236944732992       -1.073997846251103       -0.092556229108025
      -23.564005409702432       41.080163935999877        0.411958652925367
       -0.371758087913952        0.072819256925345       36.356836929822428

........................................................................
.............................. CYCLE  217 ..............................
........................................................................
     iter. time                 ...        0 min, 14.928 sec
          total energy        -130.841929632127886 Eh
            energy change        0.14E-03 Eh
 
          gradient norm          0.059337945314579 Eh/a0
            max. gradient        0.040761180660499 Eh/a0
 
            step length          0.334046129329634 a0
            max. step            0.013975580798205 a0
 
       unit cell volume      10503.664316459127804 A^3
 
       current lattice:  
       48.062415414572506       -1.070731401490845       -0.097621436451569
      -23.572543889662622       41.083687670575976        0.405670908024887
       -0.366807444416499        0.063238658815920       36.363379269849062

........................................................................
.............................. CYCLE  218 ..............................
........................................................................
     iter. time                 ...        0 min, 14.754 sec
          total energy        -130.842252841004154 Eh
            energy change       -0.32E-03 Eh
 
          gradient norm          0.019590055644143 Eh/a0
            max. gradient        0.009285336626309 Eh/a0
 
            step length          0.121603972716276 a0
            max. step            0.040761180660499 a0
 
       unit cell volume      10504.484784011661759 A^3
 
       current lattice:  
       48.064086689339007       -1.069082927741036       -0.094444342910239
      -23.575983864387108       41.087026653240891        0.403132242434749
       -0.366836656106705        0.070752200020052       36.361329825449026

........................................................................
.............................. CYCLE  219 ..............................
........................................................................
     iter. time                 ...        0 min, 14.903 sec
          total energy        -130.842630598639062 Eh
            energy change       -0.38E-03 Eh
 
          gradient norm          0.028468821270811 Eh/a0
            max. gradient        0.013079976636287 Eh/a0
 
            step length          0.471511882115272 a0
            max. step            0.009285336626309 a0
 
       unit cell volume      10499.119245378838968 A^3
 
       current lattice:  
       48.062323351370580       -1.080218512600855       -0.091985716815235
      -23.557527531851047       41.080788449462545        0.414378994444993
       -0.371548750862533        0.068758999012840       36.354212473568815

........................................................................
.............................. CYCLE  220 ..............................
........................................................................
     iter. time                 ...        0 min, 14.641 sec
          total energy        -130.842631993180476 Eh
            energy change       -0.14E-05 Eh
 
          gradient norm          0.056920101110649 Eh/a0
            max. gradient        0.035769207832846 Eh/a0
 
            step length          0.208659082190279 a0
            max. step            0.013079976636287 a0
 
       unit cell volume      10499.948162416674677 A^3
 
       current lattice:  
       48.065753051742732       -1.081181786404424       -0.097963965642298
      -23.549725827415259       41.087583316104798        0.416514219403602
       -0.379625592016598        0.072196577441772       36.348720897693084

........................................................................
.............................. CYCLE  221 ..............................
........................................................................
     iter. time                 ...        0 min, 15.074 sec
          total energy        -130.843021524637209 Eh
            energy change       -0.39E-03 Eh
 
          gradient norm          0.035427070910787 Eh/a0
            max. gradient        0.018421084932661 Eh/a0
 
            step length          0.208874542283078 a0
            max. step            0.035769207832846 a0
 
       unit cell volume      10496.575394162977318 A^3
 
       current lattice:  
       48.063140803549331       -1.089019512852728       -0.095609010677192
      -23.548724357915731       41.081528016844871        0.423626619969138
       -0.371491911583010        0.072532948690686       36.347876524820620

........................................................................
.............................. CYCLE  222 ..............................
........................................................................
     iter. time                 ...        0 min, 14.799 sec
          total energy        -130.843043044912548 Eh
            energy change       -0.22E-04 Eh
 
          gradient norm          0.049734352601022 Eh/a0
            max. gradient        0.034988029554811 Eh/a0
 
            step length          0.127130878719823 a0
            max. step            0.018421084932661 a0
 
       unit cell volume      10496.236234821923063 A^3
 
       current lattice:  
       48.059648977840574       -1.093347905012824       -0.090833997069902
      -23.543017417285764       41.085927475809470        0.412565892736961
       -0.373187062654416        0.072839651321128       36.347173403900221

........................................................................
.............................. CYCLE  223 ..............................
........................................................................
     iter. time                 ...        0 min, 15.018 sec
          total energy        -130.843377381886484 Eh
            energy change       -0.33E-03 Eh
 
          gradient norm          0.026150615972832 Eh/a0
            max. gradient        0.011679996696365 Eh/a0
 
            step length          0.210259185509930 a0
            max. step            0.034988029554811 a0
 
       unit cell volume      10493.485746307878799 A^3
 
       current lattice:  
       48.059793263987679       -1.094333529992078       -0.091725414793319
      -23.535385858035006       41.082062421557659        0.425476627038096
       -0.379637358993879        0.070385132987967       36.341293943175785

........................................................................
.............................. CYCLE  224 ..............................
........................................................................
     iter. time                 ...        0 min, 15.004 sec
          total energy        -130.843514896290344 Eh
            energy change       -0.14E-03 Eh
 
          gradient norm          0.027388076973306 Eh/a0
            max. gradient        0.012780959548216 Eh/a0
 
            step length          0.083948912040241 a0
            max. step            0.011679996696365 a0
 
       unit cell volume      10495.160852745500961 A^3
 
       current lattice:  
       48.061907627289649       -1.097163411544538       -0.094451110976641
      -23.538229128469986       41.084620926739795        0.422406156764111
       -0.376819094023469        0.075767275177043       36.344541482946966

........................................................................
.............................. CYCLE  225 ..............................
........................................................................
     iter. time                 ...        0 min, 14.578 sec
          total energy        -130.843585329967311 Eh
            energy change       -0.70E-04 Eh
 
          gradient norm          0.036120173664134 Eh/a0
            max. gradient        0.017281303588065 Eh/a0
 
            step length          0.079675974406897 a0
            max. step            0.012780959548216 a0
 
       unit cell volume      10493.822779377529514 A^3
 
       current lattice:  
       48.056466770226329       -1.092900952234634       -0.091659626250688
      -23.537848110639043       41.084852730042527        0.424666370962865
       -0.374652054034070        0.071985727080914       36.341935324455278

........................................................................
.............................. CYCLE  226 ..............................
........................................................................
     iter. time                 ...        0 min, 14.550 sec
          total energy        -130.843843469373127 Eh
            energy change       -0.26E-03 Eh
 
          gradient norm          0.015872017694132 Eh/a0
            max. gradient        0.010196312380977 Eh/a0
 
            step length          0.135531515017515 a0
            max. step            0.017281303588065 a0
 
       unit cell volume      10491.295425832435285 A^3
 
       current lattice:  
       48.057745123816495       -1.099435648668393       -0.092123818099583
      -23.531398521369560       41.078737440219790        0.425888606070284
       -0.378678912039957        0.074571477215620       36.340456082454303

........................................................................
.............................. CYCLE  227 ..............................
........................................................................
     iter. time                 ...        0 min, 14.999 sec
          total energy        -130.844016243208586 Eh
            energy change       -0.17E-03 Eh
 
          gradient norm          0.016247298502051 Eh/a0
            max. gradient        0.010224876972164 Eh/a0
 
            step length          0.119681499749611 a0
            max. step            0.010196312380977 a0
 
       unit cell volume      10492.862156713332297 A^3
 
       current lattice:  
       48.056496786384457       -1.098607640418074       -0.089723765057586
      -23.534820950531245       41.083752977801929        0.423708871469796
       -0.376985929032983        0.074961070355602       36.342030485305912

........................................................................
.............................. CYCLE  228 ..............................
........................................................................
     iter. time                 ...        0 min, 14.691 sec
          total energy        -130.844095752474971 Eh
            energy change       -0.80E-04 Eh
 
          gradient norm          0.040923685082670 Eh/a0
            max. gradient        0.021455837907040 Eh/a0
 
            step length          0.240555257614051 a0
            max. step            0.010224876972164 a0
 
       unit cell volume      10487.502253923188619 A^3
 
       current lattice:  
       48.049625543519852       -1.105049242786997       -0.093307471160545
      -23.525585458917980       41.077813328691867        0.423897157337768
       -0.377287965672986        0.079250613711889       36.336756131342021

........................................................................
.............................. CYCLE  229 ..............................
........................................................................
     iter. time                 ...        0 min, 15.153 sec
          total energy        -130.844142191114855 Eh
            energy change       -0.46E-04 Eh
 
          gradient norm          0.052750990993694 Eh/a0
            max. gradient        0.026967263541070 Eh/a0
 
            step length          0.121971951103244 a0
            max. step            0.021455837907040 a0
 
       unit cell volume      10491.011335934555973 A^3
 
       current lattice:  
       48.054835788825024       -1.100772322329609       -0.087375878913050
      -23.524055796161228       41.078783755617906        0.422889960154493
       -0.378249705906896        0.076310476730043       36.342072783804348

........................................................................
.............................. CYCLE  230 ..............................
........................................................................
     iter. time                 ...        0 min, 14.887 sec
          total energy        -130.844203631003523 Eh
            energy change       -0.61E-04 Eh
 
          gradient norm          0.052256303101134 Eh/a0
            max. gradient        0.029988903346028 Eh/a0
 
            step length          0.078399624733820 a0
            max. step            0.026967263541070 a0
 
       unit cell volume      10489.564965620331350 A^3
 
       current lattice:  
       48.052902594648323       -1.108979857624380       -0.083869235390152
      -23.528465204324512       41.085039259126546        0.426505073183799
       -0.380289758102588        0.076593653409882       36.336615998912791

........................................................................
.............................. CYCLE  231 ..............................
........................................................................
     iter. time                 ...        0 min, 14.492 sec
          total energy        -130.844496987046483 Eh
            energy change       -0.29E-03 Eh
 
          gradient norm          0.026686891238265 Eh/a0
            max. gradient        0.014306290599408 Eh/a0
 
            step length          0.080007316353596 a0
            max. step            0.029988903346028 a0
 
       unit cell volume      10489.295979810896824 A^3
 
       current lattice:  
       48.049433134344646       -1.106586525869098       -0.088963682308846
      -23.526102369439254       41.083400751812576        0.424166713563491
       -0.379181061657432        0.081005896449386       36.338784423778669

........................................................................
.............................. CYCLE  232 ..............................
........................................................................
     iter. time                 ...        0 min, 14.656 sec
          total energy        -130.844623857873643 Eh
            energy change       -0.13E-03 Eh
 
          gradient norm          0.023244771337581 Eh/a0
            max. gradient        0.012877309584211 Eh/a0
 
            step length          0.124097205077047 a0
            max. step            0.014306290599408 a0
 
       unit cell volume      10487.822713883066172 A^3
 
       current lattice:  
       48.050521895838408       -1.108619894661423       -0.087853542692680
      -23.520700500593836       41.081364368391760        0.426547932853332
       -0.378391139280580        0.076863626512833       36.335407914572912

........................................................................
.............................. CYCLE  233 ..............................
........................................................................
     iter. time                 ...        0 min, 14.629 sec
          total energy        -130.844716502374553 Eh
            energy change       -0.93E-04 Eh
 
          gradient norm          0.015962953965718 Eh/a0
            max. gradient        0.007634754926502 Eh/a0
 
            step length          0.087153992006429 a0
            max. step            0.012877309584211 a0
 
       unit cell volume      10487.470277046122646 A^3
 
       current lattice:  
       48.046908878031040       -1.109150021416684       -0.086048064979250
      -23.519284124729026       41.079904830369138        0.424753433391273
       -0.381203317668001        0.080144086382947       36.338486905078291

........................................................................
.............................. CYCLE  234 ..............................
........................................................................
     iter. time                 ...        0 min, 14.741 sec
          total energy        -130.844859466320798 Eh
            energy change       -0.14E-03 Eh
 
          gradient norm          0.013153805271510 Eh/a0
            max. gradient        0.005879345152895 Eh/a0
 
            step length          0.188457964269779 a0
            max. step            0.007634754926502 a0
 
       unit cell volume      10485.651261253771736 A^3
 
       current lattice:  
       48.046939588093430       -1.114605031099414       -0.088873438997132
      -23.511610864457065       41.080115214869210        0.428741219462816
       -0.380935704315624        0.080399985066966       36.334234686860839

........................................................................
.............................. CYCLE  235 ..............................
........................................................................
     iter. time                 ...        0 min, 14.687 sec
          total energy        -130.845017379886514 Eh
            energy change       -0.16E-03 Eh
 
          gradient norm          0.015052769316908 Eh/a0
            max. gradient        0.006438847546319 Eh/a0
 
            step length          0.146220055867521 a0
            max. step            0.005879345152895 a0
 
       unit cell volume      10484.219913984901723 A^3
 
       current lattice:  
       48.042069513746270       -1.115663865107944       -0.086480650965229
      -23.510130385085514       41.080129637043072        0.427877703603527
       -0.383279183391860        0.081619364678378       36.333424791959466

........................................................................
.............................. CYCLE  236 ..............................
........................................................................
     iter. time                 ...        0 min, 14.705 sec
          total energy        -130.844976595452408 Eh
            energy change        0.41E-04 Eh
 
          gradient norm          0.047517139036224 Eh/a0
            max. gradient        0.024965087403439 Eh/a0
 
            step length          0.235327916023702 a0
            max. step            0.006438847546319 a0
 
       unit cell volume      10481.920970777870025 A^3
 
       current lattice:  
       48.038815246533602       -1.123910679783132       -0.085549779735700
      -23.496944357811689       41.078786038772741        0.436555196204267
       -0.385964245775809        0.082411632130763       36.332517481797026

........................................................................
.............................. CYCLE  237 ..............................
........................................................................
     iter. time                 ...        0 min, 14.694 sec
          total energy        -130.845247207140943 Eh
            energy change       -0.27E-03 Eh
 
          gradient norm          0.018911348399205 Eh/a0
            max. gradient        0.008405136125106 Eh/a0
 
            step length          0.123382134161928 a0
            max. step            0.024965087403439 a0
 
       unit cell volume      10479.810660613857181 A^3
 
       current lattice:  
       48.037952910373100       -1.126324722352416       -0.088464520276782
      -23.498544770766475       41.076342307005625        0.431221358884315
       -0.385886971159771        0.083492193384596       36.329167600570379

........................................................................
.............................. CYCLE  238 ..............................
........................................................................
     iter. time                 ...        0 min, 14.869 sec
          total energy        -130.845319828979171 Eh
            energy change       -0.73E-04 Eh
 
          gradient norm          0.029223999078443 Eh/a0
            max. gradient        0.015294066977186 Eh/a0
 
            step length          0.155896233047474 a0
            max. step            0.008405136125106 a0
 
       unit cell volume      10481.561341601458480 A^3
 
       current lattice:  
       48.034825631209202       -1.119394058161875       -0.085018711776964
      -23.501860702690841       41.079089376803168        0.430370079450038
       -0.383951598806328        0.087552574038678       36.332211163312152

........................................................................
.............................. CYCLE  239 ..............................
........................................................................
     iter. time                 ...        0 min, 14.857 sec
          total energy        -130.845424206721560 Eh
            energy change       -0.10E-03 Eh
 
          gradient norm          0.027895872579495 Eh/a0
            max. gradient        0.014584202923668 Eh/a0
 
            step length          0.182756645773725 a0
            max. step            0.015294066977186 a0
 
       unit cell volume      10479.112607313385524 A^3
 
       current lattice:  
       48.032071788525812       -1.124977243192779       -0.086483530948326
      -23.499730916011927       41.076557551640221        0.433450587067879
       -0.389759989286516        0.082610224038439       36.330484723905300

........................................................................
.............................. CYCLE  240 ..............................
........................................................................
     iter. time                 ...        0 min, 15.047 sec
          total energy        -130.845542206764634 Eh
            energy change       -0.12E-03 Eh
 
          gradient norm          0.022395427859641 Eh/a0
            max. gradient        0.012100730306800 Eh/a0
 
            step length          0.098201449217414 a0
            max. step            0.014584202923668 a0
 
       unit cell volume      10478.382235640852741 A^3
 
       current lattice:  
       48.034063706863797       -1.127079490114124       -0.086039858869497
      -23.495156640921703       41.075198356123451        0.430779201696631
       -0.386536370976515        0.088134267456155       36.328509609787453

........................................................................
.............................. CYCLE  241 ..............................
........................................................................
     iter. time                 ...        0 min, 14.861 sec
          total energy        -130.845648932527183 Eh
            energy change       -0.11E-03 Eh
 
          gradient norm          0.021876051123126 Eh/a0
            max. gradient        0.011757448934803 Eh/a0
 
            step length          0.112244429178000 a0
            max. step            0.012100730306800 a0
 
       unit cell volume      10478.980179442967710 A^3
 
       current lattice:  
       48.028637925899673       -1.124265271069086       -0.088166842316391
      -23.498349554266493       41.076562874158498        0.430831771525031
       -0.386924948149958        0.086261151556256       36.332350068002768

........................................................................
.............................. CYCLE  242 ..............................
........................................................................
     iter. time                 ...        0 min, 14.940 sec
          total energy        -130.845712118808223 Eh
            energy change       -0.63E-04 Eh
 
          gradient norm          0.033300632522130 Eh/a0
            max. gradient        0.020332796565547 Eh/a0
 
            step length          0.152865186006401 a0
            max. step            0.011757448934803 a0
 
       unit cell volume      10478.596084341179449 A^3
 
       current lattice:  
       48.030733472389834       -1.123676762740569       -0.083197867780216
      -23.497607441107011       41.075816397089540        0.432380772298283
       -0.390907980204058        0.089577511305085       36.329812983300549

........................................................................
.............................. CYCLE  243 ..............................
........................................................................
     iter. time                 ...        0 min, 14.467 sec
          total energy        -130.845841942515392 Eh
            energy change       -0.13E-03 Eh
 
          gradient norm          0.019610854051927 Eh/a0
            max. gradient        0.008308799380350 Eh/a0
 
            step length          0.083951393483987 a0
            max. step            0.020332796565547 a0
 
       unit cell volume      10477.975620318473375 A^3
 
       current lattice:  
       48.028671704442367       -1.126693580962503       -0.084243535049383
      -23.496535196327340       41.074848482609063        0.430315392326058
       -0.387399816623720        0.088417087644011       36.331397453901268

........................................................................
.............................. CYCLE  244 ..............................
........................................................................
     iter. time                 ...        0 min, 14.981 sec
          total energy        -130.845862996069854 Eh
            energy change       -0.21E-04 Eh
 
          gradient norm          0.042257463115156 Eh/a0
            max. gradient        0.020313022775671 Eh/a0
 
            step length          0.090297587597212 a0
            max. step            0.008308799380350 a0
 
       unit cell volume      10478.308487353075179 A^3
 
       current lattice:  
       48.027468364446875       -1.126901346363269       -0.086133602737695
      -23.491186640034073       41.078555591563521        0.429044612673084
       -0.393556107541457        0.088817554786554       36.330153902202632

........................................................................
.............................. CYCLE  245 ..............................
........................................................................
     iter. time                 ...        0 min, 14.774 sec
          total energy        -130.846074041057136 Eh
            energy change       -0.21E-03 Eh
 
          gradient norm          0.028116868204763 Eh/a0
            max. gradient        0.016749851083404 Eh/a0
 
            step length          0.135511279129004 a0
            max. step            0.020313022775671 a0
 
       unit cell volume      10476.168845804908415 A^3
 
       current lattice:  
       48.023613121349925       -1.129009634903759       -0.087140141821654
      -23.490651460506626       41.073617793413447        0.435192827590933
       -0.392999020545886        0.091310780548590       36.331073301885915

........................................................................
.............................. CYCLE  246 ..............................
........................................................................
     iter. time                 ...        0 min, 15.065 sec
          total energy        -130.846012877792788 Eh
            energy change        0.61E-04 Eh
 
          gradient norm          0.053383725525954 Eh/a0
            max. gradient        0.030309776990595 Eh/a0
 
            step length          0.178037408629148 a0
            max. step            0.016749851083404 a0
 
       unit cell volume      10475.558195329733280 A^3
 
       current lattice:  
       48.018199937817009       -1.130204449383671       -0.079347589031892
      -23.486711082917576       41.076115001790861        0.428078598965690
       -0.392490624393164        0.092453676655977       36.331248478939550

........................................................................
.............................. CYCLE  247 ..............................
........................................................................
     iter. time                 ...        0 min, 14.387 sec
          total energy        -130.846296460552566 Eh
            energy change       -0.28E-03 Eh
 
          gradient norm          0.025710565917999 Eh/a0
            max. gradient        0.015656054416198 Eh/a0
 
            step length          0.100070005915154 a0
            max. step            0.030309776990595 a0
 
       unit cell volume      10475.276754048696603 A^3
 
       current lattice:  
       48.021686291139673       -1.132026671081067       -0.084070118860787
      -23.486435228540351       41.074473905100739        0.430193948644616
       -0.392769965843248        0.092550420621009       36.329902764255024

........................................................................
.............................. CYCLE  248 ..............................
........................................................................
     iter. time                 ...        0 min, 14.998 sec
          total energy        -130.846428526281386 Eh
            energy change       -0.13E-03 Eh
 
          gradient norm          0.020539345280767 Eh/a0
            max. gradient        0.010491720877052 Eh/a0
 
            step length          0.083355540668155 a0
            max. step            0.015656054416198 a0
 
       unit cell volume      10474.610172176018750 A^3
 
       current lattice:  
       48.018045050818046       -1.132912382772006       -0.083972137644822
      -23.485583480909682       41.073927518084005        0.433416454165715
       -0.393706660345554        0.092846361462871       36.331253790809654

........................................................................
.............................. CYCLE  249 ..............................
........................................................................
     iter. time                 ...        0 min, 14.743 sec
          total energy        -130.846515818154415 Eh
            energy change       -0.87E-04 Eh
 
          gradient norm          0.036346387931439 Eh/a0
            max. gradient        0.025343470496901 Eh/a0
 
            step length          0.121436746472726 a0
            max. step            0.010491720877052 a0
 
       unit cell volume      10472.722661437757779 A^3
 
       current lattice:  
       48.017420696978405       -1.133600173226563       -0.086281036616983
      -23.480702358665120       41.071987279287583        0.431440227639581
       -0.395554792244939        0.096428849877052       36.327173513781268

........................................................................
.............................. CYCLE  250 ..............................
........................................................................
     iter. time                 ...        0 min, 15.218 sec
          total energy        -130.846690230291046 Eh
            energy change       -0.17E-03 Eh
 
          gradient norm          0.029156926248614 Eh/a0
            max. gradient        0.018922021321680 Eh/a0
 
            step length          0.162280630684509 a0
            max. step            0.025343470496901 a0
 
       unit cell volume      10474.675524313384813 A^3
 
       current lattice:  
       48.013546825789462       -1.135810587645077       -0.085250219321230
      -23.483557969239836       41.076206787247408        0.430387067492170
       -0.397030357658130        0.099988615728310       36.334191495819397

........................................................................
.............................. CYCLE  251 ..............................
........................................................................
     iter. time                 ...        0 min, 14.817 sec
          total energy        -130.846853402182433 Eh
            energy change       -0.16E-03 Eh
 
          gradient norm          0.025874043232037 Eh/a0
            max. gradient        0.011742492205430 Eh/a0
 
            step length          0.203076980138082 a0
            max. step            0.018922021321680 a0
 
       unit cell volume      10471.081776008302768 A^3
 
       current lattice:  
       48.009294342219398       -1.137591943172596       -0.085602837307707
      -23.476879967282059       41.073384174989009        0.437879171864234
       -0.397989899432225        0.097876724183352       36.328157271698608

........................................................................
.............................. CYCLE  252 ..............................
........................................................................
     iter. time                 ...        0 min, 14.751 sec
          total energy        -130.847004918185092 Eh
            energy change       -0.15E-03 Eh
 
          gradient norm          0.020210156285663 Eh/a0
            max. gradient        0.009717057633541 Eh/a0
 
            step length          0.072814293396252 a0
            max. step            0.011742492205430 a0
 
       unit cell volume      10471.860999959168112 A^3
 
       current lattice:  
       48.009859954260492       -1.136928307933287       -0.086325021131394
      -23.475212847851008       41.072208764221301        0.433704618541606
       -0.399606173318164        0.101076484022574       36.331183880567572

........................................................................
.............................. CYCLE  253 ..............................
........................................................................
     iter. time                 ...        0 min, 14.662 sec
          total energy        -130.846851762109623 Eh
            energy change        0.15E-03 Eh
 
          gradient norm          0.069978400324085 Eh/a0
            max. gradient        0.045514854255754 Eh/a0
 
            step length          0.131587663819717 a0
            max. step            0.009717057633541 a0
 
       unit cell volume      10468.285014374649109 A^3
 
       current lattice:  
       48.004260242684296       -1.146925678567063       -0.087551821947540
      -23.474667324508118       41.074129369853232        0.437809374096772
       -0.402960968920279        0.104502952541332       36.325778143260166

........................................................................
.............................. CYCLE  254 ..............................
........................................................................
     iter. time                 ...        0 min, 15.042 sec
          total energy        -130.847253226717953 Eh
            energy change       -0.40E-03 Eh
 
          gradient norm          0.021998756540752 Eh/a0
            max. gradient        0.009591596221254 Eh/a0
 
            step length          0.127845078777170 a0
            max. step            0.045514854255754 a0
 
       unit cell volume      10470.263309505486177 A^3
 
       current lattice:  
       48.005640719126674       -1.140503587613375       -0.086421645809792
      -23.470644813536254       41.075252549032328        0.438804367102391
       -0.401719045633844        0.101480760880951       36.327637899901696

........................................................................
.............................. CYCLE  255 ..............................
........................................................................
     iter. time                 ...        0 min, 15.000 sec
          total energy        -130.847314447380853 Eh
            energy change       -0.61E-04 Eh
 
          gradient norm          0.027386933228200 Eh/a0
            max. gradient        0.014958259124308 Eh/a0
 
            step length          0.187123014464132 a0
            max. step            0.009591596221254 a0
 
       unit cell volume      10467.725924586195106 A^3
 
       current lattice:  
       48.002498608361726       -1.145616009110902       -0.083383782507481
      -23.464434916408990       41.068908803053873        0.441222026234520
       -0.407998354975932        0.102178798380557       36.329040123814089

........................................................................
.............................. CYCLE  256 ..............................
........................................................................
     iter. time                 ...        0 min, 15.081 sec
          total energy        -130.847455593482692 Eh
            energy change       -0.14E-03 Eh
 
          gradient norm          0.021393410826928 Eh/a0
            max. gradient        0.014646538233259 Eh/a0
 
            step length          0.127936370849040 a0
            max. step            0.014958259124308 a0
 
       unit cell volume      10467.538347653606252 A^3
 
       current lattice:  
       48.002385431965664       -1.145591660585290       -0.087787585840685
      -23.461429495309375       41.071337229604076        0.439621441148734
       -0.407104569198179        0.107455609207253       36.326302483970551

........................................................................
.............................. CYCLE  257 ..............................
........................................................................
     iter. time                 ...        0 min, 14.863 sec
          total energy        -130.847556468491092 Eh
            energy change       -0.10E-03 Eh
 
          gradient norm          0.010789568373850 Eh/a0
            max. gradient        0.004200502066718 Eh/a0
 
            step length          0.046302635251533 a0
            max. step            0.014646538233259 a0
 
       unit cell volume      10468.042417837930770 A^3
 
       current lattice:  
       48.002409670697006       -1.147091215612960       -0.085575727462660
      -23.461211060172101       41.072705334712758        0.440896883520246
       -0.407816256075470        0.103682124688057       36.327409593807886

........................................................................
.............................. CYCLE  258 ..............................
........................................................................
     iter. time                 ...        0 min, 15.175 sec
          total energy        -130.847648437311790 Eh
            energy change       -0.92E-04 Eh
 
          gradient norm          0.010887705510891 Eh/a0
            max. gradient        0.005587343582515 Eh/a0
 
            step length          0.129092073112882 a0
            max. step            0.004200502066718 a0
 
       unit cell volume      10466.533699155139402 A^3
 
       current lattice:  
       48.000007319702966       -1.147735225656574       -0.085727884550210
      -23.457561126168024       41.070503640312459        0.441917152680585
       -0.409518241814343        0.106567534063684       36.326229829777510

........................................................................
.............................. CYCLE  259 ..............................
........................................................................
     iter. time                 ...        0 min, 14.887 sec
          total energy        -130.847732842286320 Eh
            energy change       -0.84E-04 Eh
 
          gradient norm          0.022164201169862 Eh/a0
            max. gradient        0.009975255994757 Eh/a0
 
            step length          0.127082836315110 a0
            max. step            0.005587343582515 a0
 
       unit cell volume      10466.124554146197625 A^3
 
       current lattice:  
       48.000779169201216       -1.151947824942732       -0.087507367997965
      -23.451785108530302       41.070862296106021        0.444917863888681
       -0.411566419357224        0.104054676275993       36.325616039127908

........................................................................
.............................. CYCLE  260 ..............................
........................................................................
     iter. time                 ...        0 min, 14.985 sec
          total energy        -130.847812829265962 Eh
            energy change       -0.80E-04 Eh
 
          gradient norm          0.027024125099160 Eh/a0
            max. gradient        0.017315464604143 Eh/a0
 
            step length          0.128309671133210 a0
            max. step            0.009975255994757 a0
 
       unit cell volume      10465.683529115316560 A^3
 
       current lattice:  
       47.996302133175355       -1.150370847466474       -0.084938287951837
      -23.454882629947246       41.071181188807060        0.440246516616128
       -0.414683292429555        0.106346567885345       36.326607759437636

........................................................................
.............................. CYCLE  261 ..............................
........................................................................
     iter. time                 ...        0 min, 14.677 sec
          total energy        -130.847833398584640 Eh
            energy change       -0.21E-04 Eh
 
          gradient norm          0.039739816271314 Eh/a0
            max. gradient        0.022630033849059 Eh/a0
 
            step length          0.080967091444035 a0
            max. step            0.017315464604143 a0
 
       unit cell volume      10464.972520171333599 A^3
 
       current lattice:  
       47.994867649308659       -1.151839039697420       -0.082560491056463
      -23.445664752151949       41.070367115936179        0.445449754408605
       -0.413336722079044        0.110407332173783       36.326448810909682

........................................................................
.............................. CYCLE  262 ..............................
........................................................................
     iter. time                 ...        0 min, 14.723 sec
          total energy        -130.848026708010195 Eh
            energy change       -0.19E-03 Eh
 
          gradient norm          0.014794243114006 Eh/a0
            max. gradient        0.008680973107228 Eh/a0
 
            step length          0.123267117981275 a0
            max. step            0.022630033849059 a0
 
       unit cell volume      10464.132383704067252 A^3
 
       current lattice:  
       47.994713447415435       -1.152623605275580       -0.086890002728637
      -23.446019367667699       41.069537697970723        0.444540493666525
       -0.414267028209100        0.108702092676045       36.324760275719072

........................................................................
.............................. CYCLE  263 ..............................
........................................................................
     iter. time                 ...        0 min, 14.559 sec
          total energy        -130.848138669846065 Eh
            energy change       -0.11E-03 Eh
 
          gradient norm          0.012521206829030 Eh/a0
            max. gradient        0.007188785569068 Eh/a0
 
            step length          0.069710555346305 a0
            max. step            0.008680973107228 a0
 
       unit cell volume      10464.756690374557365 A^3
 
       current lattice:  
       47.992430898858750       -1.152908785535379       -0.085300245925523
      -23.446154924129232       41.070923668491936        0.443037657593784
       -0.416420355886759        0.108866492164269       36.327553387464476

........................................................................
.............................. CYCLE  264 ..............................
........................................................................
     iter. time                 ...        0 min, 15.032 sec
          total energy        -130.848110395236631 Eh
            energy change        0.28E-04 Eh
 
          gradient norm          0.042800659495889 Eh/a0
            max. gradient        0.031528347205132 Eh/a0
 
            step length          0.207439262406140 a0
            max. step            0.007188785569068 a0
 
       unit cell volume      10463.830539023198071 A^3
 
       current lattice:  
       47.994538953820424       -1.155351969201392       -0.083181594007213
      -23.441878084426619       41.070737279824144        0.443252154748844
       -0.417124187348820        0.112846218335741       36.323891021978120

........................................................................
.............................. CYCLE  265 ..............................
........................................................................
     iter. time                 ...        0 min, 14.595 sec
          total energy        -130.848315727299337 Eh
            energy change       -0.21E-03 Eh
 
          gradient norm          0.022442242511987 Eh/a0
            max. gradient        0.012421836362906 Eh/a0
 
            step length          0.071009406675990 a0
            max. step            0.031528347205132 a0
 
       unit cell volume      10463.027902207850275 A^3
 
       current lattice:  
       47.987158944468433       -1.155347964105091       -0.085777856894480
      -23.439109453372069       41.070482083571072        0.440947960582648
       -0.416373501049256        0.111283558822348       36.326932695774389

........................................................................
.............................. CYCLE  266 ..............................
........................................................................
     iter. time                 ...        0 min, 14.807 sec
          total energy        -130.848406813154696 Eh
            energy change       -0.91E-04 Eh
 
          gradient norm          0.023109180803745 Eh/a0
            max. gradient        0.011342092954340 Eh/a0
 
            step length          0.233557799853535 a0
            max. step            0.012421836362906 a0
 
       unit cell volume      10462.130952187277217 A^3
 
       current lattice:  
       47.982004412020792       -1.157015706392528       -0.083808241217685
      -23.432729933029268       41.072242511067309        0.444270085137914
       -0.424806930816039        0.113422968621128       36.326816479273845

........................................................................
.............................. CYCLE  267 ..............................
........................................................................
     iter. time                 ...        0 min, 14.638 sec
          total energy        -130.848455988098067 Eh
            energy change       -0.49E-04 Eh
 
          gradient norm          0.029666881196279 Eh/a0
            max. gradient        0.014804503132448 Eh/a0
 
            step length          0.139201276647607 a0
            max. step            0.011342092954340 a0
 
       unit cell volume      10463.380244592828603 A^3
 
       current lattice:  
       47.982389969256353       -1.159931213464501       -0.081312414427223
      -23.435084762239423       41.071240787051927        0.440125856215002
       -0.419927424488361        0.115723705532301       36.333070530974751

........................................................................
.............................. CYCLE  268 ..............................
........................................................................
     iter. time                 ...        0 min, 14.812 sec
          total energy        -130.848540381496548 Eh
            energy change       -0.84E-04 Eh
 
          gradient norm          0.023206057493483 Eh/a0
            max. gradient        0.015781806543024 Eh/a0
 
            step length          0.098558658386496 a0
            max. step            0.014804503132448 a0
 
       unit cell volume      10462.304125615472003 A^3
 
       current lattice:  
       47.979561304289454       -1.159080706928910       -0.083056919880573
      -23.429375567568467       41.072688024885927        0.438198971097511
       -0.421955596170279        0.116647905866284       36.329731585478740

........................................................................
.............................. CYCLE  269 ..............................
........................................................................
     iter. time                 ...        0 min, 14.538 sec
          total energy        -130.848588621052528 Eh
            energy change       -0.48E-04 Eh
 
          gradient norm          0.027635837701763 Eh/a0
            max. gradient        0.018605085899741 Eh/a0
 
            step length          0.070031700670980 a0
            max. step            0.015781806543024 a0
 
       unit cell volume      10460.572942504424645 A^3
 
       current lattice:  
       47.977977809007086       -1.158827731236384       -0.084826984700081
      -23.429287858124017       41.068442716448033        0.447140366268052
       -0.423888468066397        0.114630207807625       36.328650226550145

........................................................................
.............................. CYCLE  270 ..............................
........................................................................
     iter. time                 ...        0 min, 14.810 sec
          total energy        -130.848720368453002 Eh
            energy change       -0.13E-03 Eh
 
          gradient norm          0.014825981689469 Eh/a0
            max. gradient        0.007176363376175 Eh/a0
 
            step length          0.102098141556734 a0
            max. step            0.018605085899741 a0
 
       unit cell volume      10461.289588368046680 A^3
 
       current lattice:  
       47.975837366672437       -1.161482693464377       -0.080659461073169
      -23.427376532552429       41.071324822698571        0.442469433164108
       -0.425178361533044        0.116058773910320       36.331290963906206

........................................................................
.............................. CYCLE  271 ..............................
........................................................................
     iter. time                 ...        0 min, 15.123 sec
          total energy        -130.848792803786438 Eh
            energy change       -0.72E-04 Eh
 
          gradient norm          0.019897992614591 Eh/a0
            max. gradient        0.010081665021919 Eh/a0
 
            step length          0.129360105226646 a0
            max. step            0.007176363376175 a0
 
       unit cell volume      10459.871456586173736 A^3
 
       current lattice:  
       47.973870041574990       -1.161701184819366       -0.084233804383972
      -23.422165987422371       41.069491035780203        0.442707031836349
       -0.426643787091539        0.118550811501113       36.329558583337700

........................................................................
.............................. CYCLE  272 ..............................
........................................................................
     iter. time                 ...        0 min, 14.763 sec
          total energy        -130.848891075259417 Eh
            energy change       -0.98E-04 Eh
 
          gradient norm          0.023410123198325 Eh/a0
            max. gradient        0.013067221692351 Eh/a0
 
            step length          0.235575007843967 a0
            max. step            0.010081665021919 a0
 
       unit cell volume      10458.981822936513709 A^3
 
       current lattice:  
       47.967440091748607       -1.165116575104799       -0.082188224195708
      -23.418323230051858       41.071494329079165        0.444054781340346
       -0.428389463846076        0.120991370710787       36.331036316015961

........................................................................
.............................. CYCLE  273 ..............................
........................................................................
     iter. time                 ...        0 min, 15.085 sec
          total energy        -130.848858281491232 Eh
            energy change        0.33E-04 Eh
 
          gradient norm          0.052948151542236 Eh/a0
            max. gradient        0.029088048688780 Eh/a0
 
            step length          0.097544316187242 a0
            max. step            0.013067221692351 a0
 
       unit cell volume      10456.844872454290453 A^3
 
       current lattice:  
       47.965019625679986       -1.165589307749713       -0.076718435147288
      -23.413391952060323       41.068284698243971        0.442464686466742
       -0.429999081174719        0.116953462080463       36.328366516375475

........................................................................
.............................. CYCLE  274 ..............................
........................................................................
     iter. time                 ...        0 min, 14.475 sec
          total energy        -130.849040131866275 Eh
            energy change       -0.18E-03 Eh
 
          gradient norm          0.034742937630721 Eh/a0
            max. gradient        0.019976515663550 Eh/a0
 
            step length          0.047456884013044 a0
            max. step            0.029088048688780 a0
 
       unit cell volume      10458.944647380105380 A^3
 
       current lattice:  
       47.965061006673594       -1.164450553499814       -0.081429806730104
      -23.412539067762911       41.069351516075614        0.441240585592474
       -0.432804783857271        0.122457030776011       36.334246629018473

........................................................................
.............................. CYCLE  275 ..............................
........................................................................
     iter. time                 ...        0 min, 14.713 sec
          total energy        -130.849136984874576 Eh
            energy change       -0.97E-04 Eh
 
          gradient norm          0.027931223618728 Eh/a0
            max. gradient        0.015188926310204 Eh/a0
 
            step length          0.244554289069804 a0
            max. step            0.019976515663550 a0
 
       unit cell volume      10455.676181902061217 A^3
 
       current lattice:  
       47.958692843092926       -1.170341271009111       -0.082555406987009
      -23.408687350801831       41.069854007227157        0.442553930370023
       -0.432304364914846        0.125166149965997       36.329865633894677

........................................................................
.............................. CYCLE  276 ..............................
........................................................................
     iter. time                 ...        0 min, 15.443 sec
          total energy        -130.849058164549149 Eh
            energy change        0.79E-04 Eh
 
          gradient norm          0.051704709139959 Eh/a0
            max. gradient        0.035289360559123 Eh/a0
 
            step length          0.152499246676742 a0
            max. step            0.015188926310204 a0
 
       unit cell volume      10458.654305662092156 A^3
 
       current lattice:  
       47.956856072656642       -1.161747635296178       -0.075772035791454
      -23.404700942295147       41.072829457793439        0.441912708885767
       -0.430735109811623        0.122941239776184       36.335027786898046

........................................................................
.............................. CYCLE  277 ..............................
........................................................................
     iter. time                 ...        0 min, 14.805 sec
          total energy        -130.849297798430626 Eh
            energy change       -0.24E-03 Eh
 
          gradient norm          0.023224800882131 Eh/a0
            max. gradient        0.011176648204891 Eh/a0
 
            step length          0.092444764780270 a0
            max. step            0.035289360559123 a0
 
       unit cell volume      10457.774944818391305 A^3
 
       current lattice:  
       47.957496704930868       -1.166787123283201       -0.076228203714671
      -23.406394863303280       41.070945932696830        0.440395499824286
       -0.434590656744887        0.123547740691626       36.335423523977262

........................................................................
.............................. CYCLE  278 ..............................
........................................................................
     iter. time                 ...        0 min, 14.813 sec
          total energy        -130.849425022780508 Eh
            energy change       -0.13E-03 Eh
 
          gradient norm          0.011321070313001 Eh/a0
            max. gradient        0.005576360672591 Eh/a0
 
            step length          0.051236265662656 a0
            max. step            0.011176648204891 a0
 
       unit cell volume      10457.546240905327068 A^3
 
       current lattice:  
       47.956787275660105       -1.166091370552170       -0.079772742013207
      -23.407302575703483       41.071503609958640        0.440894065918413
       -0.431930112033948        0.124352305026123       36.334421795913116

........................................................................
.............................. CYCLE  279 ..............................
........................................................................
     iter. time                 ...        0 min, 15.027 sec
          total energy        -130.849428510726852 Eh
            energy change       -0.35E-05 Eh
 
          gradient norm          0.027520572812820 Eh/a0
            max. gradient        0.015639477952296 Eh/a0
 
            step length          0.261535967429634 a0
            max. step            0.005576360672591 a0
 
       unit cell volume      10456.895750552450409 A^3
 
       current lattice:  
       47.952255166405529       -1.168913866496666       -0.074745791335695
      -23.400557956441816       41.070903524264146        0.437375560362285
       -0.436800149720275        0.126779683654988       36.337252667171718

........................................................................
.............................. CYCLE  280 ..............................
........................................................................
     iter. time                 ...        0 min, 14.610 sec
          total energy        -130.849562340578615 Eh
            energy change       -0.13E-03 Eh
 
          gradient norm          0.018513598300293 Eh/a0
            max. gradient        0.011748111237191 Eh/a0
 
            step length          0.139250697510046 a0
            max. step            0.015639477952296 a0
 
       unit cell volume      10458.615433996068532 A^3
 
       current lattice:  
       47.953627293727159       -1.167039288196671       -0.076749207758047
      -23.405404525244503       41.075314751007951        0.436231183465386
       -0.434399797269032        0.126153567076181       36.337503927785825

........................................................................
.............................. CYCLE  281 ..............................
........................................................................
     iter. time                 ...        0 min, 14.926 sec
          total energy        -130.849661725371561 Eh
            energy change       -0.99E-04 Eh
 
          gradient norm          0.022244863430874 Eh/a0
            max. gradient        0.014020525561644 Eh/a0
 
            step length          0.119443411979323 a0
            max. step            0.011748111237191 a0
 
       unit cell volume      10458.525445113589740 A^3
 
       current lattice:  
       47.952440773788062       -1.166301561228082       -0.078091727183842
      -23.403897444331218       41.073190750482418        0.436553244605354
       -0.434680703020348        0.124144754990101       36.339644508806465

........................................................................
.............................. CYCLE  282 ..............................
........................................................................
     iter. time                 ...        0 min, 14.839 sec
          total energy        -130.849626999802155 Eh
            energy change        0.35E-04 Eh
 
          gradient norm          0.038777625052811 Eh/a0
            max. gradient        0.024545752544114 Eh/a0
 
            step length          0.104188539651614 a0
            max. step            0.014020525561644 a0
 
       unit cell volume      10459.331823977177919 A^3
 
       current lattice:  
       47.947739894628981       -1.161090788130112       -0.074469015416350
      -23.407860294026690       41.074328603358929        0.432348612204897
       -0.434049219644069        0.131207851526453       36.342871317538915

........................................................................
.............................. CYCLE  283 ..............................
........................................................................
     iter. time                 ...        0 min, 14.850 sec
          total energy        -130.849639019923984 Eh
            energy change       -0.12E-04 Eh
 
          gradient norm          0.048094911265530 Eh/a0
            max. gradient        0.029571117957271 Eh/a0
 
            step length          0.092794873209784 a0
            max. step            0.024545752544114 a0
 
       unit cell volume      10459.485624434417332 A^3
 
       current lattice:  
       47.948104286344794       -1.167157465165723       -0.076235953346271
      -23.398954090007202       41.076681079201720        0.437845262433443
       -0.432235555137307        0.128360832044812       36.343476423013115

........................................................................
.............................. CYCLE  284 ..............................
........................................................................
     iter. time                 ...        0 min, 14.978 sec
          total energy        -130.849735084455205 Eh
            energy change       -0.96E-04 Eh
 
          gradient norm          0.038470029553287 Eh/a0
            max. gradient        0.019984572176339 Eh/a0
 
            step length          0.041537987048288 a0
            max. step            0.029571117957271 a0
 
       unit cell volume      10460.005688430017472 A^3
 
       current lattice:  
       47.948504333437675       -1.165378532600597       -0.077916855520507
      -23.407145491531114       41.077365261334293        0.432086858662456
       -0.436299906163840        0.122805964132601       36.343709535445413

........................................................................
.............................. CYCLE  285 ..............................
........................................................................
     iter. time                 ...        0 min, 14.862 sec
          total energy        -130.849899558824205 Eh
            energy change       -0.16E-03 Eh
 
          gradient norm          0.020397965216848 Eh/a0
            max. gradient        0.010686160112482 Eh/a0
 
            step length          0.077418330716354 a0
            max. step            0.019984572176339 a0
 
       unit cell volume      10459.377255905277707 A^3
 
       current lattice:  
       47.947178462512781       -1.163096269105929       -0.076023194581384
      -23.405569650151591       41.073874278830814        0.433146994394375
       -0.435620488142544        0.126569625241366       36.344667673802554

........................................................................
.............................. CYCLE  286 ..............................
........................................................................
     iter. time                 ...        0 min, 14.629 sec
          total energy        -130.849967234550803 Eh
            energy change       -0.68E-04 Eh
 
          gradient norm          0.015656030432869 Eh/a0
            max. gradient        0.006642936965244 Eh/a0
 
            step length          0.020924515909424 a0
            max. step            0.010686160112482 a0
 
       unit cell volume      10460.021830818117451 A^3
 
       current lattice:  
       47.946281534879589       -1.163538836261781       -0.077552007109056
      -23.404031738914640       41.076558461119419        0.432624935486141
       -0.434264038572507        0.125976172447460       36.345351312122894

........................................................................
.............................. CYCLE  287 ..............................
........................................................................
     iter. time                 ...        0 min, 14.744 sec
          total energy        -130.849972656013421 Eh
            energy change       -0.54E-05 Eh
 
          gradient norm          0.033267985427032 Eh/a0
            max. gradient        0.020424021261937 Eh/a0
 
            step length          0.083013135033420 a0
            max. step            0.006642936965244 a0
 
       unit cell volume      10460.913274781933069 A^3
 
       current lattice:  
       47.948275785982069       -1.162722021501260       -0.072921192717387
      -23.404139046018678       41.077184425302974        0.434112740373930
       -0.438106167567419        0.128903112913398       36.346001234341287

........................................................................
.............................. CYCLE  288 ..............................
........................................................................
     iter. time                 ...        0 min, 14.862 sec
          total energy        -130.850123203276240 Eh
            energy change       -0.15E-03 Eh
 
          gradient norm          0.015372479209320 Eh/a0
            max. gradient        0.008029509013725 Eh/a0
 
            step length          0.088379573984583 a0
            max. step            0.020424021261937 a0
 
       unit cell volume      10460.380505728666321 A^3
 
       current lattice:  
       47.942124975894956       -1.162085753283582       -0.074244400397542
      -23.401952817447242       41.075504440103117        0.432266337892791
       -0.435817929335752        0.129352035102236       36.350065694584110

........................................................................
.............................. CYCLE  289 ..............................
........................................................................
     iter. time                 ...        0 min, 14.808 sec
          total energy        -130.850252398760290 Eh
            energy change       -0.13E-03 Eh
 
          gradient norm          0.010977916920266 Eh/a0
            max. gradient        0.006594273895712 Eh/a0
 
            step length          0.120473144968523 a0
            max. step            0.008029509013725 a0
 
       unit cell volume      10461.523684277615757 A^3
 
       current lattice:  
       47.941944093163244       -1.161538047961886       -0.074300233547472
      -23.401288992462966       41.078012253468088        0.430299334093084
       -0.436774140313565        0.130341448714186       36.351677945172902

........................................................................
.............................. CYCLE  290 ..............................
........................................................................
     iter. time                 ...        0 min, 14.790 sec
          total energy        -130.850295234160086 Eh
            energy change       -0.43E-04 Eh
 
          gradient norm          0.027506215946779 Eh/a0
            max. gradient        0.018242073337118 Eh/a0
 
            step length          0.247339973323496 a0
            max. step            0.006594273895712 a0
 
       unit cell volume      10461.334738955671128 A^3
 
       current lattice:  
       47.931614548382122       -1.158261965008202       -0.071792219476865
      -23.396584625953238       41.079449030513011        0.430132842810282
       -0.443622239075278        0.132191768908754       36.356145118505118

........................................................................
.............................. CYCLE  291 ..............................
........................................................................
     iter. time                 ...        0 min, 14.898 sec
          total energy        -130.850387374311225 Eh
            energy change       -0.92E-04 Eh
 
          gradient norm          0.020610569334779 Eh/a0
            max. gradient        0.009445018595772 Eh/a0
 
            step length          0.054933824345840 a0
            max. step            0.018242073337118 a0
 
       unit cell volume      10462.660338275509275 A^3
 
       current lattice:  
       47.935496761034329       -1.159723627007452       -0.072873101132848
      -23.400732689392992       41.079809268632602        0.429946018604505
       -0.439826516458322        0.132782582048670       36.358181537981679

........................................................................
.............................. CYCLE  292 ..............................
........................................................................
     iter. time                 ...        0 min, 14.903 sec
          total energy        -130.850412561565520 Eh
            energy change       -0.25E-04 Eh
 
          gradient norm          0.028168358847781 Eh/a0
            max. gradient        0.018607338418592 Eh/a0
 
            step length          0.122782495924126 a0
            max. step            0.009445018595772 a0
 
       unit cell volume      10462.201200593493922 A^3
 
       current lattice:  
       47.932608789691450       -1.156865201097331       -0.074042680199216
      -23.394738001451451       41.079901585993227        0.424962142331697
       -0.441629739768290        0.135365384315382       36.357363570356668

........................................................................
.............................. CYCLE  293 ..............................
........................................................................
     iter. time                 ...        0 min, 14.989 sec
          total energy        -130.850526258073046 Eh
            energy change       -0.11E-03 Eh
 
          gradient norm          0.009523342620273 Eh/a0
            max. gradient        0.005072622019196 Eh/a0
 
            step length          0.110405270854276 a0
            max. step            0.018607338418592 a0
 
       unit cell volume      10461.931261441055540 A^3
 
       current lattice:  
       47.929359948363150       -1.158579229103440       -0.072572786861020
      -23.393767067268865       41.081186991119658        0.429103276120176
       -0.444177020845977        0.134653341242322       36.358497998923738

........................................................................
.............................. CYCLE  294 ..............................
........................................................................
     iter. time                 ...        0 min, 14.756 sec
          total energy        -130.850603556418775 Eh
            energy change       -0.77E-04 Eh
 
          gradient norm          0.011243097692557 Eh/a0
            max. gradient        0.004925994959129 Eh/a0
 
            step length          0.058053452013128 a0
            max. step            0.005072622019196 a0
 
       unit cell volume      10462.683338450106021 A^3
 
       current lattice:  
       47.928749821535732       -1.157090666510283       -0.072675160504456
      -23.393966285514317       41.081767769908232        0.427210277389787
       -0.444419728586814        0.136630439290769       36.360426528211612

........................................................................
.............................. CYCLE  295 ..............................
........................................................................
     iter. time                 ...        0 min, 14.591 sec
          total energy        -130.850636466753400 Eh
            energy change       -0.33E-04 Eh
 
          gradient norm          0.031344193439234 Eh/a0
            max. gradient        0.017393619230605 Eh/a0
 
            step length          0.183238714158968 a0
            max. step            0.004925994959129 a0
 
       unit cell volume      10461.774875775070541 A^3
 
       current lattice:  
       47.924700029119165       -1.158574732829976       -0.069466639281886
      -23.390633294245877       41.081451888406136        0.429585655514541
       -0.446435448276808        0.133682052654100       36.361201885787906

........................................................................
.............................. CYCLE  296 ..............................
........................................................................
     iter. time                 ...        0 min, 14.915 sec
          total energy        -130.850655626995859 Eh
            energy change       -0.19E-04 Eh
 
          gradient norm          0.041691645929453 Eh/a0
            max. gradient        0.030207479149735 Eh/a0
 
            step length          0.277622303393882 a0
            max. step            0.017393619230605 a0
 
       unit cell volume      10464.712605835402428 A^3
 
       current lattice:  
       47.917051676102353       -1.155810259603595       -0.069842145911243
      -23.386632274580990       41.086117177274531        0.426905745139821
       -0.451082533495583        0.141729423541838       36.371890789411630

........................................................................
.............................. CYCLE  297 ..............................
........................................................................
     iter. time                 ...        0 min, 15.027 sec
          total energy        -130.850802565108381 Eh
            energy change       -0.15E-03 Eh
 
          gradient norm          0.021304633490803 Eh/a0
            max. gradient        0.014133987748151 Eh/a0
 
            step length          0.149562033729189 a0
            max. step            0.030207479149735 a0
 
       unit cell volume      10464.106324838736327 A^3
 
       current lattice:  
       47.920149705109843       -1.155719925106346       -0.072039219192868
      -23.389528518207015       41.085473099598190        0.424918227769030
       -0.448804318444201        0.141544046500342       36.368007013444426

........................................................................
.............................. CYCLE  298 ..............................
........................................................................
     iter. time                 ...        0 min, 14.700 sec
          total energy        -130.850817184540546 Eh
            energy change       -0.15E-04 Eh
 
          gradient norm          0.036957644647652 Eh/a0
            max. gradient        0.025170134622566 Eh/a0
 
            step length          0.142704063900120 a0
            max. step            0.014133987748151 a0
 
       unit cell volume      10465.528986146984607 A^3
 
       current lattice:  
       47.918348116916199       -1.154589480826300       -0.067849797400503
      -23.387100358271724       41.085378307447492        0.428322806494391
       -0.451066752197967        0.137482981124403       36.373816502002768

........................................................................
.............................. CYCLE  299 ..............................
........................................................................
     iter. time                 ...        0 min, 14.986 sec
          total energy        -130.850884614319028 Eh
            energy change       -0.67E-04 Eh
 
          gradient norm          0.024200119053196 Eh/a0
            max. gradient        0.012730084298020 Eh/a0
 
            step length          0.107622776127333 a0
            max. step            0.025170134622566 a0
 
       unit cell volume      10464.024744914102484 A^3
 
       current lattice:  
       47.914136564758188       -1.156279199553445       -0.065978545539989
      -23.387148684676301       41.084840167400721        0.424360497956876
       -0.450263545686206        0.139861551658117       36.373048899644893

........................................................................
.............................. CYCLE  300 ..............................
........................................................................
     iter. time                 ...        0 min, 14.620 sec
          total energy        -130.850969753895953 Eh
            energy change       -0.85E-04 Eh
 
          gradient norm          0.013248286037712 Eh/a0
            max. gradient        0.008506124868060 Eh/a0
 
            step length          0.090814492732642 a0
            max. step            0.012730084298020 a0
 
       unit cell volume      10464.922300165806519 A^3
 
       current lattice:  
       47.917035473995981       -1.155279729996996       -0.070615456486565
      -23.386282721451575       41.086639441203808        0.424796058549547
       -0.450608901590975        0.139214628654804       36.371897793654647

........................................................................
.............................. CYCLE  301 ..............................
........................................................................
     iter. time                 ...        0 min, 14.758 sec
          total energy        -130.851022513070319 Eh
            energy change       -0.53E-04 Eh
 
          gradient norm          0.011055748544174 Eh/a0
            max. gradient        0.006646911540501 Eh/a0
 
            step length          0.069327058537759 a0
            max. step            0.008506124868060 a0
 
       unit cell volume      10466.021310177804480 A^3
 
       current lattice:  
       47.915271216646175       -1.152647064576047       -0.067341912946395
      -23.387647289338801       41.088114333292452        0.423134483200117
       -0.449878018958120        0.139853099138464       36.374601990947390

........................................................................
.............................. CYCLE  302 ..............................
........................................................................
     iter. time                 ...        0 min, 14.693 sec
          total energy        -130.851055152863182 Eh
            energy change       -0.33E-04 Eh
 
          gradient norm          0.025638529774824 Eh/a0
            max. gradient        0.016034818007266 Eh/a0
 
            step length          0.147229131417697 a0
            max. step            0.006646911540501 a0
 
       unit cell volume      10465.827827248940594 A^3
 
       current lattice:  
       47.911210463739643       -1.156513753710702       -0.067496671846934
      -23.383069956786390       41.088305328155073        0.421365438178434
       -0.454846076533513        0.141460366835610       36.378495364458587

........................................................................
.............................. CYCLE  303 ..............................
........................................................................
     iter. time                 ...        0 min, 14.736 sec
          total energy        -130.851160715949220 Eh
            energy change       -0.11E-03 Eh
 
          gradient norm          0.011848878364578 Eh/a0
            max. gradient        0.007134246147058 Eh/a0
 
            step length          0.103114355502786 a0
            max. step            0.016034818007266 a0
 
       unit cell volume      10466.784375779043330 A^3
 
       current lattice:  
       47.909164318029831       -1.152260241207763       -0.067951317778380
      -23.383863546827477       41.090423888279332        0.421000707503642
       -0.452908337850849        0.141735241454003       36.379650219291371

........................................................................
.............................. CYCLE  304 ..............................
........................................................................
     iter. time                 ...        0 min, 14.999 sec
          total energy        -130.851222729457930 Eh
            energy change       -0.62E-04 Eh
 
          gradient norm          0.017766196958022 Eh/a0
            max. gradient        0.010587487986434 Eh/a0
 
            step length          0.083952196012980 a0
            max. step            0.007134246147058 a0
 
       unit cell volume      10468.515290115352400 A^3
 
       current lattice:  
       47.909397658011727       -1.151257875030077       -0.065495257648290
      -23.382634896561587       41.091885214591322        0.416462967747306
       -0.453137064520005        0.141512109042502       36.383673082129150

........................................................................
.............................. CYCLE  305 ..............................
........................................................................
     iter. time                 ...        0 min, 14.899 sec
          total energy        -130.851284085918053 Eh
            energy change       -0.61E-04 Eh
 
          gradient norm          0.021768411554259 Eh/a0
            max. gradient        0.011676545937126 Eh/a0
 
            step length          0.220705164876514 a0
            max. step            0.010587487986434 a0
 
       unit cell volume      10468.560184955058503 A^3
 
       current lattice:  
       47.902203600231644       -1.150702375567652       -0.063249205778189
      -23.382856121800142       41.093758421938880        0.418551488742087
       -0.456669384424080        0.144454313932439       36.387469525850499

........................................................................
.............................. CYCLE  306 ..............................
........................................................................
     iter. time                 ...        0 min, 14.658 sec
          total energy        -130.851381134327909 Eh
            energy change       -0.97E-04 Eh
 
          gradient norm          0.009800265878876 Eh/a0
            max. gradient        0.003820618195014 Eh/a0
 
            step length          0.047723836252309 a0
            max. step            0.011676545937126 a0
 
       unit cell volume      10468.947317446843954 A^3
 
       current lattice:  
       47.902367608390314       -1.149122623009101       -0.064195260176765
      -23.381012266548883       41.092915294414574        0.415234740853391
       -0.455429588402464        0.144119883182990       36.388705875450128

........................................................................
.............................. CYCLE  307 ..............................
........................................................................
     iter. time                 ...        0 min, 14.858 sec
          total energy        -130.851445776041487 Eh
            energy change       -0.65E-04 Eh
 
          gradient norm          0.026075129633099 Eh/a0
            max. gradient        0.017399194875812 Eh/a0
 
            step length          0.109919799747858 a0
            max. step            0.003820618195014 a0
 
       unit cell volume      10470.116651782853296 A^3
 
       current lattice:  
       47.899420669808769       -1.149832136219670       -0.061288104862018
      -23.379545919881174       41.096972973157349        0.416497204534864
       -0.456267828581481        0.144758465746175       36.391664325637130

........................................................................
.............................. CYCLE  308 ..............................
........................................................................
     iter. time                 ...        0 min, 14.574 sec
          total energy        -130.851508194295036 Eh
            energy change       -0.62E-04 Eh
 
          gradient norm          0.037001206423515 Eh/a0
            max. gradient        0.020592259366735 Eh/a0
 
            step length          0.242812164626609 a0
            max. step            0.017399194875812 a0
 
       unit cell volume      10470.262217598650750 A^3
 
       current lattice:  
       47.892600468455591       -1.145556152498267       -0.061081537798614
      -23.378781066687868       41.094375532418887        0.410566605654020
       -0.462948423662133        0.144528733777876       36.397849859696606

........................................................................
.............................. CYCLE  309 ..............................
........................................................................
     iter. time                 ...        0 min, 14.516 sec
          total energy        -130.851620121112177 Eh
            energy change       -0.11E-03 Eh
 
          gradient norm          0.025377532186577 Eh/a0
            max. gradient        0.015133556834554 Eh/a0
 
            step length          0.138780482506928 a0
            max. step            0.020592259366735 a0
 
       unit cell volume      10470.458201418216049 A^3
 
       current lattice:  
       47.890140430658711       -1.144964609499924       -0.059549368657266
      -23.372696043672292       41.093234567168210        0.411786209536362
       -0.459262385879161        0.149233609600274       36.401093616626341

........................................................................
.............................. CYCLE  310 ..............................
........................................................................
     iter. time                 ...        0 min, 14.704 sec
          total energy        -130.851730688814854 Eh
            energy change       -0.11E-03 Eh
 
          gradient norm          0.016538849706427 Eh/a0
            max. gradient        0.008875607373938 Eh/a0
 
            step length          0.086733741795382 a0
            max. step            0.015133556834554 a0
 
       unit cell volume      10472.020190668754367 A^3
 
       current lattice:  
       47.889352530736872       -1.145959245074448       -0.059359696126086
      -23.373320576423378       41.097735122054367        0.409568922686154
       -0.459426571663260        0.146655885915730       36.403505237312707

........................................................................
.............................. CYCLE  311 ..............................
........................................................................
     iter. time                 ...        0 min, 14.353 sec
          total energy        -130.851859178140984 Eh
            energy change       -0.13E-03 Eh
 
          gradient norm          0.010891136084281 Eh/a0
            max. gradient        0.004210446762165 Eh/a0
 
            step length          0.110920176175576 a0
            max. step            0.008875607373938 a0
 
       unit cell volume      10472.604158394764454 A^3
 
       current lattice:  
       47.885907502790722       -1.143788332785266       -0.056865408094773
      -23.372009503928496       41.097875216028143        0.409276967264370
       -0.462870973640551        0.147960262553549       36.407079685877825

........................................................................
.............................. CYCLE  312 ..............................
........................................................................
     iter. time                 ...        0 min, 14.866 sec
          total energy        -130.851945923428616 Eh
            energy change       -0.87E-04 Eh
 
          gradient norm          0.019610152729048 Eh/a0
            max. gradient        0.009635724477096 Eh/a0
 
            step length          0.159944462737194 a0
            max. step            0.004210446762165 a0
 
       unit cell volume      10472.932757775361097 A^3
 
       current lattice:  
       47.881100133860649       -1.144725746405614       -0.056595059938601
      -23.371094423898580       41.097709529534583        0.406329375484298
       -0.461314116688790        0.147265975360886       36.412447606511783

........................................................................
.............................. CYCLE  313 ..............................
........................................................................
     iter. time                 ...        0 min, 14.706 sec
          total energy        -130.851918791729730 Eh
            energy change        0.27E-04 Eh
 
          gradient norm          0.041313761107788 Eh/a0
            max. gradient        0.034605059543888 Eh/a0
 
            step length          0.112072094382660 a0
            max. step            0.009635724477096 a0
 
       unit cell volume      10474.196102788577264 A^3
 
       current lattice:  
       47.885455161006213       -1.144960761794395       -0.054801087824321
      -23.369376723152541       41.098270140573760        0.406040174700264
       -0.464471560470371        0.150996432370559       36.413067373252154

........................................................................
.............................. CYCLE  314 ..............................
........................................................................
     iter. time                 ...        0 min, 14.991 sec
          total energy        -130.852100553276387 Eh
            energy change       -0.18E-03 Eh
 
          gradient norm          0.018580874042944 Eh/a0
            max. gradient        0.010468913436868 Eh/a0
 
            step length          0.043811996047414 a0
            max. step            0.034605059543888 a0
 
       unit cell volume      10473.676427155869533 A^3
 
       current lattice:  
       47.878842345283665       -1.143379012892174       -0.054025441963546
      -23.366957956674625       41.100004733410124        0.406129719455068
       -0.465796677594882        0.148644786506870       36.414028925481780

........................................................................
.............................. CYCLE  315 ..............................
........................................................................
     iter. time                 ...        0 min, 14.684 sec
          total energy        -130.852098093108083 Eh
            energy change        0.25E-05 Eh
 
          gradient norm          0.030045869298431 Eh/a0
            max. gradient        0.015595096523131 Eh/a0
 
            step length          0.165134338739622 a0
            max. step            0.010468913436868 a0
 
       unit cell volume      10474.312464211798215 A^3
 
       current lattice:  
       47.882858150520185       -1.144508186744892       -0.053798485204588
      -23.374946845264851       41.097709101307373        0.406874678756255
       -0.462987592813556        0.148470026806901       36.415868923811018

........................................................................
.............................. CYCLE  316 ..............................
........................................................................
     iter. time                 ...        0 min, 14.670 sec
          total energy        -130.852214962264611 Eh
            energy change       -0.12E-03 Eh
 
          gradient norm          0.014814135413479 Eh/a0
            max. gradient        0.008945484151582 Eh/a0
 
            step length          0.142917694752035 a0
            max. step            0.015595096523131 a0
 
       unit cell volume      10473.950062136895212 A^3
 
       current lattice:  
       47.879187210602545       -1.143525572446001       -0.052599166413794
      -23.371167842654327       41.098040802512401        0.404214944936597
       -0.463426948344145        0.147982206954813       36.416606667158405

........................................................................
.............................. CYCLE  317 ..............................
........................................................................
     iter. time                 ...        0 min, 14.573 sec
          total energy        -130.852232796258221 Eh
            energy change       -0.18E-04 Eh
 
          gradient norm          0.018777207820797 Eh/a0
            max. gradient        0.008277677455278 Eh/a0
 
            step length          0.067901749031991 a0
            max. step            0.008945484151582 a0
 
       unit cell volume      10474.446857195291159 A^3
 
       current lattice:  
       47.880726358046999       -1.144936768057151       -0.054815951608706
      -23.369696512723088       41.099483420184079        0.406176879086814
       -0.465237716494833        0.147721473998446       36.416461935052133

........................................................................
.............................. CYCLE  318 ..............................
........................................................................
     iter. time                 ...        0 min, 15.097 sec
          total energy        -130.852300199261578 Eh
            energy change       -0.67E-04 Eh
 
          gradient norm          0.011220597300776 Eh/a0
            max. gradient        0.005030704870467 Eh/a0
 
            step length          0.103435008908618 a0
            max. step            0.008277677455278 a0
 
       unit cell volume      10474.631784539289583 A^3
 
       current lattice:  
       47.877976746268608       -1.143698763224304       -0.053729469870168
      -23.367946420840930       41.100009185516910        0.404980129150874
       -0.465363024328146        0.147452308271874       36.418157241950276

........................................................................
.............................. CYCLE  319 ..............................
........................................................................
     iter. time                 ...        0 min, 14.821 sec
          total energy        -130.852346041097235 Eh
            energy change       -0.46E-04 Eh
 
          gradient norm          0.016215748317807 Eh/a0
            max. gradient        0.010371288567175 Eh/a0
 
            step length          0.081112066468289 a0
            max. step            0.005030704870467 a0
 
       unit cell volume      10475.215087605305598 A^3
 
       current lattice:  
       47.879518012270033       -1.144762529567029       -0.052425606288425
      -23.370175182234728       41.099816033890889        0.402782404992034
       -0.465381573105465        0.147043789787336       36.419662639996325

........................................................................
.............................. CYCLE  320 ..............................
........................................................................
     iter. time                 ...        0 min, 15.196 sec
          total energy        -130.852397938651620 Eh
            energy change       -0.52E-04 Eh
 
          gradient norm          0.021840649649174 Eh/a0
            max. gradient        0.011725547919032 Eh/a0
 
            step length          0.116105242662415 a0
            max. step            0.010371288567175 a0
 
       unit cell volume      10476.597500361756829 A^3
 
       current lattice:  
       47.875668480734134       -1.141448826481006       -0.052773416997567
      -23.368243840989575       41.101907021319889        0.399259659759448
       -0.464874898823328        0.148574344575000       36.424069422887406

........................................................................
.............................. CYCLE  321 ..............................
........................................................................
     iter. time                 ...        0 min, 14.817 sec
          total energy        -130.852446333745945 Eh
            energy change       -0.48E-04 Eh
 
          gradient norm          0.020213492357089 Eh/a0
            max. gradient        0.011089133062405 Eh/a0
 
            step length          0.197358905456699 a0
            max. step            0.011725547919032 a0
 
       unit cell volume      10476.072306895504880 A^3
 
       current lattice:  
       47.871371784855292       -1.142558356877851       -0.049199644860052
      -23.365908539341401       41.101311999518131        0.402541651482002
       -0.467885029872103        0.145279920659762       36.426482451424455

........................................................................
.............................. CYCLE  322 ..............................
........................................................................
     iter. time                 ...        0 min, 14.930 sec
          total energy        -130.852529183147595 Eh
            energy change       -0.83E-04 Eh
 
          gradient norm          0.010521804420771 Eh/a0
            max. gradient        0.006677385510688 Eh/a0
 
            step length          0.092892941098395 a0
            max. step            0.011089133062405 a0
 
       unit cell volume      10477.573999610120154 A^3
 
       current lattice:  
       47.873147898893656       -1.142278247230176       -0.049442371464358
      -23.367827535121677       41.102838900373769        0.397477149126515
       -0.466852297086103        0.146960275095470       36.428879852584977

........................................................................
.............................. CYCLE  323 ..............................
........................................................................
     iter. time                 ...        0 min, 14.708 sec
          total energy        -130.852577547197342 Eh
            energy change       -0.48E-04 Eh
 
          gradient norm          0.010455255824061 Eh/a0
            max. gradient        0.005020261441254 Eh/a0
 
            step length          0.092252822015471 a0
            max. step            0.006677385510688 a0
 
       unit cell volume      10477.529942698776722 A^3
 
       current lattice:  
       47.869844146440990       -1.140265516198981       -0.049538269809314
      -23.366373994990742       41.103755286848191        0.397978841232280
       -0.467011195932811        0.146504663229433       36.429536633891459

........................................................................
.............................. CYCLE  324 ..............................
........................................................................
     iter. time                 ...        0 min, 14.727 sec
          total energy        -130.852570618192487 Eh
            energy change        0.69E-05 Eh
 
          gradient norm          0.034260084106220 Eh/a0
            max. gradient        0.026410769411202 Eh/a0
 
            step length          0.087141598970168 a0
            max. step            0.005020261441254 a0
 
       unit cell volume      10479.966728249164589 A^3
 
       current lattice:  
       47.872672510043778       -1.140010388760484       -0.048349567988059
      -23.367576596646160       41.104181667663589        0.397369372730601
       -0.467720006393967        0.145921909132536       36.435340696490442

........................................................................
.............................. CYCLE  325 ..............................
........................................................................
     iter. time                 ...        0 min, 14.506 sec
          total energy        -130.852692398840702 Eh
            energy change       -0.12E-03 Eh
 
          gradient norm          0.019773438290793 Eh/a0
            max. gradient        0.010155621164794 Eh/a0
 
            step length          0.143782621536975 a0
            max. step            0.026410769411202 a0
 
       unit cell volume      10478.508361565242012 A^3
 
       current lattice:  
       47.866177345102194       -1.140641660245036       -0.047239148133224
      -23.366186478465806       41.105492207728332        0.394408774554849
       -0.469559118459372        0.148502746851884       36.434357391008838

........................................................................
.............................. CYCLE  326 ..............................
........................................................................
     iter. time                 ...        0 min, 14.597 sec
          total energy        -130.852793253087725 Eh
            energy change       -0.10E-03 Eh
 
          gradient norm          0.012041698791653 Eh/a0
            max. gradient        0.006497018619162 Eh/a0
 
            step length          0.137367871855800 a0
            max. step            0.010155621164794 a0
 
       unit cell volume      10480.511651086355414 A^3
 
       current lattice:  
       47.864326677817751       -1.136103957107417       -0.046617096961629
      -23.366555924618904       41.107761323492404        0.394836232719302
       -0.468808541458117        0.147125063927831       36.438712616737988

........................................................................
.............................. CYCLE  327 ..............................
........................................................................
     iter. time                 ...        0 min, 14.835 sec
          total energy        -130.852871041447941 Eh
            energy change       -0.78E-04 Eh
 
          gradient norm          0.014970034738960 Eh/a0
            max. gradient        0.006868896125181 Eh/a0
 
            step length          0.219840786673118 a0
            max. step            0.006497018619162 a0
 
       unit cell volume      10481.008090805215033 A^3
 
       current lattice:  
       47.858385346092525       -1.135623865271563       -0.045286905492121
      -23.363104528383683       41.108247751508550        0.391169070030648
       -0.471613441918497        0.146582356633918       36.444276749533493

........................................................................
.............................. CYCLE  328 ..............................
........................................................................
     iter. time                 ...        0 min, 14.624 sec
          total energy        -130.852867184139399 Eh
            energy change        0.39E-05 Eh
 
          gradient norm          0.030086775134496 Eh/a0
            max. gradient        0.019101722573105 Eh/a0
 
            step length          0.138461941137564 a0
            max. step            0.006868896125181 a0
 
       unit cell volume      10482.964360734920774 A^3
 
       current lattice:  
       47.858279888594730       -1.134409334380449       -0.042860673995110
      -23.367615580024275       41.111690149611945        0.391260753914550
       -0.472434005483224        0.150131901342727       36.447642991095734

........................................................................
.............................. CYCLE  329 ..............................
........................................................................
     iter. time                 ...        0 min, 14.956 sec
          total energy        -130.852971121778836 Eh
            energy change       -0.10E-03 Eh
 
          gradient norm          0.012301176191938 Eh/a0
            max. gradient        0.006410574108867 Eh/a0
 
            step length          0.063873790220524 a0
            max. step            0.019101722573105 a0
 
       unit cell volume      10482.094150149228881 A^3
 
       current lattice:  
       47.856407247220154       -1.132672323484147       -0.043459510564314
      -23.364826597539416       41.109883739442871        0.390904096724057
       -0.472344010982625        0.148047314926108       36.446849642479187

........................................................................
.............................. CYCLE  330 ..............................
........................................................................
     iter. time                 ...        0 min, 14.839 sec
          total energy        -130.853023393115308 Eh
            energy change       -0.52E-04 Eh
 
          gradient norm          0.017307686252260 Eh/a0
            max. gradient        0.010771701423349 Eh/a0
 
            step length          0.141744526611509 a0
            max. step            0.006410574108867 a0
 
       unit cell volume      10482.575889319517955 A^3
 
       current lattice:  
       47.852750608571526       -1.133739237739343       -0.042990623030958
      -23.362565378810515       41.111421639821693        0.390624197259319
       -0.472537263903719        0.149356309353008       36.450392703525154

........................................................................
.............................. CYCLE  331 ..............................
........................................................................
     iter. time                 ...        0 min, 15.034 sec
          total energy        -130.853047338759580 Eh
            energy change       -0.24E-04 Eh
 
          gradient norm          0.035465594548298 Eh/a0
            max. gradient        0.017840285919363 Eh/a0
 
            step length          0.143664447994096 a0
            max. step            0.010771701423349 a0
 
       unit cell volume      10483.472712306180256 A^3
 
       current lattice:  
       47.848737117131577       -1.131424325569397       -0.045042040705765
      -23.365189333427104       41.113236201410338        0.387297980395290
       -0.476825645233007        0.145194082863298       36.453990596742230

........................................................................
.............................. CYCLE  332 ..............................
........................................................................
     iter. time                 ...        0 min, 14.586 sec
          total energy        -130.853148373692477 Eh
            energy change       -0.10E-03 Eh
 
          gradient norm          0.022925044695920 Eh/a0
            max. gradient        0.014230058279118 Eh/a0
 
            step length          0.089468686687165 a0
            max. step            0.017840285919363 a0
 
       unit cell volume      10482.897445814181992 A^3
 
       current lattice:  
       47.847177959203734       -1.128366484649432       -0.041761872864423
      -23.362378181852293       41.109841942092409        0.387139650114906
       -0.474396414983832        0.148540220828817       36.454844290783399

........................................................................
.............................. CYCLE  333 ..............................
........................................................................
     iter. time                 ...        0 min, 14.974 sec
          total energy        -130.853182031891379 Eh
            energy change       -0.34E-04 Eh
 
          gradient norm          0.028038603237293 Eh/a0
            max. gradient        0.015027303216209 Eh/a0
 
            step length          0.058805322268251 a0
            max. step            0.014230058279118 a0
 
       unit cell volume      10483.620629250917773 A^3
 
       current lattice:  
       47.845695890958268       -1.131251251192076       -0.039281922794664
      -23.361394432428398       41.114202075586483        0.387332019966656
       -0.472997350278457        0.144808821344859       36.455775043698900

........................................................................
.............................. CYCLE  334 ..............................
........................................................................
     iter. time                 ...        0 min, 15.127 sec
          total energy        -130.853284564820882 Eh
            energy change       -0.10E-03 Eh
 
          gradient norm          0.015241431889509 Eh/a0
            max. gradient        0.009957689031753 Eh/a0
 
            step length          0.071001288198997 a0
            max. step            0.015027303216209 a0
 
       unit cell volume      10483.473250161958276 A^3
 
       current lattice:  
       47.844279462116802       -1.131285186018998       -0.044021068942677
      -23.362811814148930       41.113135509865103        0.386949319779127
       -0.474223288537732        0.146691695016114       36.457415919831753

........................................................................
.............................. CYCLE  335 ..............................
........................................................................
     iter. time                 ...        0 min, 14.956 sec
          total energy        -130.853316271896716 Eh
            energy change       -0.32E-04 Eh
 
          gradient norm          0.019098721723593 Eh/a0
            max. gradient        0.010469290702799 Eh/a0
 
            step length          0.125467846799482 a0
            max. step            0.009957689031753 a0
 
       unit cell volume      10484.251148251860286 A^3
 
       current lattice:  
       47.842125382375571       -1.128920507096284       -0.039673791477800
      -23.360812278566442       41.114124237602873        0.386542364682604
       -0.478376983490064        0.146788830422728       36.459782071874990

........................................................................
.............................. CYCLE  336 ..............................
........................................................................
     iter. time                 ...        0 min, 14.598 sec
          total energy        -130.853356872432215 Eh
            energy change       -0.41E-04 Eh
 
          gradient norm          0.025123803112371 Eh/a0
            max. gradient        0.018087003028779 Eh/a0
 
            step length          0.111661507990561 a0
            max. step            0.010469290702799 a0
 
       unit cell volume      10484.037497942768823 A^3
 
       current lattice:  
       47.839396833511657       -1.128183518399101       -0.040867633546977
      -23.364621377313107       41.113585490305709        0.386388805331905
       -0.475120850402741        0.144512784328815       36.461375169330040

........................................................................
.............................. CYCLE  337 ..............................
........................................................................
     iter. time                 ...        0 min, 14.876 sec
          total energy        -130.853396386271044 Eh
            energy change       -0.40E-04 Eh
 
          gradient norm          0.028184314870161 Eh/a0
            max. gradient        0.016534503995763 Eh/a0
 
            step length          0.093416046997296 a0
            max. step            0.018087003028779 a0
 
       unit cell volume      10484.559248005738482 A^3
 
       current lattice:  
       47.843648448146190       -1.128881826331961       -0.042076114740410
      -23.365118246335225       41.114971109590677        0.384444106227350
       -0.472840669050536        0.143850815762017       36.458973224314065

........................................................................
.............................. CYCLE  338 ..............................
........................................................................
     iter. time                 ...        0 min, 14.706 sec
          total energy        -130.853495871598426 Eh
            energy change       -0.99E-04 Eh
 
          gradient norm          0.009694547708991 Eh/a0
            max. gradient        0.004003241933949 Eh/a0
 
            step length          0.163040130369654 a0
            max. step            0.016534503995763 a0
 
       unit cell volume      10484.619535379904846 A^3
 
       current lattice:  
       47.836930455276907       -1.128565063327212       -0.040398626327870
      -23.362768256457414       41.115459104270933        0.385869719108618
       -0.476465682400728        0.145642415149512       36.463754096978377

........................................................................
.............................. CYCLE  339 ..............................
........................................................................
     iter. time                 ...        0 min, 14.632 sec
          total energy        -130.853532412730999 Eh
            energy change       -0.37E-04 Eh
 
          gradient norm          0.011493841611854 Eh/a0
            max. gradient        0.005379822952271 Eh/a0
 
            step length          0.126612107890527 a0
            max. step            0.004003241933949 a0
 
       unit cell volume      10485.388701469577427 A^3
 
       current lattice:  
       47.839038752304766       -1.127533067697595       -0.041101782965839
      -23.364748214021500       41.115819326506305        0.384077453628963
       -0.475257312077661        0.143311649139754       36.464043554730509

........................................................................
.............................. CYCLE  340 ..............................
........................................................................
     iter. time                 ...        0 min, 14.579 sec
          total energy        -130.853565198796872 Eh
            energy change       -0.33E-04 Eh
 
          gradient norm          0.014175413427889 Eh/a0
            max. gradient        0.008660334807407 Eh/a0
 
            step length          0.121561690203774 a0
            max. step            0.005379822952271 a0
 
       unit cell volume      10484.528579269797774 A^3
 
       current lattice:  
       47.834980184807023       -1.127939741665927       -0.039648773894831
      -23.365345533998511       41.114760900626131        0.385065383900768
       -0.475459129500607        0.144595663932440       36.465333370001140

........................................................................
.............................. CYCLE  341 ..............................
........................................................................
     iter. time                 ...        0 min, 14.960 sec
          total energy        -130.853626448322530 Eh
            energy change       -0.61E-04 Eh
 
          gradient norm          0.011515891752674 Eh/a0
            max. gradient        0.006005924739581 Eh/a0
 
            step length          0.054877277570775 a0
            max. step            0.008660334807407 a0
 
       unit cell volume      10484.545943094053655 A^3
 
       current lattice:  
       47.835002689818630       -1.127688156571015       -0.041813126204761
      -23.364065125615543       41.116200579908593        0.386991919980506
       -0.476027874511644        0.143580881506542       36.463960219466173

........................................................................
.............................. CYCLE  342 ..............................
........................................................................
     iter. time                 ...        0 min, 14.989 sec
          total energy        -130.853699299990353 Eh
            energy change       -0.73E-04 Eh
 
          gradient norm          0.008468862795579 Eh/a0
            max. gradient        0.004042347804161 Eh/a0
 
            step length          0.125497075006073 a0
            max. step            0.006005924739581 a0
 
       unit cell volume      10484.585065594686967 A^3
 
       current lattice:  
       47.831355525099994       -1.127213544290941       -0.039328402131541
      -23.366107932017613       41.116453928016419        0.386611624855927
       -0.477373193022360        0.142530247718182       36.466490789640417

........................................................................
.............................. CYCLE  343 ..............................
........................................................................
     iter. time                 ...        0 min, 14.760 sec
          total energy        -130.853711112622562 Eh
            energy change       -0.12E-04 Eh
 
          gradient norm          0.023854174330024 Eh/a0
            max. gradient        0.011268835115825 Eh/a0
 
            step length          0.054025623781826 a0
            max. step            0.004042347804161 a0
 
       unit cell volume      10485.018063705723762 A^3
 
       current lattice:  
       47.830249980777879       -1.125896766058417       -0.042070167551427
      -23.365759652525636       41.117731682690312        0.384381652019184
       -0.475832258034419        0.144829117970579       36.467152301834723

........................................................................
.............................. CYCLE  344 ..............................
........................................................................
     iter. time                 ...        0 min, 14.843 sec
          total energy        -130.853801184611939 Eh
            energy change       -0.90E-04 Eh
 
          gradient norm          0.011433244544026 Eh/a0
            max. gradient        0.005600586677164 Eh/a0
 
            step length          0.049819517358582 a0
            max. step            0.011268835115825 a0
 
       unit cell volume      10483.790903675808295 A^3
 
       current lattice:  
       47.830078831813651       -1.127683722672768       -0.041881792184780
      -23.366690645234002       41.115575354135608        0.388616354660348
       -0.476167364558233        0.140884000134635       36.465735950095493

........................................................................
.............................. CYCLE  345 ..............................
........................................................................
     iter. time                 ...        0 min, 14.968 sec
          total energy        -130.853848902034741 Eh
            energy change       -0.48E-04 Eh
 
          gradient norm          0.011519461795921 Eh/a0
            max. gradient        0.005804123300631 Eh/a0
 
            step length          0.075192926612491 a0
            max. step            0.005600586677164 a0
 
       unit cell volume      10483.990427802502381 A^3
 
       current lattice:  
       47.827211433425546       -1.126971695109918       -0.040472152871737
      -23.367088413454674       41.117255602914753        0.387401811087909
       -0.477677201955871        0.142907918077134       36.466834668944337

........................................................................
.............................. CYCLE  346 ..............................
........................................................................
     iter. time                 ...        0 min, 14.371 sec
          total energy        -130.853866850861181 Eh
            energy change       -0.18E-04 Eh
 
          gradient norm          0.027044693879673 Eh/a0
            max. gradient        0.018235958271817 Eh/a0
 
            step length          0.047203196806957 a0
            max. step            0.005804123300631 a0
 
       unit cell volume      10483.967032774953623 A^3
 
       current lattice:  
       47.828280465749572       -1.129057165535756       -0.041358189428308
      -23.366680369217782       41.114422719695654        0.387349888716263
       -0.477420093864859        0.141068801080865       36.469371488120927

........................................................................
.............................. CYCLE  347 ..............................
........................................................................
     iter. time                 ...        0 min, 15.136 sec
          total energy        -130.853960053984537 Eh
            energy change       -0.93E-04 Eh
 
          gradient norm          0.015610834415837 Eh/a0
            max. gradient        0.008884898657347 Eh/a0
 
            step length          0.061960439024867 a0
            max. step            0.018235958271817 a0
 
       unit cell volume      10482.398135676881793 A^3
 
       current lattice:  
       47.824466561556093       -1.127943798551155       -0.042012003633263
      -23.367863642997435       41.115057941808530        0.387363905190366
       -0.477322619253494        0.140109925304178       36.465823455616636

........................................................................
.............................. CYCLE  348 ..............................
........................................................................
     iter. time                 ...        0 min, 14.876 sec
          total energy        -130.853917123557181 Eh
            energy change        0.43E-04 Eh
 
          gradient norm          0.040095662520799 Eh/a0
            max. gradient        0.021202263253616 Eh/a0
 
            step length          0.247756724879603 a0
            max. step            0.008884898657347 a0
 
       unit cell volume      10484.396543976994508 A^3
 
       current lattice:  
       47.818913069115979       -1.125149799117823       -0.039985124682189
      -23.368430299516209       41.117521691795119        0.391331188198803
       -0.478208980081246        0.141316273466524       36.473644754031525

........................................................................
.............................. CYCLE  349 ..............................
........................................................................
     iter. time                 ...        0 min, 15.160 sec
          total energy        -130.854036234204216 Eh
            energy change       -0.12E-03 Eh
 
          gradient norm          0.017502480964588 Eh/a0
            max. gradient        0.009561310631819 Eh/a0
 
            step length          0.032304456125569 a0
            max. step            0.021202263253616 a0
 
       unit cell volume      10482.573996101713419 A^3
 
       current lattice:  
       47.816710187056401       -1.129778014808231       -0.039600005010012
      -23.365862812424300       41.115777647121057        0.388188602857088
       -0.480873326495799        0.142502711863444       36.472553015655343

........................................................................
.............................. CYCLE  350 ..............................
........................................................................
     iter. time                 ...        0 min, 14.653 sec
          total energy        -130.854101465223323 Eh
            energy change       -0.65E-04 Eh
 
          gradient norm          0.010147583191586 Eh/a0
            max. gradient        0.005301078840523 Eh/a0
 
            step length          0.107770897645760 a0
            max. step            0.009561310631819 a0
 
       unit cell volume      10482.340678411104818 A^3
 
       current lattice:  
       47.818336169924557       -1.127773249245934       -0.041150619842362
      -23.368732799421473       41.114127602628017        0.388020016573550
       -0.478106419920901        0.139795552152829       36.471134342857617

........................................................................
.............................. CYCLE  351 ..............................
........................................................................
     iter. time                 ...        0 min, 14.908 sec
          total energy        -130.854126167442899 Eh
            energy change       -0.25E-04 Eh
 
          gradient norm          0.009267077258742 Eh/a0
            max. gradient        0.004891873690103 Eh/a0
 
            step length          0.151589474441375 a0
            max. step            0.005301078840523 a0
 
       unit cell volume      10482.102701155534305 A^3
 
       current lattice:  
       47.813175434870402       -1.127915374916749       -0.039783013785320
      -23.365669018725054       41.115308716901538        0.387846894812713
       -0.480217202782098        0.142138925128778       36.473242101059931

........................................................................
.............................. CYCLE  352 ..............................
........................................................................
     iter. time                 ...        0 min, 14.972 sec
          total energy        -130.854166361791073 Eh
            energy change       -0.40E-04 Eh
 
          gradient norm          0.006400060770390 Eh/a0
            max. gradient        0.002976605627474 Eh/a0
 
            step length          0.128795949051026 a0
            max. step            0.004891873690103 a0
 
       unit cell volume      10481.793446688756376 A^3
 
       current lattice:  
       47.815831695509772       -1.128541538642759       -0.041104827853064
      -23.368500304562065       41.114483113586672        0.388668763365785
       -0.478350257458078        0.141054324563265       36.471192715215949

........................................................................
.............................. CYCLE  353 ..............................
........................................................................
     iter. time                 ...        0 min, 15.030 sec
          total energy        -130.854175336267417 Eh
            energy change       -0.90E-05 Eh
 
          gradient norm          0.018307703632008 Eh/a0
            max. gradient        0.009608058306998 Eh/a0
 
            step length          0.230128129761417 a0
            max. step            0.002976605627474 a0
 
       unit cell volume      10481.323113869839290 A^3
 
       current lattice:  
       47.807870232817216       -1.126771477833027       -0.039708440982742
      -23.364586201321462       41.112799804146341        0.387320809175416
       -0.481181130805716        0.140488943138627       36.476345338055317

........................................................................
.............................. CYCLE  354 ..............................
........................................................................
     iter. time                 ...        0 min, 14.642 sec
          total energy        -130.854256341467845 Eh
            energy change       -0.81E-04 Eh
 
          gradient norm          0.010697750090629 Eh/a0
            max. gradient        0.005189487124299 Eh/a0
 
            step length          0.087268752459484 a0
            max. step            0.009608058306998 a0
 
       unit cell volume      10480.732095114828553 A^3
 
       current lattice:  
       47.807975758517792       -1.129129703360495       -0.039593891431538
      -23.366292086704242       41.112960468359830        0.388846189364892
       -0.478880883200278        0.141542821447066       36.475146983038208

........................................................................
.............................. CYCLE  355 ..............................
........................................................................
     iter. time                 ...        0 min, 14.825 sec
          total energy        -130.854250982596540 Eh
            energy change        0.54E-05 Eh
 
          gradient norm          0.027527326378490 Eh/a0
            max. gradient        0.019753002131079 Eh/a0
 
            step length          0.081944166054122 a0
            max. step            0.005189487124299 a0
 
       unit cell volume      10479.991701076849495 A^3
 
       current lattice:  
       47.804397782055361       -1.129459647346492       -0.042160285459533
      -23.367631726991512       41.112074450312321        0.388597118954832
       -0.483139379750831        0.142315387535412       36.476338219071721

........................................................................
.............................. CYCLE  356 ..............................
........................................................................
     iter. time                 ...        0 min, 14.634 sec
          total energy        -130.854344869069706 Eh
            energy change       -0.94E-04 Eh
 
          gradient norm          0.010825666083757 Eh/a0
            max. gradient        0.004606575278897 Eh/a0
 
            step length          0.112615794374106 a0
            max. step            0.019753002131079 a0
 
       unit cell volume      10479.661241817833798 A^3
 
       current lattice:  
       47.804646191292441       -1.129186668333549       -0.040429238801430
      -23.368341428530911       41.110246823286928        0.388283560461666
       -0.478385355497914        0.139838136227880       36.476493394732692

........................................................................
.............................. CYCLE  357 ..............................
........................................................................
     iter. time                 ...        0 min, 14.613 sec
          total energy        -130.854357968070417 Eh
            energy change       -0.13E-04 Eh
 
          gradient norm          0.018805695621234 Eh/a0
            max. gradient        0.008575950796790 Eh/a0
 
            step length          0.178074609511674 a0
            max. step            0.004606575278897 a0
 
       unit cell volume      10479.501893862201541 A^3
 
       current lattice:  
       47.798479767311882       -1.129985849337139       -0.041338642946889
      -23.367320180284949       41.110449130124003        0.387517314441932
       -0.478620355813796        0.142345395857604       36.480884175420663

........................................................................
.............................. CYCLE  358 ..............................
........................................................................
     iter. time                 ...        0 min, 14.800 sec
          total energy        -130.854414351977425 Eh
            energy change       -0.56E-04 Eh
 
          gradient norm          0.014194751427926 Eh/a0
            max. gradient        0.008002188650516 Eh/a0
 
            step length          0.091878837387640 a0
            max. step            0.008575950796790 a0
 
       unit cell volume      10480.144013745188204 A^3
 
       current lattice:  
       47.803104185993980       -1.129639953751701       -0.038971241036924
      -23.368568627947671       41.112119698069641        0.387882539777445
       -0.478532208113842        0.140043889899402       36.477874366714005

........................................................................
.............................. CYCLE  359 ..............................
........................................................................
     iter. time                 ...        0 min, 14.808 sec
          total energy        -130.854428861982484 Eh
            energy change       -0.15E-04 Eh
 
          gradient norm          0.022378226048146 Eh/a0
            max. gradient        0.014445995610914 Eh/a0
 
            step length          0.049217971498333 a0
            max. step            0.008002188650516 a0
 
       unit cell volume      10479.980723246873822 A^3
 
       current lattice:  
       47.798644729647812       -1.129549626906768       -0.039637704608813
      -23.368862628222402       41.112141493941607        0.387623316035863
       -0.478483421847394        0.139077654226553       36.480698405215577

........................................................................
.............................. CYCLE  360 ..............................
........................................................................
     iter. time                 ...        0 min, 14.782 sec
          total energy        -130.854490630125014 Eh
            energy change       -0.62E-04 Eh
 
          gradient norm          0.014591201868225 Eh/a0
            max. gradient        0.009561155160450 Eh/a0
 
            step length          0.091910045554825 a0
            max. step            0.014445995610914 a0
 
       unit cell volume      10479.557636505918708 A^3
 
       current lattice:  
       47.798198476321659       -1.128811839768018       -0.040023467636919
      -23.368994313356943       41.109304415839937        0.386731024732946
       -0.477650434920846        0.140577368549798       36.481814645390024

........................................................................
.............................. CYCLE  361 ..............................
........................................................................
     iter. time                 ...        0 min, 14.933 sec
          total energy        -130.854508592643157 Eh
            energy change       -0.18E-04 Eh
 
          gradient norm          0.021114250074346 Eh/a0
            max. gradient        0.009673227478453 Eh/a0
 
            step length          0.224443956847197 a0
            max. step            0.009561155160450 a0
 
       unit cell volume      10480.615390836677761 A^3
 
       current lattice:  
       47.791187628882803       -1.129753976091644       -0.038578874254983
      -23.369326768523653       41.113554922993146        0.383781280356452
       -0.477387060242593        0.138202492944825       36.487476144866818

........................................................................
.............................. CYCLE  362 ..............................
........................................................................
     iter. time                 ...        0 min, 14.894 sec
          total energy        -130.854565262991144 Eh
            energy change       -0.57E-04 Eh
 
          gradient norm          0.011896812820810 Eh/a0
            max. gradient        0.005866785442826 Eh/a0
 
            step length          0.064060667566354 a0
            max. step            0.009673227478453 a0
 
       unit cell volume      10480.740556322678458 A^3
 
       current lattice:  
       47.790496156433932       -1.127592840522177       -0.037209475690420
      -23.368129901926743       41.113445587709606        0.386262312712888
       -0.478926404988096        0.138087012104509       36.487565497025678

........................................................................
.............................. CYCLE  363 ..............................
........................................................................
     iter. time                 ...        0 min, 14.605 sec
          total energy        -130.854585644932257 Eh
            energy change       -0.20E-04 Eh
 
          gradient norm          0.016241061485815 Eh/a0
            max. gradient        0.009640361183332 Eh/a0
 
            step length          0.037983276829677 a0
            max. step            0.005866785442826 a0
 
       unit cell volume      10480.079870459258018 A^3
 
       current lattice:  
       47.789592330009107       -1.127854736429220       -0.037026859930855
      -23.370871472735598       41.111041538260302        0.383939959705032
       -0.477808028124185        0.138632233837040       36.488296305471160

........................................................................
.............................. CYCLE  364 ..............................
........................................................................
     iter. time                 ...        0 min, 14.843 sec
          total energy        -130.854635041766187 Eh
            energy change       -0.49E-04 Eh
 
          gradient norm          0.008412177584134 Eh/a0
            max. gradient        0.005033348519178 Eh/a0
 
            step length          0.064671532891909 a0
            max. step            0.009640361183332 a0
 
       unit cell volume      10480.518708917395998 A^3
 
       current lattice:  
       47.787645835747782       -1.127503324953521       -0.038604453937864
      -23.368485156262061       41.112194616901782        0.384074664413310
       -0.477738711199809        0.138379218881413       36.490099451199470

........................................................................
.............................. CYCLE  365 ..............................
........................................................................
     iter. time                 ...        0 min, 14.857 sec
          total energy        -130.854681632253374 Eh
            energy change       -0.47E-04 Eh
 
          gradient norm          0.008735866121033 Eh/a0
            max. gradient        0.003365679704137 Eh/a0
 
            step length          0.159698100604146 a0
            max. step            0.005033348519178 a0
 
       unit cell volume      10480.430987491796259 A^3
 
       current lattice:  
       47.780806016602753       -1.127213374542928       -0.036161190483244
      -23.368286123557493       41.112253124019716        0.384020682938120
       -0.479230238460790        0.138061917311788       36.494881042931667

........................................................................
.............................. CYCLE  366 ..............................
........................................................................
     iter. time                 ...        0 min, 14.978 sec
          total energy        -130.854714744918994 Eh
            energy change       -0.33E-04 Eh
 
          gradient norm          0.014240185681520 Eh/a0
            max. gradient        0.006530465729574 Eh/a0
 
            step length          0.092455377464681 a0
            max. step            0.003365679704137 a0
 
       unit cell volume      10481.709866177843651 A^3
 
       current lattice:  
       47.779646309643120       -1.124543768929577       -0.035265112198551
      -23.369049836120887       41.113787197438796        0.380766976844418
       -0.478989581447556        0.138940037893214       36.497683215402652

........................................................................
.............................. CYCLE  367 ..............................
........................................................................
     iter. time                 ...        0 min, 14.612 sec
          total energy        -130.854770570155978 Eh
            energy change       -0.56E-04 Eh
 
          gradient norm          0.010668730441346 Eh/a0
            max. gradient        0.005139405884883 Eh/a0
 
            step length          0.105615970465835 a0
            max. step            0.006530465729574 a0
 
       unit cell volume      10480.569289173054131 A^3
 
       current lattice:  
       47.774452824987449       -1.126357487505713       -0.035439299473841
      -23.366612314730247       41.111395127295943        0.381753004247793
       -0.480150495215125        0.137997070341329       36.500628294599501

........................................................................
.............................. CYCLE  368 ..............................
........................................................................
     iter. time                 ...        0 min, 14.690 sec
          total energy        -130.854808636746611 Eh
            energy change       -0.38E-04 Eh
 
          gradient norm          0.012651975832104 Eh/a0
            max. gradient        0.008933827265687 Eh/a0
 
            step length          0.049452432784997 a0
            max. step            0.005139405884883 a0
 
       unit cell volume      10480.749153649334403 A^3
 
       current lattice:  
       47.771883034030928       -1.124125152499066       -0.034365468079440
      -23.367052928730644       41.112575064465780        0.381160647427368
       -0.479952042582771        0.138750012415669       36.501205530241627

........................................................................
.............................. CYCLE  369 ..............................
........................................................................
     iter. time                 ...        0 min, 14.607 sec
          total energy        -130.854799290703312 Eh
            energy change        0.93E-05 Eh
 
          gradient norm          0.033325425628128 Eh/a0
            max. gradient        0.027787382181618 Eh/a0
 
            step length          0.119683294114422 a0
            max. step            0.008933827265687 a0
 
       unit cell volume      10481.710267437245420 A^3
 
       current lattice:  
       47.767197122650487       -1.125840032671273       -0.031492673210013
      -23.366770653416189       41.110648817562819        0.379287188845614
       -0.482072392279682        0.140373200091688       36.510650062597932

........................................................................
.............................. CYCLE  370 ..............................
........................................................................
     iter. time                 ...        0 min, 14.848 sec
          total energy        -130.854874561086177 Eh
            energy change       -0.75E-04 Eh
 
          gradient norm          0.019718573211792 Eh/a0
            max. gradient        0.009343101570600 Eh/a0
 
            step length          0.042188439221552 a0
            max. step            0.027787382181618 a0
 
       unit cell volume      10480.157539817149882 A^3
 
       current lattice:  
       47.764777654393420       -1.125920378913339       -0.032714762924697
      -23.365951013752781       41.110245761603906        0.377370765978324
       -0.481896092094939        0.139121906493932       36.507489751307929

........................................................................
.............................. CYCLE  371 ..............................
........................................................................
     iter. time                 ...        0 min, 14.607 sec
          total energy        -130.854887411224496 Eh
            energy change       -0.13E-04 Eh
 
          gradient norm          0.023124135354398 Eh/a0
            max. gradient        0.009440593931882 Eh/a0
 
            step length          0.112225969842367 a0
            max. step            0.009343101570600 a0
 
       unit cell volume      10480.491527510339438 A^3
 
       current lattice:  
       47.760805355271650       -1.122956433305004       -0.033326276854719
      -23.366006086868634       41.109571023146628        0.380402107776312
       -0.480013494450830        0.140193680298520       36.511057725112089

........................................................................
.............................. CYCLE  372 ..............................
........................................................................
     iter. time                 ...        0 min, 14.913 sec
          total energy        -130.854960689186754 Eh
            energy change       -0.73E-04 Eh
 
          gradient norm          0.012663458093925 Eh/a0
            max. gradient        0.006157441715917 Eh/a0
 
            step length          0.048744004826344 a0
            max. step            0.009440593931882 a0
 
       unit cell volume      10481.104302616768109 A^3
 
       current lattice:  
       47.761944976745028       -1.123266880326910       -0.030604441530283
      -23.365361933267728       41.111048396114505        0.378710348239061
       -0.481392177821902        0.140638582197216       36.511078639431616

........................................................................
.............................. CYCLE  373 ..............................
........................................................................
     iter. time                 ...        0 min, 14.836 sec
          total energy        -130.854980058641303 Eh
            energy change       -0.19E-04 Eh
 
          gradient norm          0.014496532233514 Eh/a0
            max. gradient        0.006754948831819 Eh/a0
 
            step length          0.100437121164701 a0
            max. step            0.006157441715917 a0
 
       unit cell volume      10479.898669453144976 A^3
 
       current lattice:  
       47.756128197465934       -1.124402036547485       -0.032421070508075
      -23.364630604617687       41.109024317634081        0.378298263016769
       -0.482172255481610        0.140946843006641       36.513709375181797

........................................................................
.............................. CYCLE  374 ..............................
........................................................................
     iter. time                 ...        0 min, 14.893 sec
          total energy        -130.855016850699712 Eh
            energy change       -0.37E-04 Eh
 
          gradient norm          0.005587365056748 Eh/a0
            max. gradient        0.002415771647947 Eh/a0
 
            step length          0.052763950624862 a0
            max. step            0.006754948831819 a0
 
       unit cell volume      10480.440051336823672 A^3
 
       current lattice:  
       47.758261538528153       -1.123858419326046       -0.031602155480466
      -23.365079759030682       41.110332102988643        0.377894999937147
       -0.482018246607937        0.140761429782176       36.512525204239061

........................................................................
.............................. CYCLE  375 ..............................
........................................................................
     iter. time                 ...        0 min, 14.620 sec
          total energy        -130.855045601139921 Eh
            energy change       -0.29E-04 Eh
 
          gradient norm          0.012474673676918 Eh/a0
            max. gradient        0.005345880870802 Eh/a0
 
            step length          0.124178148148884 a0
            max. step            0.002415771647947 a0
 
       unit cell volume      10479.843470168982094 A^3
 
       current lattice:  
       47.751675326049586       -1.124800074686414       -0.030615068064460
      -23.363695636871459       41.109122408703890        0.377403014109722
       -0.482612339072220        0.142405482024258       36.517030150528420

........................................................................
.............................. CYCLE  376 ..............................
........................................................................
     iter. time                 ...        0 min, 15.061 sec
          total energy        -130.855037778641361 Eh
            energy change        0.78E-05 Eh
 
          gradient norm          0.025733377196144 Eh/a0
            max. gradient        0.015391838855184 Eh/a0
 
            step length          0.091331798261417 a0
            max. step            0.005345880870802 a0
 
       unit cell volume      10481.034288116050448 A^3
 
       current lattice:  
       47.754295125046504       -1.121335588043218       -0.031174051167517
      -23.365520332284575       41.110054782307088        0.376787678644270
       -0.483452407333566        0.138360591043954       36.516789198475784

........................................................................
.............................. CYCLE  377 ..............................
........................................................................
     iter. time                 ...        0 min, 14.575 sec
          total energy        -130.855123123398414 Eh
            energy change       -0.85E-04 Eh
 
          gradient norm          0.018023928354663 Eh/a0
            max. gradient        0.009626041972162 Eh/a0
 
            step length          0.098465934049410 a0
            max. step            0.015391838855184 a0
 
       unit cell volume      10480.086311959941668 A^3
 
       current lattice:  
       47.748731273844491       -1.122821041759734       -0.028237905681092
      -23.362325344035149       41.109373812250062        0.376653243367086
       -0.480985083306765        0.141298828199775       36.518998061883480

........................................................................
.............................. CYCLE  378 ..............................
........................................................................
     iter. time                 ...        0 min, 14.943 sec
          total energy        -130.855141320012763 Eh
            energy change       -0.18E-04 Eh
 
          gradient norm          0.024396575233044 Eh/a0
            max. gradient        0.013349765318502 Eh/a0
 
            step length          0.236860178203672 a0
            max. step            0.009626041972162 a0
 
       unit cell volume      10479.014182170427375 A^3
 
       current lattice:  
       47.736289378828722       -1.123549405260760       -0.028398619941981
      -23.361436223572657       41.109232851249985        0.376753875233413
       -0.486843156124771        0.146074412467241       36.525383823295250

........................................................................
.............................. CYCLE  379 ..............................
........................................................................
     iter. time                 ...        0 min, 14.695 sec
          total energy        -130.855185598738586 Eh
            energy change       -0.44E-04 Eh
 
          gradient norm          0.016097647550026 Eh/a0
            max. gradient        0.009435965485318 Eh/a0
 
            step length          0.195827100835433 a0
            max. step            0.013349765318502 a0
 
       unit cell volume      10478.500737831580409 A^3
 
       current lattice:  
       47.726590242193829       -1.122648192019885       -0.026152165334912
      -23.358632920158712       41.106227002641695        0.374616915957561
       -0.487225444616788        0.144863974434010       36.533330838433024

........................................................................
.............................. CYCLE  380 ..............................
........................................................................
     iter. time                 ...        0 min, 14.972 sec
          total energy        -130.855194911048386 Eh
            energy change       -0.93E-05 Eh
 
          gradient norm          0.017284598779410 Eh/a0
            max. gradient        0.009112646202295 Eh/a0
 
            step length          0.238101436940700 a0
            max. step            0.009435965485318 a0
 
       unit cell volume      10479.724813319036912 A^3
 
       current lattice:  
       47.737238078482839       -1.122244173568973       -0.029027542137384
      -23.362209844510303       41.109405866745533        0.376462186842666
       -0.483296710110144        0.144897999214903       36.526402894271250

........................................................................
.............................. CYCLE  381 ..............................
........................................................................
     iter. time                 ...        0 min, 15.043 sec
          total energy        -130.855199984234815 Eh
            energy change       -0.51E-05 Eh
 
          gradient norm          0.026590469826307 Eh/a0
            max. gradient        0.017884873696225 Eh/a0
 
            step length          0.110062552627271 a0
            max. step            0.009112646202295 a0
 
       unit cell volume      10479.144282028237285 A^3
 
       current lattice:  
       47.737795311243900       -1.121832632010465       -0.026552607126666
      -23.359278632118411       41.108577525187854        0.376381026464379
       -0.485765479563067        0.144196543888012       36.524423274926484

........................................................................
.............................. CYCLE  382 ..............................
........................................................................
     iter. time                 ...        0 min, 14.622 sec
          total energy        -130.855237022900269 Eh
            energy change       -0.37E-04 Eh
 
          gradient norm          0.019703438611660 Eh/a0
            max. gradient        0.010554178674624 Eh/a0
 
            step length          0.078872544694821 a0
            max. step            0.017884873696225 a0
 
       unit cell volume      10479.280953903533373 A^3
 
       current lattice:  
       47.730264440520735       -1.122242696504133       -0.025829421847829
      -23.358982231990101       41.109904701608862        0.375054711455035
       -0.486061689763847        0.142988234508123       36.529698191278655

........................................................................
.............................. CYCLE  383 ..............................
........................................................................
     iter. time                 ...        0 min, 14.566 sec
          total energy        -130.855294855952906 Eh
            energy change       -0.58E-04 Eh
 
          gradient norm          0.010079092105773 Eh/a0
            max. gradient        0.003690515119513 Eh/a0
 
            step length          0.153902149210672 a0
            max. step            0.010554178674624 a0
 
       unit cell volume      10478.801393430074313 A^3
 
       current lattice:  
       47.724447045532465       -1.122946165852279       -0.026077556817070
      -23.359566526296966       41.107994520569648        0.374436958224715
       -0.485671855238929        0.144931723929043       36.534599648065061

........................................................................
.............................. CYCLE  384 ..............................
........................................................................
     iter. time                 ...        0 min, 14.651 sec
          total energy        -130.855292072933167 Eh
            energy change        0.28E-05 Eh
 
          gradient norm          0.020977565514050 Eh/a0
            max. gradient        0.012026517731684 Eh/a0
 
            step length          0.120829319693553 a0
            max. step            0.003690515119513 a0
 
       unit cell volume      10478.261750668030800 A^3
 
       current lattice:  
       47.717362122309751       -1.119312669319896       -0.024062484622469
      -23.356992628476618       41.106509224841524        0.374537688203297
       -0.488436620939764        0.146960629469131       36.537899446751084

........................................................................
.............................. CYCLE  385 ..............................
........................................................................
     iter. time                 ...        0 min, 14.814 sec
          total energy        -130.855340612104840 Eh
            energy change       -0.49E-04 Eh
 
          gradient norm          0.014794277639211 Eh/a0
            max. gradient        0.009160527636980 Eh/a0
 
            step length          0.032363384801812 a0
            max. step            0.012026517731684 a0
 
       unit cell volume      10479.037510637437663 A^3
 
       current lattice:  
       47.720033627174601       -1.121330707525135       -0.024699557332713
      -23.358016344656519       41.110257905140585        0.375050995248228
       -0.487373575158912        0.144826153721514       36.536053385075313

........................................................................
.............................. CYCLE  386 ..............................
........................................................................
     iter. time                 ...        0 min, 14.777 sec
          total energy        -130.855366247558749 Eh
            energy change       -0.26E-04 Eh
 
          gradient norm          0.009852876362843 Eh/a0
            max. gradient        0.005687725173571 Eh/a0
 
            step length          0.053306156817522 a0
            max. step            0.009160527636980 a0
 
       unit cell volume      10478.745765674282666 A^3
 
       current lattice:  
       47.716761852883835       -1.121480150270052       -0.023159940522229
      -23.359399401703737       41.108222004207363        0.372867599031662
       -0.487440767225554        0.145761261288679       36.539492235365621

........................................................................
.............................. CYCLE  387 ..............................
........................................................................
     iter. time                 ...        0 min, 14.842 sec
          total energy        -130.855385813609928 Eh
            energy change       -0.20E-04 Eh
 
          gradient norm          0.014381921848703 Eh/a0
            max. gradient        0.007482849889125 Eh/a0
 
            step length          0.166464882702617 a0
            max. step            0.005687725173571 a0
 
       unit cell volume      10478.854457481271311 A^3
 
       current lattice:  
       47.709706723791420       -1.120107567780113       -0.024300116311873
      -23.356016297179419       41.108005837403439        0.371978331334724
       -0.487759009465545        0.146459847190222       36.544878529164251

........................................................................
.............................. CYCLE  388 ..............................
........................................................................
     iter. time                 ...        0 min, 15.009 sec
          total energy        -130.855417770167662 Eh
            energy change       -0.32E-04 Eh
 
          gradient norm          0.013781668760351 Eh/a0
            max. gradient        0.008078484848804 Eh/a0
 
            step length          0.195438696292564 a0
            max. step            0.007482849889125 a0
 
       unit cell volume      10477.853232625882811 A^3
 
       current lattice:  
       47.699286043102617       -1.120813526848150       -0.020091090653899
      -23.355284886120700       41.106794046429307        0.373477690987494
       -0.490493446629613        0.145454723195144       36.550825969098184

........................................................................
.............................. CYCLE  389 ..............................
........................................................................
     iter. time                 ...        0 min, 14.576 sec
          total energy        -130.855439266088212 Eh
            energy change       -0.21E-04 Eh
 
          gradient norm          0.016437228449703 Eh/a0
            max. gradient        0.008886357789861 Eh/a0
 
            step length          0.058880161490885 a0
            max. step            0.008078484848804 a0
 
       unit cell volume      10478.629395270589157 A^3
 
       current lattice:  
       47.697911491408725       -1.118433511434064       -0.019695216755670
      -23.356773189521817       41.109029371419162        0.370027355233945
       -0.489371584889602        0.146641531163684       36.551563436841612

........................................................................
.............................. CYCLE  390 ..............................
........................................................................
     iter. time                 ...        0 min, 14.981 sec
          total energy        -130.855474369282575 Eh
            energy change       -0.35E-04 Eh
 
          gradient norm          0.008815935485185 Eh/a0
            max. gradient        0.003802590157315 Eh/a0
 
            step length          0.031996676206863 a0
            max. step            0.008886357789861 a0
 
       unit cell volume      10478.616025469033048 A^3
 
       current lattice:  
       47.696627347351253       -1.119966908978645       -0.019776716106194
      -23.355828811534188       41.107549292231965        0.369892265713446
       -0.489821193633609        0.146831000972503       36.554506620338231

........................................................................
.............................. CYCLE  391 ..............................
........................................................................
     iter. time                 ...        0 min, 14.884 sec
          total energy        -130.855507299044433 Eh
            energy change       -0.33E-04 Eh
 
          gradient norm          0.010764758735928 Eh/a0
            max. gradient        0.007402966980143 Eh/a0
 
            step length          0.108795322306908 a0
            max. step            0.003802590157315 a0
 
       unit cell volume      10477.911494313400908 A^3
 
       current lattice:  
       47.690500612653658       -1.118949233859539       -0.019381845658732
      -23.355290208283641       41.106792768804596        0.369780927652367
       -0.489403615575790        0.146223762092706       36.557020193719893

........................................................................
.............................. CYCLE  392 ..............................
........................................................................
     iter. time                 ...        0 min, 15.054 sec
          total energy        -130.855521151957333 Eh
            energy change       -0.14E-04 Eh
 
          gradient norm          0.020918549619571 Eh/a0
            max. gradient        0.011891970238721 Eh/a0
 
            step length          0.175007365899299 a0
            max. step            0.007402966980143 a0
 
       unit cell volume      10478.660583358783697 A^3
 
       current lattice:  
       47.682544416965548       -1.117087643249906       -0.015683838250301
      -23.355448647269242       41.106091480376655        0.369936841880125
       -0.489569230756442        0.148594200462800       36.565619582812005

........................................................................
.............................. CYCLE  393 ..............................
........................................................................
     iter. time                 ...        0 min, 15.269 sec
          total energy        -130.855554599371544 Eh
            energy change       -0.33E-04 Eh
 
          gradient norm          0.015805939216045 Eh/a0
            max. gradient        0.007821458991784 Eh/a0
 
            step length          0.074902416579263 a0
            max. step            0.011891970238721 a0
 
       unit cell volume      10477.673989001243172 A^3
 
       current lattice:  
       47.678322113603770       -1.118220776219229       -0.015747663024683
      -23.354280528813717       41.105663940842703        0.366842628283125
       -0.490820211422912        0.148484595987820       36.566308753138486

........................................................................
.............................. CYCLE  394 ..............................
........................................................................
     iter. time                 ...        0 min, 14.835 sec
          total energy        -130.855605419606576 Eh
            energy change       -0.51E-04 Eh
 
          gradient norm          0.007190840236695 Eh/a0
            max. gradient        0.003273929743449 Eh/a0
 
            step length          0.029516398498175 a0
            max. step            0.007821458991784 a0
 
       unit cell volume      10477.526366863865405 A^3
 
       current lattice:  
       47.676822884972466       -1.117625109159347       -0.016457618262669
      -23.354938885283289       41.105066914005789        0.368111654856666
       -0.489445575653035        0.147942601487855       36.567253499058268

........................................................................
.............................. CYCLE  395 ..............................
........................................................................
     iter. time                 ...        0 min, 14.695 sec
          total energy        -130.855638185271175 Eh
            energy change       -0.33E-04 Eh
 
          gradient norm          0.009375585068649 Eh/a0
            max. gradient        0.005069933887611 Eh/a0
 
            step length          0.043446534828866 a0
            max. step            0.003273929743449 a0
 
       unit cell volume      10477.759671922454800 A^3
 
       current lattice:  
       47.676481729716521       -1.117134012383453       -0.014780657246771
      -23.355654792055013       41.105202294435351        0.367289775633017
       -0.489232623539447        0.148891097963557       36.568000291165930

........................................................................
.............................. CYCLE  396 ..............................
........................................................................
     iter. time                 ...        0 min, 14.772 sec
          total energy        -130.855669405271556 Eh
            energy change       -0.31E-04 Eh
 
          gradient norm          0.009623995597575 Eh/a0
            max. gradient        0.004963507582867 Eh/a0
 
            step length          0.142127649680909 a0
            max. step            0.005069933887611 a0
 
       unit cell volume      10476.936658641468966 A^3
 
       current lattice:  
       47.668317486137212       -1.116583550191524       -0.014710656593203
      -23.355256131221790       41.103128808447394        0.368104739018154
       -0.488389520390300        0.149345338791660       36.573099201177939

........................................................................
.............................. CYCLE  397 ..............................
........................................................................
     iter. time                 ...        0 min, 14.671 sec
          total energy        -130.855705500062783 Eh
            energy change       -0.36E-04 Eh
 
          gradient norm          0.005944722535403 Eh/a0
            max. gradient        0.002126344163329 Eh/a0
 
            step length          0.056913873931828 a0
            max. step            0.004963507582867 a0
 
       unit cell volume      10477.291443191325016 A^3
 
       current lattice:  
       47.669689663887716       -1.116026398859219       -0.013820519221115
      -23.355896341075329       41.104242343346030        0.368162978396737
       -0.487957852081570        0.149449945461999       36.572027412706646

........................................................................
.............................. CYCLE  398 ..............................
........................................................................
     iter. time                 ...        0 min, 14.441 sec
          total energy        -130.855742044403542 Eh
            energy change       -0.37E-04 Eh
 
          gradient norm          0.009651540479191 Eh/a0
            max. gradient        0.005773790861916 Eh/a0
 
            step length          0.081026253643179 a0
            max. step            0.002126344163329 a0
 
       unit cell volume      10476.364634613599264 A^3
 
       current lattice:  
       47.664099857111204       -1.116352851788428       -0.013478978474966
      -23.355713158955457       41.101925478125935        0.367615973650926
       -0.487865531259224        0.150445718300935       36.575372499908873

........................................................................
.............................. CYCLE  399 ..............................
........................................................................
     iter. time                 ...        0 min, 14.696 sec
          total energy        -130.855793305746886 Eh
            energy change       -0.51E-04 Eh
 
          gradient norm          0.008778808576507 Eh/a0
            max. gradient        0.005135978617089 Eh/a0
 
            step length          0.066056647585953 a0
            max. step            0.005773790861916 a0
 
       unit cell volume      10476.351546776357281 A^3
 
       current lattice:  
       47.661086685081798       -1.115292169554168       -0.012279249660832
      -23.355252023754293       41.102849321917191        0.368275748255916
       -0.487202662788432        0.150835524422908       36.576354055676262

........................................................................
.............................. CYCLE  400 ..............................
........................................................................
     iter. time                 ...        0 min, 14.959 sec
          total energy        -130.855818789988149 Eh
            energy change       -0.25E-04 Eh
 
          gradient norm          0.013005100990423 Eh/a0
            max. gradient        0.007940204762691 Eh/a0
 
            step length          0.062620486257858 a0
            max. step            0.005135978617089 a0
 
       unit cell volume      10475.782236740373264 A^3
 
       current lattice:  
       47.657090619152257       -1.114760313234329       -0.011343425307056
      -23.356167967731000       41.099985269449959        0.366834226372360
       -0.486937113920082        0.150712593088760       36.579827937732425

........................................................................
.............................. CYCLE  401 ..............................
........................................................................
     iter. time                 ...        0 min, 14.963 sec
          total energy        -130.855854466289856 Eh
            energy change       -0.36E-04 Eh
 
          gradient norm          0.015684497069136 Eh/a0
            max. gradient        0.009143103016844 Eh/a0
 
            step length          0.125323670453377 a0
            max. step            0.007940204762691 a0
 
       unit cell volume      10474.674391682145142 A^3
 
       current lattice:  
       47.648996495808539       -1.115700692276553       -0.009635215469249
      -23.354153590898125       41.099661516680420        0.367609563611486
       -0.486448298100063        0.154080299865973       36.582939747137566

........................................................................
.............................. CYCLE  402 ..............................
........................................................................
     iter. time                 ...        0 min, 14.472 sec
          total energy        -130.855862388653719 Eh
            energy change       -0.79E-05 Eh
 
          gradient norm          0.021980879646299 Eh/a0
            max. gradient        0.011246426284400 Eh/a0
 
            step length          0.105724852442407 a0
            max. step            0.009143103016844 a0
 
       unit cell volume      10474.392660533112576 A^3
 
       current lattice:  
       47.643997399200970       -1.113544153335469       -0.008725146448611
      -23.354475697780813       41.098493568488202        0.366342285899393
       -0.489024511127459        0.151881487966314       36.585920973427072

........................................................................
.............................. CYCLE  403 ..............................
........................................................................
     iter. time                 ...        0 min, 14.724 sec
          total energy        -130.855913133877891 Eh
            energy change       -0.51E-04 Eh
 
          gradient norm          0.015304996515055 Eh/a0
            max. gradient        0.008881411840694 Eh/a0
 
            step length          0.082605397747078 a0
            max. step            0.011246426284400 a0
 
       unit cell volume      10474.332450308012994 A^3
 
       current lattice:  
       47.644041565281753       -1.113364907357219       -0.007713437728423
      -23.354350123216268       41.097985679198395        0.365125308644076
       -0.485382926444635        0.151862276099914       36.586039728236827

........................................................................
.............................. CYCLE  404 ..............................
........................................................................
     iter. time                 ...        0 min, 14.908 sec
          total energy        -130.855919891070698 Eh
            energy change       -0.68E-05 Eh
 
          gradient norm          0.021474014962338 Eh/a0
            max. gradient        0.010652367824600 Eh/a0
 
            step length          0.060755364861174 a0
            max. step            0.008881411840694 a0
 
       unit cell volume      10473.919553682877449 A^3
 
       current lattice:  
       47.642294491652343       -1.113201451878213       -0.008931457302166
      -23.357189096288526       41.096426523163252        0.367273682150763
       -0.486368770610813        0.155429539688705       36.587401120292988

........................................................................
.............................. CYCLE  405 ..............................
........................................................................
     iter. time                 ...        0 min, 14.728 sec
          total energy        -130.855985102283597 Eh
            energy change       -0.65E-04 Eh
 
          gradient norm          0.010111541438425 Eh/a0
            max. gradient        0.005919658206662 Eh/a0
 
            step length          0.095436499446060 a0
            max. step            0.010652367824600 a0
 
       unit cell volume      10473.894916732750062 A^3
 
       current lattice:  
       47.636099918215450       -1.112398705109612       -0.006433787568292
      -23.354526078105739       41.096947894695212        0.367535181927600
       -0.486763922007936        0.154476553951496       36.591226223664002

........................................................................
.............................. CYCLE  406 ..............................
........................................................................
     iter. time                 ...        0 min, 14.795 sec
          total energy        -130.856003473740202 Eh
            energy change       -0.18E-04 Eh
 
          gradient norm          0.014272809703400 Eh/a0
            max. gradient        0.008874036810300 Eh/a0
 
            step length          0.054054530430049 a0
            max. step            0.005919658206662 a0
 
       unit cell volume      10473.368899843637337 A^3
 
       current lattice:  
       47.638005850184655       -1.112775694172298       -0.006704416254263
      -23.355323739652320       41.095059243776127        0.366227138098670
       -0.484866452644274        0.154569734534917       36.589791409465683

........................................................................
.............................. CYCLE  407 ..............................
........................................................................
     iter. time                 ...        0 min, 15.011 sec
          total energy        -130.856033849193949 Eh
            energy change       -0.30E-04 Eh
 
          gradient norm          0.016806266416719 Eh/a0
            max. gradient        0.009135555396778 Eh/a0
 
            step length          0.068589323249275 a0
            max. step            0.008874036810300 a0
 
       unit cell volume      10473.497742307705266 A^3
 
       current lattice:  
       47.632495884521056       -1.111016893995161       -0.006086956749311
      -23.356759341316049       41.096859437532167        0.365623623800417
       -0.485076942360108        0.154107265016196       36.592147094710178

........................................................................
.............................. CYCLE  408 ..............................
........................................................................
     iter. time                 ...        0 min, 14.954 sec
          total energy        -130.856041631468742 Eh
            energy change       -0.78E-05 Eh
 
          gradient norm          0.019197041588499 Eh/a0
            max. gradient        0.010028891411872 Eh/a0
 
            step length          0.101321736988615 a0
            max. step            0.009135555396778 a0
 
       unit cell volume      10472.196591013462239 A^3
 
       current lattice:  
       47.628306705318408       -1.111048099235603       -0.004577823497639
      -23.352152233063386       41.092573488933510        0.369236739629577
       -0.485534861975968        0.154994673438694       36.594654969736759

........................................................................
.............................. CYCLE  409 ..............................
........................................................................
     iter. time                 ...        0 min, 15.194 sec
          total energy        -130.856081109597739 Eh
            energy change       -0.39E-04 Eh
 
          gradient norm          0.015210077212514 Eh/a0
            max. gradient        0.008383027848857 Eh/a0
 
            step length          0.062153438600916 a0
            max. step            0.010028891411872 a0
 
       unit cell volume      10471.976088741148487 A^3
 
       current lattice:  
       47.628871836444638       -1.112939516796804       -0.004433439661762
      -23.354659427711542       41.092963899259018        0.368865477820249
       -0.484337766363365        0.154413925436909       36.593974080727946

........................................................................
.............................. CYCLE  410 ..............................
........................................................................
     iter. time                 ...        0 min, 15.256 sec
          total energy        -130.856117026026368 Eh
            energy change       -0.36E-04 Eh
 
          gradient norm          0.014109984606457 Eh/a0
            max. gradient        0.007577457876473 Eh/a0
 
            step length          0.105747400046176 a0
            max. step            0.008383027848857 a0
 
       unit cell volume      10472.152385415203753 A^3
 
       current lattice:  
       47.629562070006941       -1.109759939518832       -0.005234254107918
      -23.354681792928034       41.093008117367823        0.368722025619518
       -0.482206097951065        0.156306094635097       36.592630082749103

........................................................................
.............................. CYCLE  411 ..............................
........................................................................
     iter. time                 ...        0 min, 14.759 sec
          total energy        -130.856141665223703 Eh
            energy change       -0.25E-04 Eh
 
          gradient norm          0.011669742796055 Eh/a0
            max. gradient        0.007304908670927 Eh/a0
 
            step length          0.059281003611612 a0
            max. step            0.007577457876473 a0
 
       unit cell volume      10471.403553715121234 A^3
 
       current lattice:  
       47.628568847031936       -1.109973994920692       -0.004473507767244
      -23.356077702531131       41.092590566657002        0.369447059211973
       -0.483457721811535        0.154835007421530       36.591270400741735

........................................................................
.............................. CYCLE  412 ..............................
........................................................................
     iter. time                 ...        0 min, 14.643 sec
          total energy        -130.856141995214301 Eh
            energy change       -0.33E-06 Eh
 
          gradient norm          0.021638999584858 Eh/a0
            max. gradient        0.013213158636154 Eh/a0
 
            step length          0.030093465522255 a0
            max. step            0.007304908670927 a0
 
       unit cell volume      10472.300165387838206 A^3
 
       current lattice:  
       47.629187295399738       -1.111187446732848       -0.006361429526208
      -23.354292467680747       41.093773665071232        0.369251000722083
       -0.482895958537479        0.155464752671541       36.593374406029469
 
Geometry optimization converged after   412 steps.
================
 final structure:
================
 xtb: 6.7.1 (edcfbbe)
    1.00000000000000
   47.62918729539974   -1.11118744673285   -0.00636142952621
  -23.35429246768075   41.09377366507123    0.36925100072208
   -0.48289595853748    0.15546475267154   36.59337440602947
 C    Cl   H    N    O    Zn  
 240 18 144 126 60 24
Direct
    0.31461560362211    0.30016032968329    0.48482620977989
    1.00228009171441    0.31719692868124    0.45154366863632
    0.97496357653298    0.21150857245023    0.44188558154462
    0.96601691804330    0.25976625671424    0.42121235962767
    0.85777717859234    0.43591808284059    0.41423525095241
    1.02597851881063    0.39271904771354    0.28696341086931
    0.87123151630887    0.28807545126223    0.51084013690899
    0.88571120848402    0.26720239837609    0.62759531352649
    0.90282253962974    0.30908825035928    0.57326731860699
    0.34132428960811    0.06012613460825    0.44667924128385
    0.26284139863377    0.08535345238645    0.43332737152305
    0.31996310611007    0.09500268717867    0.41384836647422
    0.60728838315601    0.20053652240952    0.40887446697746
    0.74736364673390    0.62841150964697    0.57060704500987
    0.44473357852964    0.19124971271474    0.51076484733101
    0.43330686768729    0.15840458689982    0.57300452678843
    0.31228796534593    0.34128779270750    0.95595002569981
    0.20672760625735    0.26036942715735    0.95209976443728
    0.25367821635122    0.31815805376240    0.92862715884540
    0.42806405782522    0.60245055566931    0.90613861801636
    0.36579044166913    0.38723258376141    0.78102034527477
    0.28344513596948    0.44892738875527    0.00540021356186
    0.27135995311877    0.42069080342077    0.12434553869757
    0.30796958425554    0.43966614666599    0.06552685633885
    0.04693713445388    0.74149504177539    0.95227673960683
    0.07183610229417    0.84684120456066    0.94809527202305
    0.08220111415544    0.80087673969474    0.92464644483557
    0.40720548747436    0.17314761359484    0.62593921622717
    0.19070764318109    0.62903220612650    0.90506568419600
    0.78733882970771    0.64773076922455    0.62603160996627
    0.66358450084527    0.67448574686705    0.27866057012179
    0.27631138929610    0.24940360637339    0.03032699900087
    0.57240418631367    0.41087304712038    0.09272816560611
    0.37827095583212    0.36047223307400    0.21336193687100
    0.43373262658859    0.24437910364348    0.99110865054105
    0.40086773015317    0.22453555182296    0.87398664518568
    0.41017049359871    0.25842685484696    0.93250341516997
    0.74234061363839    0.04454277809566    0.00164433491081
    0.82059022853658    0.01976748453763   -0.01368458304019
    0.79926559197952    0.05236023826151    0.02100641974311
    0.65713831361845    0.20051964833477    0.07340619148374
    0.69086839660593    0.04693934143883    0.21817416158808
    0.81611968795961    0.22096963756337    0.99176982471818
    0.76765989198333    0.61821749132430    0.50813292036526
    0.83511498944889    0.21097096736266    0.87435484077292
    1.00235112618492    0.72832548186682    0.00440060825959
    1.02654978278076    0.83338478748459   -0.00200802193178
    0.99188000152340    0.77478727289586    0.02651290042039
    0.85354119596259    0.47770907895689    0.08273174130432
    0.99713442397695    0.67319663019565    0.21024641981151
    0.83364427366409    0.62684404225086    0.98640116507827
    0.85551881032321    0.67175434980738    0.87377872786521
    0.87205973500462    0.64830524638427    0.92908350610408
    0.74071521537047    0.72780400661688    0.45384881640936
    0.84631914800864    0.80847221017488    0.44825217549929
    0.79865694053655    0.75118037841104    0.42546223405602
    0.61580083420896    0.46543054328636    0.42403491122676
    0.80027765520433    0.18487622894909    0.93254351086950
    0.02596804766671    0.67291109284022    0.77654815651052
    0.18150012359672    0.77280641576690    1.00171679492977
    0.16294431183612    0.78404223258456    0.11883772437428
    0.95402054747078    0.50967851844564    0.07903424297424
    0.58153681881888    0.10074301997732    0.07654085210519
    0.44616010164414    0.33520867938437    0.25082257847977
    0.72333773803923    0.14425923086407    0.24795115451233
    0.90122925489776    0.60635422712848    0.24409828174595
    0.60428268766886    0.73412314052464    0.74305050303281
    0.32370331315292    0.91441348770016    0.74313083334813
    0.14511885433527    0.45199759932566    0.74457929702043
    0.36490962521642    0.47091743296586    0.74201232701888
    0.11497788229511    0.68513781783183    0.74055957698790
    0.57472131455636    0.92577236772892    0.74307377020382
    0.67873675473300    0.59805659258563    0.24832762437715
    0.54361014226053    0.48134070378676    0.08256647627931
    0.93495318294606    0.37662478935322    0.25051301024092
    0.47301779808444    0.23476066543979    0.40543181268251
    0.83097765628544    0.27413726654925    0.40448048147165
    0.78033403328529    0.59329215176276    0.40184656151135
    0.57744452999911    0.82982131133467    0.89980849314865
    0.22427858193585    0.79480079959005    0.89721080453003
    0.26409494547760    0.47221442539396    0.89983699574391
    0.26325268520039    0.46933521354061    0.58411696402240
    0.22028546182738    0.79034125987712    0.58572282792966
    0.58035340558684    0.82604096233976    0.58689880612724
    0.78829576349223    0.59052941177677    0.08850034858835
    0.82411303836467    0.26174273837537    0.09560163279189
    0.47118984379570    0.23788781762544    0.09397321619418
    0.47802430873281    0.13876820173292    0.24645038449508
    0.46746159511671    0.95994739225517    0.57802409918425
    0.09325471688253    0.54528209615001    0.57517794682509
    0.50852597115074    0.58196509579158    0.57352319129901
    0.14755021779475    0.74652135101302    0.06118187416134
    0.70738070230040    1.00344058206672    0.94727131731867
    0.78576039984416    0.97874482404659    0.93310370721072
    0.72867099792669    0.96996996329504    0.91352132436660
    0.44577750980861    0.86514378936677    0.91542774747208
    0.65839576888846    1.01322570259938    0.77755195791989
    0.59926748735638    0.86933411871065    0.00593207435630
    0.62647781649487    0.88172442420716    0.12479644696795
    0.60682987562766    0.90051782922443    0.06683165030007
    0.40287784176223    0.38946316809772    0.50480857052880
    0.66339491503436    1.04867744918980    0.50570822369475
    0.99737836223869    0.64558582358040    0.50336523922663
    0.64084602916070    0.67427926609999    0.00839763696620
    0.38819424670189    1.01168769021564    0.00800282315592
    0.05175919350757    0.41737873083129    0.01165427460529
    0.64136624796973    0.67275343408454    0.48512089023126
    0.39107233337305    1.01188809609981    0.48154065800588
    0.04935122185945    0.41612173190416    0.48602777995709
    0.41235415232353    0.39588565982103    0.98463443392963
    0.65739044018231    0.04980603035645    0.98358885776423
    1.00175144494073    0.64073504161566    0.98175106269212
    0.53525202736635    0.47918637091994    0.41642393743700
    0.58611364635693    0.10228762316757    0.41230459639929
    0.95329822515037    0.51881251215879    0.41212138244297
    0.50922251357354    0.58964059731458    0.91067446584784
    0.46517629082552    0.96277884281932    0.91316929456566
    0.09552292900548    0.54579866024245    0.91159458357354
    0.21832814191326    0.22643612937508    0.00240786535018
    0.32386082525759    0.30738763043226    0.00765550985617
    0.39495118773100    0.05149263322616    0.28290748282536
    0.20068238247366    0.41087819399718    0.36285061470555
    0.30200262623593    1.01499308621294    0.99245995196044
    0.22446137592164    1.04076375758843    1.00773065648063
    0.24423695115975    1.00595323473590    0.97492922913782
    0.39021659190492    0.86274241265146    0.91591404538938
    0.35164310858719    1.01023277029147    0.77438799837239
    0.23131269239532    0.83584058763192    0.00059466411445
    0.21129310529405    0.84648322072554    0.11740985740389
    0.24580024726095    0.87266053594883    0.05904478197188
    0.04936666720185    0.32842681732400    0.99172579287450
    0.02028096069068    0.22192040734172    0.99858826066312
    0.05711592866388    0.28032866468224    0.96998422652251
    0.19563985619486    0.57692716576009    0.90600674842052
    0.63172981569876    0.80216989078332    0.06210226627001
    0.05034813261271    0.38323417710207    0.77982904212804
    0.21179160911814    0.41201417545733    0.12370600795151
    0.18707733893545    0.42093987659270    0.06426547164527
    0.30307639745845    0.33440171576460    0.53407398417225
    0.19857753499227    0.25140118738092    0.54175102516543
    0.24489577914157    0.31034459969562    0.56209349920382
    0.42842619468956    0.59646202898099    0.56663443358456
    0.36417221500560    0.38569642232351    0.71023242894081
    0.27745454042921    0.44627213732245    0.47745018517064
    0.26078188243001    0.42104999595460    0.35824341679713
    0.29936625167227    0.43847618653633    0.41481354752459
    0.04554259822363    0.74483321651459    0.53620091616855
    0.07493220915371    0.85108375601450    0.54434879479681
    0.22282878932322    0.43971387675127    0.00450125224601
    0.63848900957433    0.83291119616286    0.12240859052913
    0.61163226129400    0.81992436648241    0.00340394993089
    0.68940485219200    0.73853537981315    0.78222795710620
    0.21030647973537    0.21722140388617    0.49392630191748
    0.26780486013132    0.24108567779022    0.46531080590905
    0.56294299491665    0.40770767877058    0.42411273481833
    0.37703024738602    0.35931682580211    0.28423581853764
    0.43036356090629    0.23893509351319    0.50336699425298
    0.39130466631642    0.21885811065423    0.61753518789839
    0.40315945595274    0.25205748676760    0.55658779573749
    0.74998994471717    0.04615939423589    0.49236088020616
    0.82861998482867    0.02187262669933    0.51113830939449
    0.80841636432331    0.05671478690808    0.47692114660483
    0.66235081358566    0.20187263809051    0.40916350532019
    0.69445935367910    0.04956258430563    0.28893497881433
    0.82195281448607    0.22547322721622    0.50462269086315
    0.83837599447351    0.20500161801386    0.62049058457878
    0.17834638376404    0.41827421578165    0.42475074728335
    1.00111725201155    0.73594291515888    0.48497035729932
    1.03019579674289    0.84199925930200    0.49503737629781
    0.99313691635341    0.78491584139031    0.46501777795815
    0.85309961408162    0.48817708782207    0.41139393390354
    0.99578751659829    0.67572329823659    0.28091551991799
    0.82796742699679    0.62709325590753    0.50312728335094
    0.84697909574286    0.65678999396026    0.62082293408094
    0.86758016419125    0.64672307904387    0.55923901618339
    0.72883589894694    0.76389046391378    0.98716658193213
    0.83493178843287    0.84363102509147    0.99010894187417
    0.77666094693779    0.82115583691032    0.96325627844253
    0.48057315683318    0.66037280171473    0.90520788998675
    0.08273723298265    0.80263202052182    0.56555427325178
    0.18926538252517    0.62746915923274    0.57508554576330
    0.80601865058658    0.18415827160732    0.55949483084407
    0.17913911541372    0.77601483466914    0.47982892092471
    0.44674855719858    0.19533899623321   -0.01028530451741
    0.41476607495187    0.17696049277927    0.87261999989768
    0.43768490186675    0.16173901527934    0.93042188826666
    0.73064084759680    0.76100300281128    0.50582662085846
    0.83612074067950    0.84163845835790    0.49890872134595
    0.77881343146884    0.81844152474908    0.52781867630328
    0.48148477430778    0.65395083091279    0.56861079413057
    0.68887983594025    0.73431213246297    0.71171762005569
    0.61533511740002    0.81661971579042    0.48537368936783
    0.64086544235897    0.82858593163455    0.36623021022027
    0.63472499615983    0.79839377180709    0.42886725892755
    0.30611704618912    1.01635402516303    0.49961515736328
    0.60182149060309    0.19866860073848    0.07228064620737
    0.22813512135202    1.04219911400402    0.48561864607797
    0.39166336040002    0.86019941094277    0.58158704968899
    0.35053106652219    1.00895584202360    0.70352836566221
    0.22967782245511    0.83813706269803    0.48477659579046
    0.21286293589016    0.85739218566271    0.36854127406553
    0.24603594577488    0.87870349588953    0.42905849620973
    0.04675732235587    0.32617459912592    0.50305606500026
    0.01964625955579    0.22073101212508    0.49178336574142
    0.05554682948132    0.27745663497602    0.52258887856113
    0.19314833406350    0.57474802933580    0.57770470586453
    0.05032925597090    0.38239506870249    0.70894827870282
    0.21683175042581    0.43664960574698    0.48185686182078
    0.02482939484264    0.67240291003844    0.70571239339244
    0.24933842616750    1.00791885801025    0.51912335738360
    0.31887300538053    0.09401993907228    0.07623838175563
    0.39518450712237    0.05044669138574    0.21217711975621
    0.33891279048723    0.05881364649081    0.04393374544015
    0.16435114126739    0.79558010111796    0.36278164891137
    0.14678149933896    0.75452593900164    0.41792317778265
    0.71257769790972    1.00049833494932    0.54277494245936
    0.79157966481204    0.97662801336103    0.56070459294960
    0.73314933281454    0.96540538055192    0.57668790895296
    0.44691183781275    0.86193942690024    0.58061302722260
    0.65999626083554    1.01109131620657    0.70697842494209
    0.60351314661087    0.86636185026125    0.47979753005111
    0.62897193560558    0.87754842495256    0.36054514638651
    0.61079126070014    0.89710556866441    0.41656123852312
    0.74041521540412    0.73024065518385    0.03918124854152
    0.26126887451035    0.08457990193433    0.05789809684492
    0.79925400295880    0.75294029403121    0.06564517841750
    0.62484818075656    0.46883768276906    0.09146409590826
    0.84655078450879    0.80986814675295    0.04063049070807
    0.66646187381666    0.67478456745249    0.20794730110889
    0.90192043296275    0.30935060020852    0.93230645835809
    0.88507069981157    0.27264866927819    0.87383650372073
    1.02474261332983    0.38955603502305    0.21628584244386
    0.85894422269619    0.42588446631994    0.08287241791307
    0.96841705443249    0.25813464155947    0.07149294677097
    0.86766759958357    0.28308417946143   -0.00843839214773
    1.00546761351890    0.31721732482043    0.04363122290967
    0.76230435562986    0.65253894091875    0.93119481251023
    0.80205534401970    0.67531348842786    0.87551260603031
    0.77777694664288    0.62765329862100   -0.01300120047064
    0.97585299212294    0.21057958687822    0.04836612267089
    0.63755859043241    0.91969688896326    0.20044690047802
    0.93124954499879    0.13989750593516    0.40524994175356
    0.81457381600676    0.94017326050944    0.89004414268587
    0.11495022400624    0.92096818787047    0.91551625924302
    0.29829438864106    0.40432943471145    0.19795183650624
    0.13407615604696    0.22973531398941    0.91783447250300
    0.23347095123191    0.12508246622563    0.39100095365153
    0.91815211222780    0.83946523310500    0.41265000315335
    0.12106787821902    0.75380116977637    0.19246618593243
    0.66060056103725    0.80289130484979    0.29510647398497
    0.40267798881918    0.13607523123715    0.79887259447447
    0.23419352027761    0.12579941499767    0.09879699216786
    0.92684846228961    0.30319546849712    0.80022090005127
    0.92004134563941    0.83871575631066    0.07170714351546
    0.81947862368599    0.93595379082640    0.60398854911593
    0.12645737400310    0.21967149189022    0.57676637082402
    0.89531016599547    0.67860861215773    0.69117080905408
    0.15409490061585    0.39105293408702    0.29115610824584
    0.80672238066947    0.72558663405525    0.38725620615303
    0.66292463582584    0.47608495573954    0.42022465711919
    0.65739582985661    0.70607152764307    0.30990002771986
    0.77361428234709    0.65634862929477    0.67504059144665
    0.70083249821795    0.61933424729731    0.57483252730681
    0.93156053431947    0.25242896850536    0.38320919713876
    0.82097388427298    0.38804994621748    0.40905993569142
    0.34632343464918    0.12797558540876    0.37371601699531
    0.90722113717172    0.28197744277878    0.67760086211343
    0.93837645086876    0.35737739185209    0.57846020837825
    0.91480576109507    0.64868056241143    0.92997793688646
    0.60019731684545    0.23930917514547    0.40142997767908
    0.35969322566681    1.01771889413869    0.31685861439385
    0.40021246392790    0.15111206193474    0.67601336486200
    0.06305401676659    0.39916508853746    0.32074255413447
    0.88394769521217    0.68860134370620    0.82828072904074
    1.01864056665730    0.86994108800266    0.01287438995537
    0.81224487080922    0.47959721125923    0.09081759165011
    0.13194523615831    0.40906823418803    0.42823279830422
    0.18081677314577    0.18145712559000    0.01850337336681
    0.28607524237950    0.22324805675957    0.06759831016938
    0.56919806323220    0.36680413644676    0.10346036687913
    0.35423550776201    0.37553099135616    0.17887369603895
    0.38253012655554    0.23341493360860    0.82751499374422
    0.39927276969950    0.29458007058650    0.93454983429219
    0.86552001414708    0.02670616127436   -0.00148584219547
    0.82598550344290    0.08437873472659    0.06125638001086
    0.70282178947786    0.24088181656484    0.07940687571934
    0.67235899102619    1.00565472125040    0.18660298421450
    0.82528591021625    0.18464203934687    0.82767265403374
    0.76201223802897    0.13773583080006    0.93380248899177
    0.44606000812809    0.12352930791710    0.57902542869365
    0.95629417909514    0.76402279155700    0.06359614784874
    0.03737694576986    0.69675202693628    0.17702894641214
    0.24461295631854    0.34430893756101    0.89064842604616
    0.11719993350034    0.81144031627598    0.88688125947002
    0.36670545609453    0.35391401563312    0.81631158224784
    0.99148045657801    0.59331153113811    0.98445310376023
    0.49459710770580    0.24711736618369    0.35535012412012
    0.82078376205422    0.28448125125739    0.35353000082613
    0.76912236472671    0.57257424185627    0.35147210635633
    0.55809616182328    0.81888874126951    0.84847691975898
    0.23647216680261    0.78763424529696    0.84658361010317
    0.62234429432532    0.06183898454932    0.98874593425149
    0.27216936061490    0.49210697056447    0.84852232620450
    0.23076957003304    0.78007698069033    0.63656977389624
    0.55964813202376    0.81440035412378    0.63745714031732
    0.77838566979028    0.56929369094175    0.13916382310144
    0.81163267603223    0.26935508115385    0.14585543641330
    0.49166218514959    0.24967003890502    0.14468353639470
    1.01159466264885    0.35651998792552    0.67479218623409
    0.27404006995707    0.48967284782322    0.63471704158493
    0.45976995580205    0.43343819159658    0.98737501776096
    0.06018268038445    0.46345557090600    0.49171045575753
    0.42630620456620    0.99989519493896    0.48651028514916
    0.35437070518093    0.44809763306560    0.06724247557648
    0.22691180685263    0.67661192676840    0.89522069661774
    0.99021049988981    0.66773558230885    0.81083208432864
    0.11090312709169    0.69839064986810    0.06326527808038
    0.70219823528571    0.93859996231724    0.87276984504345
    0.45354314031088    0.82688983726103    0.90940982578000
    0.69196241891598    0.04902336030960    0.81093382362684
    0.59679349588610    0.93738289046012    0.06982284231437
    0.45050595957699    0.42659861715357    0.50213651489948
    0.62833739628813    0.06077093928872    0.49934778844354
    0.98593793484084    0.59797516649377    0.49889962109064
    0.59374804941019    0.63622431581711    0.00464441220709
    0.42346347377017    1.00006950377812    0.00211472530213
    0.06195205724162    0.46469600237256    0.00706171857739
    0.59379745442583    0.63551951765005    0.48859250260243
    0.38101757335592    0.59121141981095    0.89797525571886
    0.23400910152158    0.57175354106265    0.58597024682387
    0.60019243627679    0.93365704114831    0.41235366539979
    0.02588920953624    0.18238772589658    0.50523802747228
    0.65219500214896    0.81963784051436    0.16954312783153
    0.64200032844230    0.76565721176466    0.05880783638829
    0.17970902466267    1.03428861343798    0.99590121793280
    0.21566183880946    0.97100864666515    0.93803474966076
    0.34461530789405    0.82214205752485    0.91049357272186
    0.36810845729592    0.05075789352227    0.80694929751008
    0.72472273977068    0.74277665524606    0.81734013582157
    0.22011126643746    0.87333330028332    0.16350654496804
    0.02531829539805    0.18364335092012    0.98307215166749
    0.09206572084244    0.28950057127277    0.93270167143282
    0.23660133339606    0.57455379077113    0.89743924950845
    1.01076988351517    0.35872782249744    0.81387911319270
    0.18631762167011    0.39905342673304    0.17141087538932
    0.14104659457968    0.41306868609889    0.06250783179063
    0.28272656559311    0.92042026889151    0.05695846711559
    0.48375351915918    0.70465197486612    0.89639908316700
    0.76718645714792    0.84636453922750    0.92438967104364
    0.87286606989960    0.88760561365599    0.97216325635943
    0.09075641203688    0.28524021984715    0.55974606477208
    0.17337593141478    0.17131143476930    0.48042091174622
    0.27795683245318    0.21494663261130    0.42992528332445
    0.55919468946126    0.36283826232235    0.42103412128125
    0.35142205381454    0.37206679479919    0.31737072127045
    0.87390539485651    0.02949620098536    0.50106186316350
    0.83707359760929    0.09277341604235    0.44045361209822
    0.70818571945582    0.24192310424802    0.40234586664625
    0.68051530008892    1.01159130621150    0.32530838301095
    0.76944656856736    0.13657384049817    0.55468263445778
    1.02495276357461    0.88091381440176    0.48111047069021
    0.95766655355866    0.77724582215578    0.42828779680958
    0.81177647165160    0.49052725490689    0.40421746132304
    0.03411816769753    0.70157653595609    0.31561662574695
    0.91365924731430    0.65515222155556    0.55521904857788
    0.23579332501986    0.33631567413216    0.59877806350443
    0.38134575345312    0.58599591752122    0.57041110943042
    0.39092725008860    0.28706266339864    0.55056526043975
    0.27646001145085    0.41606739302357    0.30860439835696
    0.34695565754108    0.12765410328497    0.11449135871540
    0.59436550615494    0.23722198818909    0.07727698611558
    0.36162010667539    1.01462750048829    0.17881298248252
    0.44875073130052    0.12553251681703    0.92854739644762
    0.87423508951256    0.88605506639351    0.51477080032435
    0.77001011611358    0.84377979093032    0.56567801387462
    0.93950742120119    0.35706964936054    0.93085099528615
    0.48524264272918    0.69864104859287    0.57405741572737
    0.64521050543844    0.76199309629303    0.43306688447386
    0.18337721670046    1.03503986151142    0.49806542362574
    0.34605596840374    0.81999771643724    0.58923118203049
    0.36384274534786    0.04716178171496    0.66770228547990
    0.28367812236244    0.92593479363934    0.43277620076894
    0.36084789646172    0.34948931349117    0.67794024409426
    0.72229567039000    0.73148823558305    0.68025886247160
    0.06079784327140    0.39436695192732    0.18276659642300
    0.22275130356362    0.97437834557717    0.55878886768904
    0.93375991121176    0.24903531298473    0.10915258371248
    0.82287095266897    0.37806658483747    0.09158176867196
    0.11753234745969    0.81012098048159    0.60316984477978
    0.22637509888889    0.67504461538678    0.58147243924740
    0.14225275270508    0.78032657237197    0.31311655406656
    0.11030287945584    0.70649607577980    0.41365308914824
    0.70533625406527    0.93127951607328    0.61525392372872
    0.45439379996837    0.82338936592426    0.58757225803870
    0.98819504482912    0.66802869393410    0.67254983185323
    0.63262542434804    0.89820282650341    0.31026322507382
    0.72192829159028    0.65659180949749    0.93263343240848
    0.69650206246926    0.04353512277960    0.67330528451141
    0.67179730001422    0.48023907864603    0.10089249146882
    0.66158238088081    0.70529813185413    0.17191216485878
    0.80841474648106    0.72659294466554    0.10327772962595
    0.34620037289953    0.44830866082627    0.41141276628125
    0.39451295274010    0.05622046850612    0.43833951109252
    0.12861399509791    0.60922757647053    0.90857606440058
    0.04484052891533    0.68520409897571    0.94042598219652
    0.17828141759283    0.74966127778263    0.93525804087936
    0.30680999534907    0.46820701778522    0.93821215880490
    0.36630134186943    0.44037616667631    0.80020053204177
    0.44632156970107    0.55908891469869    0.90939843330134
    0.65444337160377    1.00800868850233    0.93866171721425
    0.36905092858659    0.39635153410411    0.94381679811780
    0.47025186907797    0.18957047592347    0.44738340828271
    0.44662419275184    0.10614234729102    0.30375610123095
    0.56054740881859    0.13876608230136    0.41105432354447
    0.08204579588474    0.68073033539742    0.79757733928000
    0.59811769429859    0.50921250211361    0.41918338956859
    0.97012976236844    0.38491655576273    0.30770756699044
    0.91990844254276    0.45545210698520    0.41458701384942
    1.00566192481583    0.37479353654498    0.44328470718089
    0.74018249033805    0.59832860136884    0.44319180369215
    0.67114190493636    0.62656223418583    0.30325377645656
    0.68346140344183    0.67298223712573    0.44306301603904
    0.83870639550276    0.60414949959699    0.05120391168960
    0.93830465296965    0.63053458235383    0.18777050601988
    0.97591680622969    0.66526468607961    0.02146564997209
    0.79035904936074    0.20974602941265    0.05759467703686
    0.49173275139231    0.92720683425703    0.91379652794215
    0.70945004868527    0.10592915085824    0.19309315418388
    0.64410359388305    0.13975020678117    0.07626422463380
    0.87582454349061    0.31637834961547    0.44620977266244
    0.60522837499049    0.96008798306986    0.79939350975150
    0.54786724153122    0.73561444808594    0.74019580552313
    0.49925094317362    0.50930022593489    0.41119911921055
    0.11500079883065    0.91257258951214    0.57323543919332
    0.70924025046117    0.07206242697213    0.02278190467300
    0.93528545979932    0.14767468967640    0.07501273847883
    0.36128325238137    0.23299985856654    0.67208102286871
    0.82176711238122    0.15992666079319    0.67687261951813
    0.22979305942895    0.90125644121165    0.31084921044470
    0.79341017376681    0.71212052174653    0.82207413296963
    0.53139117486946    0.20105110842877    0.24543313112268
    0.87210454807386    0.36348595890089    0.24936909994619
    0.69057437782902    0.54741295731245    0.25097605896808
    0.52081612209318    0.86385323115813    0.74419401342122
    0.17753709774983    0.69745572640239    0.74069944769821
    0.35844320425924    0.52494119078276    0.73975347389678
    0.20723968389801    0.50506306635004    0.74364523308048
    0.31416367318453    0.85241266611608    0.74506527042391
    0.83869177099069    0.55384256091896    0.24423333568940
    0.73481898810391    0.20700131458274    0.24515682561114
    0.49918957176955    0.32769521321469    0.25307678294186
    0.54816247891576    0.03330009095207    0.08063876056768
    1.02080696895679    0.54870126195330    0.08120087067835
    0.50635061868077    0.51018707406711    0.08107673538442
    0.50130187815852    1.02747708995032    0.57931063003781
    0.02638173123723    0.50807050955146    0.57779947481621
    0.54434791766406    0.55164985301537    0.57694891607514
    0.02870285653323    0.50715730596361    0.91174499309959
    0.49819687515232    1.03026993495797    0.91062966756982
    0.54598243297075    0.56031642515080    0.91140352300325
    1.02011891385803    0.55643214993161    0.40851023917045
    0.55195942480102    0.03474085557224    0.41085055748795
    0.57891056203575    0.87423266946546    0.93936839871458
    0.44975373218361    0.26963941943886    0.05718209613387
    0.91256400411212    0.52920296781433    0.08010988367571
    0.52239000641527    0.41904147330202    0.08690984016494
    0.30404925260004    0.46536881017622    0.54286298197595
    0.36409766163703    0.43798630315726    0.68648336785177
    0.44569474635872    0.55232981876861    0.56989278735750
    0.35977145669460    0.38997147659313    0.54440928584789
    0.21268908077275    0.45455566821805    0.93771039211328
    0.10938346011323    0.42604018054146    0.80161820338212
    0.13654566644325    0.52571602561866    0.91014142997810
    0.07664678964453    0.39150092543643    0.97286575793111
    0.25664819996852    0.84748459517762    0.93454491270879
    0.33434733214630    0.95134430330342    0.79863965017631
    0.40266337831886    0.92331531530107    0.91424842452051
    0.33485256620609    0.98724229444244    0.97114685299731
    0.63683843888045    0.73821364903207    0.80133279676465
    0.04164493944832    0.68723762444035    0.54547669198877
    0.53056955373970    0.65199656228412    0.90815752745837
    0.83364299078524    0.61090875767920    0.43573903969965
    0.93586295884379    0.63449738879501    0.30124919585474
    0.91244074713190    0.53921379684440    0.41059343345923
    0.97246333993584    0.67330216156305    0.46571393587754
    0.79799870795145    0.21884614496566    0.43759461056843
    0.71530097842336    0.11035707029403    0.30675491138082
    0.64880761563969    0.14092217105664    0.41156047988307
    0.71734277083261    0.07467908469549    0.47055069789646
    0.44888401029096    0.26494722616471    0.43717496278621
    0.41893111442284    0.34296578072161    0.30685500371320
    0.51338554889281    0.41668786238421    0.41934642169639
    0.37706494481634    0.33644076408916    0.46769654301809
    0.42070534169098    0.34476847512886    0.19293603686669
    0.66647170036808    0.72708168132477    0.96926540975983
    0.12729218697109    0.60866046182935    0.57373848786351
    0.59774138775218    0.79703650870000    0.93639910323618
    0.17431331261180    0.74834350100078    0.54487410935204
    0.38656164008758    0.34344873001771    0.02439055468647
    0.08020390282154    0.67971000133359    0.68384861009633
    0.21021624532337    0.45167351948496    0.54957902252021
    0.10958561530799    0.42491400409698    0.68770178180377
    0.13352458226817    0.52416002520715    0.57736600136567
    0.07452546541116    0.38820412428807    0.52320758452537
    0.25421271824849    0.84494661940890    0.55160569102771
    0.33265388407037    0.94909510298521    0.68476187241919
    0.40482597995624    0.92102068195654    0.57969538527435
    0.60038757615050    0.79317370700009    0.55324218540506
    0.63591096634767    0.73193508378404    0.68783455975381
    0.53076749562175    0.64451349112165    0.57298825061950
    0.66842633548304    0.72478123083108    0.52402431873450
    0.46885496014182    0.19244641024616    0.05563691970079
    0.44697220388218    0.10477741550575    0.19013651804991
    0.33884514521298    0.98748073567896    0.51962210733239
    0.49340479534196    0.92380007425479    0.57829913603289
    0.65871079878627    1.00356090219716    0.54847561420748
    0.55546844933184    0.13675506473434    0.07415278232114
    0.60775245456204    0.95700576308737    0.68598650506495
    0.58281509398734    0.87111181568553    0.54472987916053
    0.68402904880455    0.67439569281822    0.04997899711835
    0.67604536952107    0.62730644924872    0.18974046565349
    0.60656800029684    0.51209274215051    0.08513473548068
    1.00848856530912    0.37398829853035    0.05392795685154
    0.92123026225305    0.44623238199223    0.08063228310673
    0.96808487529345    0.37959881671029    0.19428078382742
    0.87137828267177    0.30604131056590    0.05818465874943
    0.39253805249180    0.05530500589162    0.05112951249151
    0.75101606128377    0.60458817666855    0.05218758535930
    0.49584817572801    1.00659315233475    0.42346098960136
    0.35295624255737    0.54561645430764    0.79488140173262
    0.52003250223152    0.50379525923494    0.92448390724348
    0.55100403485387    0.22795905989735    0.30100969766198
    0.84869226840896    0.36557723162302    0.30402612774479
    0.57707922177757    1.00696612573485    0.09580404657258
    0.68536021425725    0.52051007201179    0.30675038860997
    0.52580761340242    0.56608815648519    0.42127205096117
    0.81604997332706    0.52730273602618    0.18912654539253
    0.04418745419587    0.60460258251843    0.09464191498948
    0.73072147441981    0.22851821813187    0.18887586178138
    0.99812673585356    0.53198058596436    0.92353597277026
    0.05042333374378    0.53098774159419    0.42083086538496
    0.20520333322265    0.70766389416907    0.79643158494442
    0.15304017584790    0.91855712597077    0.61819747567843
    0.49591732563795    0.84125231213292    0.80029409677015
    0.77392989576662    0.68923631691129    0.76457673727321
    0.80619904371593    0.76541395869130    0.83694144850080
    0.27542188868556    0.95418784052101    0.31763315727033
    0.19829370707790    0.88434575760662    0.25744543829273
    0.84914235305381    0.17741008315145    0.73276374924693
    0.78043376340262    0.10535497036756    0.66647645250432
    0.35508623022802    0.20860164697434    0.72975480311539
    0.34313952681440    0.26949627717904    0.65840088006604
    0.93966156487321    0.10444624784187    0.05135263483194
    0.89697350815142    0.13956166725450    0.11962515554449
    0.11048669564727    0.95679933345676    0.55103855474040
    0.51901319232490    0.32063342420286    0.19826529859462
    0.55453869963851    0.05917111217955    0.92239799705471
    0.45028596410383    0.47730824058300    0.09293525585137
    1.00463740385506    0.45079012197468    0.90050990424761
    1.00159987069895    0.45190052495431    0.59237664313373
    0.44339989733450    0.47723155832031    0.39743131366361
    0.23338697333542    0.52386935237231    0.68741621378124
    0.57995297092816    1.00758431347478    0.39733950296769
    0.74824681490961    0.23664316605901    0.29922306518463
    0.04442441763317    0.61248016256789    0.39345878531355
    0.81047820825080    0.53766045933345    0.29951253808148
    0.60201278754396    0.59292000067338    0.89932378107106
    0.52834853488907    0.74448298912844    0.79424504776452
    0.46890300941539    0.05658809041178    0.89739195920692
    0.31560332387677    0.82960973145713    0.80153521554879
    0.23168130156101    0.52941224250493    0.79905346655743
    0.51743077923282    0.49490121985918    0.56660384401667
    0.35751542888652    0.54742011268971    0.68278660637902
    0.52259768966938    0.32852353297741    0.30972065457132
    0.20124041588423    0.69820600181865    0.68508808126890
    0.99650233050105    0.53390656727819    0.56516928374838
    0.47303464254428    0.05434685523320    0.59299319492525
    0.52202826864378    0.72905430714912    0.68376621298408
    0.60047218012042    0.58357463909828    0.58933260950271
    0.55444640249196    0.22506426940647    0.18904043555324
    0.49192761438168    1.00443420753007    0.06823345810981
    0.30498742698828    0.82469060091490    0.69011401765134
    0.05209274391042    0.52470660661396    0.06910330756695
    0.70631180926201    0.53360573279838    0.19730633837818
    0.53193808885831    0.56666396066269    0.06782977113765
    0.50268644498241    0.83579513931338    0.68906558549911
    0.84394030600607    0.34979733911992    0.19380552849250
    0.55735144027493    0.05584873990104    0.56637427092697
    0.32723475378175    0.92289430763950    0.58764951717081
    0.13518735881137    0.44608552059332    0.58991169027281
    0.44173032309815    0.33932399472576    0.09495036637828
    0.71730757888252    0.13139640178574    0.09360085130876
    0.66625220187033    0.59554350771238    0.39977326326618
    0.94486006985934    0.39289227414623    0.40210620627814
    0.47508917260929    0.12177682273675    0.40117889922231
    0.37984873561629    0.47145685769553    0.89604295100897
    0.60960342442307    0.72390474697730    0.58998319202418
    0.91461196511987    0.60858558881083    0.08952703958284
    0.47145277559396    0.11949389738299    0.09241427969908
    0.32716417313235    0.92822885676124    0.89922693112435
    0.67624092268752    0.59936619155057    0.09436703354857
    0.57876306434301    0.94010613020943    0.58869696019515
    0.10406377390228    0.67230925772052    0.58838028396090
    0.37592649695993    0.46689974190056    0.58852970949115
    0.13447697565199    0.44599244448998    0.90043016666768
    0.61107317163769    0.73144512508434    0.89930846819007
    0.91004230432422    0.61689541064251    0.39907723427253
    0.72627883054348    0.13899947242338    0.40349327247910
    0.43683400391426    0.33445078331722    0.40502640310813
    0.10714144642920    0.67428654179331    0.89336113117399
    0.94323308519376    0.38208508164192    0.09764911670152
    0.57610648594541    0.94514999572740    0.89582340133954

 Bond Distances (Angstroems)
 ---------------------------
C1-C139=1.4216       C1-C154=1.3906       C1-N493=1.3950       C2-C4=1.3819         C2-N419=1.4050       C3-C4=1.3887         
C3-Cl242=1.7091      C4-C2=1.3819         C4-C3=1.3887         C4-H264=1.0741       C5-C171=1.3716       C5-H265=1.0788       
C5-N418=1.3803       C6-C232=1.3715       C6-N417=1.3827       C7-C9=1.3924         C7-C165=1.4184       C7-N430=1.4032       
C8-C9=1.3778         C8-C166=1.3991       C8-H267=1.0776       C9-C7=1.3924         C9-C8=1.3778         C9-H268=1.0775       
C10-C12=1.3818       C10-N403=1.4053      C11-C12=1.3886       C11-Cl247=1.7085     C12-C10=1.3818       C12-C11=1.3886       
C12-H266=1.0738      C13-C163=1.3712      C13-H270=1.0798      C13-N414=1.3799      C14-C30=1.3748       C14-C44=1.3974       
C14-H263=1.0781      C15-C16=1.3932       C15-C157=1.4182      C15-N412=1.4047      C16-C15=1.3932       C16-C28=1.3789       
C16-H290=1.0778      C17-C19=1.3816       C17-N411=1.4037      C18-C19=1.3886       C18-Cl246=1.7102     C19-C17=1.3816       
C19-C18=1.3886       C19-H293=1.0738      C20-C179=1.3708      C20-H329=1.0791      C20-N409=1.3793      C21-C143=1.3716      
C21-H295=1.0775      C21-N408=1.3803      C22-C24=1.3821       C22-C149=1.4234      C23-C24=1.3903       C23-C137=1.4025      
C23-Cl245=1.7028     C24-C22=1.3821       C24-C23=1.3903       C24-H314=1.0768      C25-C27=1.3816       C25-N405=1.4045      
C26-C27=1.3883       C26-Cl244=1.7091     C27-C25=1.3816       C27-C26=1.3883       C27-H294=1.0742      C28-C16=1.3789       
C28-C158=1.3991      C28-H272=1.0773      C29-C134=1.3712      C29-H315=1.0794      C29-N404=1.3801      C30-C14=1.3748       
C30-C174=1.4054      C30-H262=1.0770      C31-C229=1.3720      C31-H261=1.0775      C31-N421=1.3827      C32-C119=1.3732      
C32-C120=1.3916      C32-H279=1.0740      C33-C227=1.3707      C33-H280=1.0795      C33-N466=1.3801      C34-C156=1.3728      
C34-H281=1.0817      C34-N494=1.3800      C35-C37=1.3952       C36-C37=1.3715       C36-C185=1.4035      C36-H282=1.0772      
C37-C35=1.3952       C37-C36=1.3715       C37-H283=1.0733      C38-C40=1.3921       C38-N435=1.3957      C39-C40=1.3730       
C39-H284=1.0776      C40-C38=1.3921       C40-C39=1.3730       C40-H285=1.0753      C41-C196=1.3713      C41-H286=1.0789      
C41-N429=1.3803      C42-C164=1.3727      C42-N428=1.3791      C43-C58=1.3944       C44-C14=1.3974       C44-C173=1.4235      
C44-N420=1.3978      C45-C58=1.3703       C45-C231=1.4028      C45-H288=1.0771      C46-C48=1.3929       C46-N425=1.3955      
C47-C48=1.3724       C47-H275=1.0759      C48-C46=1.3929       C48-C47=1.3724       C48-H291=1.0747      C49-C233=1.3713      
C49-H276=1.0798      C49-N465=1.3800      C50-C172=1.3729      C50-N424=1.3783      C51-C53=1.3896       C52-C53=1.3719       
C52-C238=1.3966      C52-H274=1.0773      C53-C51=1.3896       C53-C52=1.3719       C53-H269=1.0728      C54-C56=1.3818       
C54-C187=1.4217      C54-N422=1.4050      C55-C56=1.3892       C55-C188=1.4044      C55-Cl248=1.7107     C56-C54=1.3818       
C56-C55=1.3892       C56-H259=1.0741      C57-C155=1.3717      C57-H260=1.0789      C57-N416=1.3799      C58-C43=1.3944       
C58-C45=1.3703       C58-H289=1.0730      C59-C209=1.3719      C59-N415=1.3806      C60-N406=1.4050      C61-C92=1.3891       
C61-C129=1.4026      C61-Cl249=1.7030     C62-N453=1.4488      C62-N465=1.3628      C62-N524=1.3611      C63-N429=1.3628      
C63-N452=1.4482      C63-N517=1.3609      C64-N451=1.4426      C64-N491=1.3605      C64-N494=1.3618      C65-N428=1.3609      
C65-N450=1.4422      C65-N487=1.3608      C66-N424=1.3607      C66-N449=1.4426      C66-N483=1.3612      C67-N432=1.4421      
C67-N479=1.3605      C67-N509=1.3609      C68-N448=1.4418      C68-N476=1.3616      C68-N506=1.3607      C69-N447=1.4411      
C69-N472=1.3611      C69-N502=1.3605      C70-N408=1.3602      C70-N446=1.4418      C70-N468=1.3599      C71-N415=1.3590      
C71-N445=1.4431      C71-N500=1.3603      C72-N431=1.3602      C72-N444=1.4426      C72-N518=1.3604      C73-N421=1.3601      
C73-N443=1.4431      C73-N521=1.3588      C74-N454=1.4489      C74-N466=1.3641      C74-N522=1.3627      C75-N417=1.3598      
C75-N442=1.4432      C75-N525=1.3590      C76-H297=1.0783      C76-N412=1.3528      C76-N490=1.3481      C77-H298=1.0766      
C77-N430=1.3511      C77-N486=1.3472      C78-H299=1.0772      C78-N420=1.3558      C78-N482=1.3450      C79-H300=1.0773      
C79-N463=1.3454      C79-N497=1.3555      C80-H301=1.0766      C80-N406=1.3449      C80-N475=1.3557      C81-H303=1.0771      
C81-N407=1.3450      C81-N471=1.3557      C82-H310=1.0777      C82-N467=1.3549      C82-N501=1.3452      C83-H304=1.0766      
C83-N498=1.3512      C83-N505=1.3472      C84-H305=1.0785      C84-N508=1.3457      C84-N519=1.3557      C85-H306=1.0764      
C85-N423=1.3504      C85-N528=1.3471      C86-H307=1.0765      C86-N426=1.3553      C86-N526=1.3450      C87-H308=1.0761      
C87-N464=1.3569      C87-N512=1.3443      C88-N413=1.3605      C88-N441=1.4428      C88-N513=1.3605      C89-N455=1.4493      
C89-N507=1.3644      C89-N515=1.3613      C90-N456=1.4485      C90-N496=1.3602      C90-N503=1.3643      C91-N457=1.4477      
C91-N469=1.3619      C91-N510=1.3637      C92-C61=1.3891       C92-H317=1.0770      C93-C95=1.3811       C93-N410=1.4044      
C94-C95=1.3882       C94-Cl243=1.7088     C95-C93=1.3811       C95-C94=1.3882       C95-H318=1.0740      C96-C126=1.3710      
C96-H319=1.0792      C96-N427=1.3794      C97-C220=1.3707      C97-N431=1.3802      C98-C100=1.3820      C98-C151=1.4233      
C99-C100=1.3900      C99-C150=1.4026      C99-Cl241=1.7008     C100-C98=1.3820      C100-C99=1.3900      C100-H321=1.0770     
C101-H322=1.0771     C101-N470=1.3440     C101-N493=1.3539     C102-N516=1.3436     C103-H324=1.0764     C103-N485=1.3506     
C104-H325=1.0766     C104-N520=1.3443     C105-H326=1.0760     C106-H327=1.0765     C107-H328=1.0777     C107-N422=1.3441     
C107-N511=1.3547     C108-H313=1.0766     C108-N514=1.3540     C109-H312=1.0770     C109-N504=1.3544     C110-H311=1.0768     
C110-N411=1.3440     C111-H302=1.0762     C112-H296=1.0766     C113-N416=1.3616     C113-N433=1.4489     C113-N492=1.3647     
C114-N414=1.3610     C114-N462=1.4497     C114-N488=1.3644     C115-N418=1.3597     C115-N461=1.4487     C115-N484=1.3644     
C116-N409=1.3611     C116-N460=1.4476     C116-N481=1.3636     C117-N427=1.3609     C117-N459=1.4485     C117-N477=1.3634     
C118-N404=1.3613     C118-N458=1.4483     C118-N473=1.3632     C119-C32=1.3732      C119-H278=1.0762     C120-C32=1.3916      
C120-N499=1.3956     C121-C212=1.3707     C121-N413=1.3795     C122-C145=1.4053     C122-C167=1.3862     C122-Cl258=1.7133    
C123-C125=1.3922     C123-N478=1.3960     C124-C125=1.3730     C124-H335=1.0762     C125-C123=1.3922     C125-C124=1.3730     
C125-H336=1.0745     C126-C96=1.3710      C126-H337=1.0788     C126-N477=1.3801     C127-C199=1.3728     C127-N476=1.3785     
C128-C130=1.3941     C129-C61=1.4026      C129-C130=1.3701     C129-H340=1.0771     C130-C128=1.3941     C130-C129=1.3701     
C130-H347=1.0728     C131-C133=1.3875     C131-N474=1.4020     C132-C133=1.3759     C132-H341=1.0768     C133-C131=1.3875     
C133-C132=1.3759     C133-H342=1.0740     C134-C29=1.3712      C134-H343=1.0796     C134-N473=1.3797     C135-C150=1.3699     
C135-C151=1.3943     C135-H334=1.0728     C136-C207=1.3732     C136-N472=1.3785     C137-C23=1.4025      C137-C138=1.3703     
C137-H345=1.0780     C138-C137=1.3703     C138-C149=1.3949     C138-H346=1.0728     C139-C1=1.4216       C139-C141=1.3820     
C139-N470=1.4051     C140-C141=1.3894     C140-C153=1.4043     C140-Cl256=1.7103    C141-C139=1.3820     C141-C140=1.3894     
C141-H366=1.0741     C142-C190=1.3715     C142-H367=1.0793     C142-N469=1.3795     C143-C21=1.3716      C143-H383=1.0767     
C143-N468=1.3795     C144-C146=1.3971     C144-C208=1.4232     C144-N467=1.3972     C145-C122=1.4053     C145-C146=1.3744     
C145-H369=1.0775     C146-C144=1.3971     C146-C145=1.3744     C146-H402=1.0779     C147-C180=1.3833     C147-N480=1.4010     
C148-C180=1.3789     C148-N434=1.4550     C149-C22=1.4234      C149-C138=1.3949     C150-C99=1.4026      C150-C135=1.3699     
C150-H333=1.0777     C151-C98=1.4233      C151-C135=1.3943     C152-C191=1.3709     C152-H339=1.0750     C152-N479=1.3767     
C153-C140=1.4043     C153-C154=1.3728     C153-H352=1.0764     C154-C1=1.3906       C154-C153=1.3728     C154-H353=1.0750     
C155-C57=1.3717      C155-H354=1.0795     C155-N492=1.3801     C156-C34=1.3728      C156-H355=1.0773     C156-N491=1.3786     
C157-C15=1.4182      C157-C159=1.3795     C157-N490=1.3993     C158-C28=1.3991      C158-C159=1.3751     C158-N437=1.4574     
C159-C157=1.3795     C159-C158=1.3751     C159-H368=1.0716     C160-C162=1.3921     C160-N489=1.3959     C161-C162=1.3729     
C161-H356=1.0764     C162-C160=1.3921     C162-C161=1.3729     C162-H357=1.0746     C163-C13=1.3712      C163-H358=1.0794     
C163-N488=1.3804     C164-C42=1.3727      C164-N487=1.3784     C165-C7=1.4184       C165-C182=1.3797     C165-N486=1.4003     
C166-C8=1.3991       C166-C182=1.3753     C166-N438=1.4564     C167-C122=1.3862     C167-C208=1.3808     C167-H277=1.0727     
C168-C170=1.3873     C168-N485=1.4020     C169-C170=1.3759     C169-H361=1.0768     C170-C168=1.3873     C170-C169=1.3759     
C170-H362=1.0742     C171-C5=1.3716       C171-H363=1.0802     C171-N484=1.3798     C172-C50=1.3729      C172-N483=1.3784     
C173-C44=1.4235      C173-C175=1.3803     C173-N482=1.4040     C174-C30=1.4054      C174-C175=1.3847     C174-Cl257=1.7137    
C175-C173=1.3803     C175-C174=1.3847     C175-H365=1.0724     C176-C178=1.3910     C176-N495=1.3957     C177-C178=1.3731     
C177-H350=1.0764     C178-C176=1.3910     C178-C177=1.3731     C178-H349=1.0743     C179-C20=1.3708      C179-H348=1.0791     
C179-N481=1.3803     C180-C147=1.3833     C180-C148=1.3789     C180-H389=1.0743     C181-C206=1.3716     C181-H390=1.0788     
C181-N496=1.3808     C182-C165=1.3797     C182-C166=1.3753     C182-H360=1.0717     C183-C200=1.4188     C183-C215=1.3920     
C183-N498=1.4024     C184-N512=1.4017     C185-C36=1.4035      C185-C186=1.3876     C185-Cl251=1.7026    C186-C185=1.3876     
C186-H373=1.0773     C187-C54=1.4217      C187-C189=1.3907     C187-N511=1.3954     C188-C55=1.4044      C188-C189=1.3731     
C188-H374=1.0763     C189-C187=1.3907     C189-C188=1.3731     C189-H375=1.0744     C190-C142=1.3715     C190-H377=1.0792     
C190-N510=1.3801     C191-C152=1.3709     C191-H384=1.0782     C191-N509=1.3797     C192-C194=1.3805     C192-C221=1.4227     
C192-N508=1.4042     C193-C194=1.3848     C193-C222=1.4049     C193-Cl250=1.7138    C194-C192=1.3805     C194-C193=1.3848     
C194-H378=1.0723     C195-C210=1.3919     C195-N514=1.3952     C196-C41=1.3713      C196-H371=1.0793     C196-N517=1.3795     
C197-C210=1.3726     C197-H379=1.0777     C198-C219=1.3714     C198-H380=1.0795     C198-N507=1.3802     C199-C127=1.3728     
C199-N506=1.3778     C200-C183=1.4188     C200-C202=1.3806     C200-N505=1.4017     C201-C202=1.3765     C201-C214=1.3988     
C201-N439=1.4565     C202-C200=1.3806     C202-C201=1.3765     C202-H382=1.0722     C203-C205=1.3914     C203-N504=1.3954     
C204-C205=1.3724     C204-H332=1.0759     C205-C203=1.3914     C205-C204=1.3724     C205-H351=1.0742     C206-C181=1.3716     
C206-H330=1.0802     C206-N503=1.3801     C207-C136=1.3732     C207-N502=1.3780     C208-C144=1.4232     C208-C167=1.3808     
C208-N501=1.4061     C209-C59=1.3719      C209-N500=1.3829     C210-C195=1.3919     C210-C197=1.3726     C210-H386=1.0749     
C211-C213=1.3813     C211-C225=1.3883     C211-H370=1.0741     C212-C121=1.3707     C212-N513=1.3795     C213-C211=1.3813     
C213-N527=1.4041     C214-C201=1.3988     C214-C215=1.3771     C214-H391=1.0776     C215-C183=1.3920     C215-C214=1.3771     
C215-H392=1.0776     C216-C218=1.3817     C216-N516=1.4049     C217-C218=1.3887     C217-Cl255=1.7093    C218-C216=1.3817     
C218-C217=1.3887     C218-H393=1.0741     C219-C198=1.3714     C219-H394=1.0795     C219-N515=1.3798     C220-C97=1.3707      
C220-N518=1.3796     C221-C192=1.4227     C221-C223=1.3971     C221-N519=1.3980     C222-C193=1.4049     C222-C223=1.3745     
C222-H396=1.0765     C223-C221=1.3971     C223-C222=1.3745     C223-H331=1.0779     C224-C226=1.3818     C224-N520=1.4039     
C225-C211=1.3883     C225-Cl252=1.7100    C226-C224=1.3818     C226-C228=1.3887     C226-H401=1.0740     C227-C33=1.3707      
C227-H399=1.0792     C227-N522=1.3801     C228-C226=1.3887     C228-Cl254=1.7107    C229-C31=1.3720      C229-H400=1.0769     
C229-N521=1.3804     C230-C231=1.3889     C230-H376=1.0769     C231-C45=1.4028      C231-C230=1.3889     C231-Cl253=1.7027    
C232-C6=1.3715       C232-N525=1.3804     C233-C49=1.3713      C233-H388=1.0790     C233-N524=1.3805     C234-C236=1.3830     
C234-C240=1.3789     C234-H387=1.0741     C235-N526=1.4041     C236-C234=1.3830     C236-N523=1.4002     C237-C238=1.3825     
C237-H397=1.0743     C238-C52=1.3966      C238-C237=1.3825     C238-N440=1.4602     C239-N528=1.4065     C240-C234=1.3789     
C240-N436=1.4553     Cl241-C99=1.7008     Cl242-C3=1.7091      Cl243-C94=1.7088     Cl244-C26=1.7091     Cl245-C23=1.7028     
Cl246-C18=1.7102     Cl247-C11=1.7085     Cl248-C55=1.7107     Cl249-C61=1.7030     Cl250-C193=1.7138    Cl251-C185=1.7026    
Cl252-C225=1.7100    Cl253-C231=1.7027    Cl254-C228=1.7107    Cl255-C217=1.7093    Cl256-C140=1.7103    Cl257-C174=1.7137    
Cl258-C122=1.7133    H259-C56=1.0741      H260-C57=1.0789      H261-C31=1.0775      H262-C30=1.0770      H263-C14=1.0781      
H264-C4=1.0741       H265-C5=1.0788       H266-C12=1.0738      H267-C8=1.0776       H268-C9=1.0775       H269-C53=1.0728      
H270-C13=1.0798      H272-C28=1.0773      H274-C52=1.0773      H275-C47=1.0759      H276-C49=1.0798      H277-C167=1.0727     
H278-C119=1.0762     H279-C32=1.0740      H280-C33=1.0795      H281-C34=1.0817      H282-C36=1.0772      H283-C37=1.0733      
H284-C39=1.0776      H285-C40=1.0753      H286-C41=1.0789      H288-C45=1.0771      H289-C58=1.0730      H290-C16=1.0778      
H291-C48=1.0747      H293-C19=1.0738      H294-C27=1.0742      H295-C21=1.0775      H296-C112=1.0766     H297-C76=1.0783      
H298-C77=1.0766      H299-C78=1.0772      H300-C79=1.0773      H301-C80=1.0766      H302-C111=1.0762     H303-C81=1.0771      
H304-C83=1.0766      H305-C84=1.0785      H306-C85=1.0764      H307-C86=1.0765      H308-C87=1.0761      H310-C82=1.0777      
H311-C110=1.0768     H312-C109=1.0770     H313-C108=1.0766     H314-C24=1.0768      H315-C29=1.0794      H317-C92=1.0770      
H318-C95=1.0740      H319-C96=1.0792      H321-C100=1.0770     H322-C101=1.0771     H324-C103=1.0764     H325-C104=1.0766     
H326-C105=1.0760     H327-C106=1.0765     H328-C107=1.0777     H329-C20=1.0791      H330-C206=1.0802     H331-C223=1.0779     
H332-C204=1.0759     H333-C150=1.0777     H334-C135=1.0728     H335-C124=1.0762     H336-C125=1.0745     H337-C126=1.0788     
H339-C152=1.0750     H340-C129=1.0771     H341-C132=1.0768     H342-C133=1.0740     H343-C134=1.0796     H345-C137=1.0780     
H346-C138=1.0728     H347-C130=1.0728     H348-C179=1.0791     H349-C178=1.0743     H350-C177=1.0764     H351-C205=1.0742     
H352-C153=1.0764     H353-C154=1.0750     H354-C155=1.0795     H355-C156=1.0773     H356-C161=1.0764     H357-C162=1.0746     
H358-C163=1.0794     H360-C182=1.0717     H361-C169=1.0768     H362-C170=1.0742     H363-C171=1.0802     H365-C175=1.0724     
H366-C141=1.0741     H367-C142=1.0793     H368-C159=1.0716     H369-C145=1.0775     H370-C211=1.0741     H371-C196=1.0793     
H373-C186=1.0773     H374-C188=1.0763     H375-C189=1.0744     H376-C230=1.0769     H377-C190=1.0792     H378-C194=1.0723     
H379-C197=1.0777     H380-C198=1.0795     H382-C202=1.0722     H383-C143=1.0767     H384-C191=1.0782     H386-C210=1.0749     
H387-C234=1.0741     H388-C233=1.0790     H389-C180=1.0743     H390-C181=1.0788     H391-C214=1.0776     H392-C215=1.0776     
H393-C218=1.0741     H394-C219=1.0795     H396-C222=1.0765     H397-C237=1.0743     H399-C227=1.0792     H400-C229=1.0769     
H401-C226=1.0740     H402-C146=1.0779     N403-C10=1.4053      N403-Zn595=1.9759    N404-C29=1.3801      N404-C118=1.3613     
N404-Zn610=1.9780    N405-C25=1.4045      N405-Zn610=1.9649    N406-C60=1.4050      N406-C80=1.3449      N406-Zn610=1.9920    
N407-C81=1.3450      N407-Zn596=1.9870    N408-C21=1.3803      N408-C70=1.3602      N408-Zn596=1.9819    N409-C20=1.3793      
N409-C116=1.3611     N409-Zn596=1.9776    N410-C93=1.4044      N410-Zn612=1.9673    N411-C17=1.4037      N411-C110=1.3440     
N411-Zn596=1.9691    N412-C15=1.4047      N412-C76=1.3528      N412-Zn595=1.9903    N413-C88=1.3605      N413-C121=1.3795     
N413-Zn595=1.9822    N414-C13=1.3799      N414-C114=1.3610     N414-Zn595=1.9772    N415-C59=1.3806      N415-C71=1.3590      
N415-Zn610=1.9824    N416-C57=1.3799      N416-C113=1.3616     N416-Zn593=1.9820    N417-C6=1.3827       N417-C75=1.3598      
N417-Zn594=1.9907    N418-C5=1.3803       N418-C115=1.3597     N418-Zn594=1.9831    N419-C2=1.4050       N419-Zn594=1.9643    
N420-C44=1.3978      N420-C78=1.3558      N420-Zn593=2.0031    N421-C31=1.3827      N421-C73=1.3601      N421-Zn593=1.9917    
N422-C54=1.4050      N422-C107=1.3441     N422-Zn593=1.9564    N423-C85=1.3504      N423-Zn598=1.9929    N424-C50=1.3783      
N424-C66=1.3607      N424-Zn598=1.9870    N425-C46=1.3955      N425-Zn598=1.9672    N426-C86=1.3553      N426-Zn592=1.9980    
N427-C96=1.3794      N427-C117=1.3609     N427-Zn612=1.9697    N428-C42=1.3791      N428-C65=1.3609      N428-Zn592=1.9984    
N429-C41=1.3803      N429-C63=1.3628      N429-Zn592=1.9849    N430-C7=1.4032       N430-C77=1.3511      N430-Zn594=1.9942    
N431-C72=1.3602      N431-C97=1.3802      N431-Zn612=1.9737    N432-C67=1.4421      N432-O568=1.2335     N432-O578=1.2341     
N433-C113=1.4489     N433-O536=1.2379     N433-O561=1.2382     N434-C148=1.4550     N434-O543=1.2389     N434-O555=1.2380     
N435-C38=1.3957      N435-Zn592=1.9699    N436-C240=1.4553     N436-O553=1.2382     N436-O554=1.2390     N437-C158=1.4574     
N437-O551=1.2355     N437-O552=1.2370     N438-C166=1.4564     N438-O549=1.2352     N438-O550=1.2374     N439-C201=1.4565     
N439-O547=1.2367     N439-O548=1.2359     N440-C238=1.4602     N440-O545=1.2361     N440-O546=1.2382     N441-C88=1.4428      
N441-O532=1.2351     N441-O580=1.2352     N442-C75=1.4432      N442-O533=1.2337     N442-O587=1.2337     N443-C73=1.4431      
N443-O535=1.2343     N443-O584=1.2337     N444-C72=1.4426      N444-O544=1.2350     N444-O586=1.2350     N445-C71=1.4431      
N445-O542=1.2342     N445-O575=1.2338     N446-C70=1.4418      N446-O530=1.2344     N446-O573=1.2346     N447-C69=1.4411      
N447-O562=1.2343     N447-O571=1.2337     N448-C68=1.4418      N448-O570=1.2330     N448-O582=1.2336     N449-C66=1.4426      
N449-O537=1.2349     N449-O566=1.2347     N450-C65=1.4422      N450-O539=1.2334     N450-O564=1.2333     N451-C64=1.4426      
N451-O556=1.2327     N451-O574=1.2341     N452-C63=1.4482      N453-C62=1.4488      N454-C74=1.4489      N454-O558=1.2383     
N454-O585=1.2376     N455-C89=1.4493      N456-C90=1.4485      N457-C91=1.4477      N457-O572=1.2375     N457-O579=1.2382     
N458-C118=1.4483     N459-C117=1.4485     N460-C116=1.4476     N460-O531=1.2374     N460-O567=1.2379     N461-C115=1.4487     
N462-C114=1.4497     N463-C79=1.3454      N463-Zn612=1.9840    N464-C87=1.3569      N464-Zn591=2.0066    N465-C49=1.3800      
N465-C62=1.3628      N465-Zn598=1.9713    N466-C33=1.3801      N466-C74=1.3641      N466-Zn591=1.9906    N467-C82=1.3549      
N467-C144=1.3972     N467-Zn604=1.9885    N468-C70=1.3599      N468-C143=1.3795     N468-Zn604=1.9886    N469-C91=1.3619      
N469-C142=1.3795     N469-Zn604=1.9784    N470-C101=1.3440     N470-C139=1.4051     N470-Zn604=1.9602    N471-C81=1.3557      
N471-Zn605=1.9970    N472-C69=1.3611      N472-C136=1.3785     N472-Zn605=1.9971    N473-C118=1.3632     N473-C134=1.3797     
N473-Zn605=1.9801    N474-C131=1.4020     N474-Zn605=1.9732    N475-C80=1.3557      N475-Zn600=1.9994    N476-C68=1.3616      
N476-C127=1.3785     N476-Zn600=2.0057    N477-C117=1.3634     N477-C126=1.3801     N477-Zn600=1.9868    N478-C123=1.3960     
N478-Zn600=1.9822    N479-C67=1.3605      N479-C152=1.3767     N479-Zn606=1.9898    N480-C147=1.4010     N480-Zn603=1.9658    
N481-C116=1.3636     N481-C179=1.3803     N481-Zn606=1.9866    N482-C78=1.3450      N482-C173=1.4040     N482-Zn607=1.9932    
N483-C66=1.3612      N483-C172=1.3784     N483-Zn607=1.9787    N484-C115=1.3644     N484-C171=1.3798     N484-Zn607=1.9834    
N485-C103=1.3506     N485-C168=1.4020     N485-Zn607=1.9647    N486-C77=1.3472      N486-C165=1.4003     N486-Zn608=1.9990    
N487-C65=1.3608      N487-C164=1.3784     N487-Zn608=1.9825    N488-C114=1.3644     N488-C163=1.3804     N488-Zn608=1.9866    
N489-C160=1.3959     N489-Zn608=1.9711    N490-C76=1.3481      N490-C157=1.3993     N490-Zn609=2.0003    N491-C64=1.3605      
N491-C156=1.3786     N491-Zn609=1.9811    N492-C113=1.3647     N492-C155=1.3801     N492-Zn609=1.9890    N493-C1=1.3950       
N493-C101=1.3539     N493-Zn609=1.9684    N494-C34=1.3800      N494-C64=1.3618      N494-Zn591=2.0028    N495-C176=1.3957     
N495-Zn606=1.9745    N496-C90=1.3602      N496-C181=1.3808     N496-Zn603=1.9843    N497-C79=1.3555      N497-Zn606=1.9841    
N498-C83=1.3512      N498-C183=1.4024     N498-Zn603=1.9954    N499-C120=1.3956     N499-Zn591=1.9758    N500-C71=1.3603      
N500-C209=1.3829     N500-Zn603=1.9928    N501-C82=1.3452      N501-C208=1.4061     N501-Zn590=1.9929    N502-C69=1.3605      
N502-C207=1.3780     N502-Zn590=1.9821    N503-C90=1.3643      N503-C206=1.3801     N503-Zn590=1.9853    N504-C109=1.3544     
N504-C203=1.3954     N504-Zn590=1.9598    N505-C83=1.3472      N505-C200=1.4017     N505-Zn589=2.0002    N506-C68=1.3607      
N506-C199=1.3778     N506-Zn589=1.9826    N507-C89=1.3644      N507-C198=1.3802     N507-Zn589=1.9888    N508-C84=1.3457      
N508-C192=1.4042     N508-Zn597=1.9818    N509-C67=1.3609      N509-C191=1.3797     N509-Zn597=1.9785    N510-C91=1.3637      
N510-C190=1.3801     N510-Zn597=1.9872    N511-C107=1.3547     N511-C187=1.3954     N511-Zn597=1.9616    N512-C87=1.3443      
N512-C184=1.4017     N512-Zn599=1.9789    N513-C88=1.3605      N513-C212=1.3795     N513-Zn599=1.9674    N514-C108=1.3540     
N514-C195=1.3952     N514-Zn589=1.9694    N515-C89=1.3613      N515-C219=1.3798     N515-Zn602=1.9816    N516-C102=1.3436     
N516-C216=1.4049     N516-Zn602=1.9738    N517-C63=1.3609      N517-C196=1.3795     N517-Zn599=1.9677    N518-C72=1.3604      
N518-C220=1.3796     N518-Zn602=1.9841    N519-C84=1.3557      N519-C221=1.3980     N519-Zn602=1.9875    N520-C104=1.3443     
N520-C224=1.4039     N520-Zn601=1.9665    N521-C73=1.3588      N521-C229=1.3804     N521-Zn601=1.9875    N522-C74=1.3627      
N522-C227=1.3801     N522-Zn601=1.9862    N523-C236=1.4002     N523-Zn611=1.9623    N524-C62=1.3611      N524-C233=1.3805     
N524-Zn611=1.9703    N525-C75=1.3590      N525-C232=1.3804     N525-Zn611=1.9756    N526-C86=1.3450      N526-C235=1.4041     
N526-Zn611=1.9888    N527-C213=1.4041     N527-Zn599=1.9732    N528-C85=1.3471      N528-C239=1.4065     N528-Zn601=2.0056    
O530-N446=1.2344     O531-N460=1.2374     O532-N441=1.2351     O533-N442=1.2337     O535-N443=1.2343     O536-N433=1.2379     
O537-N449=1.2349     O539-N450=1.2334     O542-N445=1.2342     O543-N434=1.2389     O544-N444=1.2350     O545-N440=1.2361     
O546-N440=1.2382     O547-N439=1.2367     O548-N439=1.2359     O549-N438=1.2352     O550-N438=1.2374     O551-N437=1.2355     
O552-N437=1.2370     O553-N436=1.2382     O554-N436=1.2390     O555-N434=1.2380     O556-N451=1.2327     O558-N454=1.2383     
O561-N433=1.2382     O562-N447=1.2343     O564-N450=1.2333     O566-N449=1.2347     O567-N460=1.2379     O568-N432=1.2335     
O570-N448=1.2330     O571-N447=1.2337     O572-N457=1.2375     O573-N446=1.2346     O574-N451=1.2341     O575-N445=1.2338     
O578-N432=1.2341     O579-N457=1.2382     O580-N441=1.2352     O582-N448=1.2336     O584-N443=1.2337     O585-N454=1.2376     
O586-N444=1.2350     O587-N442=1.2337     Zn589-N505=2.0002    Zn589-N506=1.9826    Zn589-N507=1.9888    Zn589-N514=1.9694    
Zn590-N501=1.9929    Zn590-N502=1.9821    Zn590-N503=1.9853    Zn590-N504=1.9598    Zn591-N464=2.0066    Zn591-N466=1.9906    
Zn591-N494=2.0028    Zn591-N499=1.9758    Zn592-N426=1.9980    Zn592-N428=1.9984    Zn592-N429=1.9849    Zn592-N435=1.9699    
Zn593-N416=1.9820    Zn593-N420=2.0031    Zn593-N421=1.9917    Zn593-N422=1.9564    Zn594-N417=1.9907    Zn594-N418=1.9831    
Zn594-N419=1.9643    Zn594-N430=1.9942    Zn595-N403=1.9759    Zn595-N412=1.9903    Zn595-N413=1.9822    Zn595-N414=1.9772    
Zn596-N407=1.9870    Zn596-N408=1.9819    Zn596-N409=1.9776    Zn596-N411=1.9691    Zn597-N508=1.9818    Zn597-N509=1.9785    
Zn597-N510=1.9872    Zn597-N511=1.9616    Zn598-N423=1.9929    Zn598-N424=1.9870    Zn598-N425=1.9672    Zn598-N465=1.9713    
Zn599-N512=1.9789    Zn599-N513=1.9674    Zn599-N517=1.9677    Zn599-N527=1.9732    Zn600-N475=1.9994    Zn600-N476=2.0057    
Zn600-N477=1.9868    Zn600-N478=1.9822    Zn601-N520=1.9665    Zn601-N521=1.9875    Zn601-N522=1.9862    Zn601-N528=2.0056    
Zn602-N515=1.9816    Zn602-N516=1.9738    Zn602-N518=1.9841    Zn602-N519=1.9875    Zn603-N480=1.9658    Zn603-N496=1.9843    
Zn603-N498=1.9954    Zn603-N500=1.9928    Zn604-N467=1.9885    Zn604-N468=1.9886    Zn604-N469=1.9784    Zn604-N470=1.9602    
Zn605-N471=1.9970    Zn605-N472=1.9971    Zn605-N473=1.9801    Zn605-N474=1.9732    Zn606-N479=1.9898    Zn606-N481=1.9866    
Zn606-N495=1.9745    Zn606-N497=1.9841    Zn607-N482=1.9932    Zn607-N483=1.9787    Zn607-N484=1.9834    Zn607-N485=1.9647    
Zn608-N486=1.9990    Zn608-N487=1.9825    Zn608-N488=1.9866    Zn608-N489=1.9711    Zn609-N490=2.0003    Zn609-N491=1.9811    
Zn609-N492=1.9890    Zn609-N493=1.9684    Zn610-N404=1.9780    Zn610-N405=1.9649    Zn610-N406=1.9920    Zn610-N415=1.9824    
Zn611-N523=1.9623    Zn611-N524=1.9703    Zn611-N525=1.9756    Zn611-N526=1.9888    Zn612-N410=1.9673    Zn612-N427=1.9697    
Zn612-N431=1.9737    Zn612-N463=1.9840    
 C  H  Rav=1.0765 sigma=0.0021  Rmin=1.0716  Rmax=1.0817   127
 C  C  Rav=1.3860 sigma=0.0140  Rmin=1.3699  Rmax=1.4235   140
 N  C  Rav=1.3847 sigma=0.0317  Rmin=1.3436  Rmax=1.4602   200
 O  N  Rav=1.2356 sigma=0.0019  Rmin=1.2327  Rmax=1.2390    44
 Cl C  Rav=1.7083 sigma=0.0040  Rmin=1.7008  Rmax=1.7138    18
 Zn N  Rav=1.9823 sigma=0.0117  Rmin=1.9564  Rmax=2.0066    96

 selected bond angles (degree)
 --------------------
C154-C1-C139=120.44            N493-C1-C139=106.58            N493-C1-C154=132.93            N419-C2-C4=133.06              
Cl242-C3-C4=119.36             C3-C4-C2=118.00                H264-C4-C2=121.13              H264-C4-C3=120.87              
H265-C5-C171=127.52            N418-C5-C171=107.49            N418-C5-H265=124.36            N417-C6-C232=107.57            
C165-C7-C9=120.24              N430-C7-C9=133.91              N430-C7-C165=105.83            C166-C8-C9=121.29              
H267-C8-C9=120.73              H267-C8-C166=117.94            C8-C9-C7=118.19                H268-C9-C7=119.77              
H268-C9-C8=121.99              N403-C10-C12=133.00            

 selected dihedral angles (degree)
 ---------------------------------
C3-C4-C2-N419=179.96          H264-C4-C2-N419=359.27        C2-C4-C3-Cl242=180.31         H264-C4-C3-Cl242=  1.00       
C8-C9-C7-C165=  1.39          C8-C9-C7-N430=180.25          H268-C9-C7-C165=183.63        H268-C9-C7-N430=  2.50        
C7-C9-C8-C166=  0.66          C7-C9-C8-H267=183.27          H268-C9-C8-C166=178.37        H268-C9-C8-H267=  0.97        

 CMA Distance (Angstroems)
 ---------------------------
R(CMA):  0.1679
           -------------------------------------------------
          |                Final Singlepoint                |
           -------------------------------------------------
         :::::::::::::::::::::::::::::::::::::::::::::::::::::
         ::                     SUMMARY                     ::
         :::::::::::::::::::::::::::::::::::::::::::::::::::::
         :: total energy            -130.856141995214 Eh    ::
         :: gradient norm              0.007746852658 Eh/a0 ::
         ::.................................................::
         :: bond energy             -136.047301928742 Eh    ::
         :: angle energy               1.176712541336 Eh    ::
         :: torsion energy             0.065961374304 Eh    ::
         :: repulsion energy           8.684965471481 Eh    ::
         :: electrostat energy        -3.163434273289 Eh    ::
         :: dispersion energy         -1.329965325166 Eh    ::
         :: HB energy                 -0.269941751279 Eh    ::
         :: XB energy                 -0.004991224414 Eh    ::
         :: bonded atm energy          0.031853120555 Eh    ::
         :: external energy            0.000000000000 Eh    ::
         :: add. restraining           0.000000000000 Eh    ::
         :: total charge              -0.000000000000 e     ::
         :::::::::::::::::::::::::::::::::::::::::::::::::::::

           -------------------------------------------------
          |                Property Printout                |
           -------------------------------------------------
 Periodic properties
           -------------------------------------------------
          |                Geometry Summary                 |
           -------------------------------------------------

 * 612 atoms in unit cell

     #   Z                                     position/Å        charge
     1   6 C        4.0962198     6.3821408     9.4459517     4.0000000
     2   6 C       21.2262671     6.3455216     8.8024699     4.0000000
     3   6 C       21.8463979     4.0625022     8.5948876     4.0000000
     4   6 C       21.0297910     5.1154685     8.2040231     4.0000000
     5   6 C       16.1264859     9.0091194     8.1037000     4.0000000
     6   6 C       20.9322807     7.9603426     5.6301522     4.0000000
     7   6 C       18.2680288     5.7941859     9.9454602     4.0000000
     8   6 C       18.8611046     5.3413738    12.2022247     4.0000000
     9   6 C       18.7886175     6.2376877    11.1583235     4.0000000
    10   6 C        7.7456181     1.1435401     8.6602669     4.0000000
    11   6 C        5.4591517     1.7371813     8.4069098     4.0000000
    12   6 C        6.7845904     1.9118215     8.0314040     4.0000000
    13   6 C       12.7234426     4.0373880     7.9547416     4.0000000
    14   6 C       10.9246915    13.2728497    11.1697278     4.0000000
    15   6 C        8.7151001     3.9394051     9.9265183     4.0000000
    16   6 C        8.8171120     3.2369980    11.1253718     4.0000000
    17   6 C        3.4088872     7.3166214    18.5770172     4.0000000
    18   6 C        1.7493325     5.6187338    18.4870032     4.0000000
    19   6 C        2.2245028     6.8458603    18.0436045     4.0000000
    20   6 C        3.1120735    12.9236623    17.6630914     4.0000000
    21   6 C        4.2342684     8.2698804    15.1984096     4.0000000
    22   6 C        1.5945551     9.5961001     0.1913377     4.0000000
    23   6 C        1.6085253     8.9989621     2.4891636     4.0000000
    24   6 C        2.3117673     9.3852319     1.3537608     4.0000000
    25   6 C       -8.2241370    16.1752126    18.5849797     4.0000000
    26   6 C       -8.8974348    18.4510737    18.5245089     4.0000000
    27   6 C       -8.0621454    17.4435116    18.0614206     4.0000000
    28   6 C        7.9635160     3.5773011    12.1533880     4.0000000
    29   6 C       -3.1985615    13.6411848    17.6483077     4.0000000
    30   6 C       11.6793161    13.6740179    12.2466306     4.0000000
    31   6 C        8.3182903    14.3000205     5.5256498     4.0000000
    32   6 C        3.8742112     5.2635232     0.6350667     4.0000000
    33   6 C        9.3255421     8.6058466     1.8739810     4.0000000
    34   6 C        5.0246083     7.6339136     4.2007846     4.0000000
    35   6 C        7.6584804     5.1407368    19.2384975     4.0000000
    36   6 C        7.1053110     4.7189107    16.9667355     4.0000000
    37   6 C        6.9059796     5.4552512    18.1064676     4.0000000
    38   6 C       18.1592580     0.5322501     0.0380462     4.0000000
    39   6 C       20.4415875    -0.0537837    -0.2638933     4.0000000
    40   6 C       19.4924509     0.6703679     0.4143169     4.0000000
    41   6 C       14.0658077     3.9801101     1.4584347     4.0000000
    42   6 C       16.7769881     0.6324456     4.2316539     4.0000000
    43   6 C       17.5854104     4.4068822    19.2454393     4.0000000
    44   6 C       11.5781917    13.0340976     9.9578948     4.0000000
    45   6 C       18.2177464     4.1686231    16.9697531     4.0000000
    46   6 C       16.2613622    15.2490506     0.2241551     4.0000000
    47   6 C       15.5745279    17.5189024     0.1205029     4.0000000
    48   6 C       15.4175937    16.2673800     0.6614598     4.0000000
    49   6 C       15.5879561     9.8931204     1.6925197     4.0000000
    50   6 C       16.7585909    14.0702268     4.1994773     4.0000000
    51   6 C       13.0124535    13.2222361    19.2207271     4.0000000
    52   6 C       13.0375380    14.1767230    17.0485651     4.0000000
    53   6 C       13.7301049    13.6616248    18.1148703     4.0000000
    54   6 C        9.5586105    15.4285319     8.9282205     4.0000000
    55   6 C       11.2247692    17.1201767     8.8352520     4.0000000
    56   6 C       10.7373457    15.9004660     8.3829046     4.0000000
    57   6 C        9.6604100     9.7939861     8.3000456     4.0000000
    58   6 C       17.6473204     3.6264417    18.0915591     4.0000000
    59   6 C       -7.8601437    14.6816668    15.1687737     4.0000000
    60   6 C       -5.2321707    16.7810486    19.5480211     4.0000000
    61   6 C       -5.6131063    16.9636594     2.4538718     4.0000000
    62   6 C       17.7263147    10.5289368     1.6268285     4.0000000
    63   6 C       13.3926207     1.8550911     1.4998937     4.0000000
    64   6 C        7.0383541     7.0476971     4.9210217     4.0000000
    65   6 C       16.3850117     2.7321105     4.8271739     4.0000000
    66   6 C       15.1587954    12.6758578     4.8422596     4.0000000
    67   6 C        5.9679292    15.6699637    14.5301264     4.0000000
    68   6 C       -3.3320224    19.7555294    14.5678550     4.0000000
    69   6 C       -2.1186910     9.8050136    14.5061491     4.0000000
    70   6 C        3.1878118    10.0869908    14.4593984     4.0000000
    71   6 C       -5.7586229    14.8922479    14.4739666     4.0000000
    72   6 C        2.8543415    19.8549313    14.5681246     4.0000000
    73   6 C        9.6524975    12.6265952     4.9232858     4.0000000
    74   6 C        7.7315267    10.1543239     1.6910724     4.0000000
    75   6 C       18.8462687     7.6608841     4.9214744     4.0000000
    76   6 C        8.9171674     4.8602923     7.8952161     4.0000000
    77   6 C       17.4528939     5.5060075     7.8832833     4.0000000
    78   6 C       12.2328358    12.4758773     7.8948121     4.0000000
    79   6 C        4.0687435    17.7796831    17.5844376     4.0000000
    80   6 C       -4.3990840    17.2255841    17.5284809     4.0000000
    81   6 C        0.5904910    10.1874595    17.5161683     4.0000000
    82   6 C        0.6855237    10.0993700    11.4018853     4.0000000
    83   6 C       -4.3650174    17.1053298    11.4958509     4.0000000
    84   6 C        4.2687395    17.6700230    11.5243866     4.0000000
    85   6 C       12.5477208    12.3853389     1.8264899     4.0000000
    86   6 C       17.5119848     5.2151030     1.8996366     4.0000000
    87   6 C        8.9120374     4.9037467     1.8646301     4.0000000
    88   6 C       10.2703073     2.7568277     4.7978653     4.0000000
    89   6 C       -0.2292405    20.6475896    11.3790786     4.0000000
    90   6 C       -4.5354631    11.8501286    11.2441990     4.0000000
    91   6 C        5.4782248    12.4035112    11.2179256     4.0000000
    92   6 C       -5.5226661    16.1520432     1.3301222     4.0000000
    93   6 C        5.1858787    21.4826890    18.5370135     4.0000000
    94   6 C        7.4702072    20.8984038    18.2575771     4.0000000
    95   6 C        6.1447584    20.7395450    17.8768540     4.0000000
    96   6 C        0.3096444    18.6265090    17.8942400     4.0000000
    97   6 C        3.8736883    21.7103165    15.2525800     4.0000000
    98   6 C        4.3588731    18.5525543     0.2827208     4.0000000
    99   6 C        4.8611893    18.8157712     2.5867854     4.0000000
   100   6 C        4.1485297    19.2312351     1.4680713     4.0000000
   101   6 C        5.2120454     8.2738550     9.8500504     4.0000000
   102   6 C        3.6310219    22.4559426     9.9954046     4.0000000
   103   6 C       17.0310661    13.4937762     9.8701461     4.0000000
   104   6 C        7.8167976    14.2866668     0.2922114     4.0000000
   105   6 C       -2.7208910    21.7724441     0.3513459     4.0000000
   106   6 C       -3.8566250     9.0467958     0.3070591     4.0000000
   107   6 C        7.7269457    14.2923996     9.5233625     4.0000000
   108   6 C       -2.7718343    21.8140669     9.5211427     4.0000000
   109   6 C       -4.0230018     9.0599031     9.4927711     4.0000000
   110   6 C        5.2489027     8.4474201    19.1428046     4.0000000
   111   6 C       15.7021798     0.7774393    19.0541091     4.0000000
   112   6 C       17.0789897    13.4250762    19.1328291     4.0000000
   113   6 C        7.4621778    10.1398566     8.1556229     4.0000000
   114   6 C       13.4030870     1.9136114     8.0020374     4.0000000
   115   6 C       17.5101098    10.7553909     8.0786422     4.0000000
   116   6 C        5.3147677    12.5977491    17.7481490     4.0000000
   117   6 C       -0.4074748    20.7380776    17.8695190     4.0000000
   118   6 C       -4.5706455    11.8877044    17.7587925     4.0000000
   119   6 C        2.7037643     4.7958731     0.0901373     4.0000000
   120   6 C        4.3618549     6.4946125     0.2072173     4.0000000
   121   6 C        9.2457931     0.9107902     5.4870605     4.0000000
   122   6 C       -0.1125295     8.8467591     7.1059875     4.0000000
   123   6 C       -5.1857046    21.9759946    19.4156855     4.0000000
   124   6 C       -7.4624669    22.5832525    19.7166898     4.0000000
   125   6 C       -6.5254478    21.8119398    19.0746419     4.0000000
   126   6 C       -1.0611754    18.6069996    17.9033747     4.0000000
   127   6 C       -3.8199957    21.8253475    15.1917597     4.0000000
   128   6 C       -4.4998679    18.0401315     0.1740592     4.0000000
   129   6 C       -5.1658255    18.2929471     2.4382602     4.0000000
   130   6 C       -4.6046972    18.8371038     1.3130554     4.0000000
   131   6 C       -3.0680544     7.1944930    19.2681649     4.0000000
   132   6 C       -2.4866265     4.8960836    19.3803389     4.0000000
   133   6 C       -2.2727601     6.1422105    18.8377284     4.0000000
   134   6 C       -2.4305458    12.5052915    17.6563329     4.0000000
   135   6 C        5.9927624    17.0775410     1.3571888     4.0000000
   136   6 C       -3.6665098     8.3683183    15.1756213     4.0000000
   137   6 C        0.2145420     8.8452556     2.4752846     4.0000000
   138   6 C       -0.5034830     9.0489952     1.3260827     4.0000000
   139   6 C        3.3696234     7.1375870    10.4063340     4.0000000
   140   6 C        1.7596098     5.3947451    10.5391287     4.0000000
   141   6 C        2.1933740     6.6509598    10.9444097     4.0000000
   142   6 C        3.2819665    12.7652930    11.0876314     4.0000000
   143   6 C        4.2305559     8.2316031    13.8273506     4.0000000
   144   6 C        1.3557550     9.5807167     9.3317948     4.0000000
   145   6 C        1.2777038     9.0322356     7.0185572     4.0000000
   146   6 C        2.0203768     9.3931493     8.1172780     4.0000000
   147   6 C       -8.1942173    16.2143943    10.5285857     4.0000000
   148   6 C       -8.7686591    18.5082956    10.7070267     4.0000000
   149   6 C        0.1808590     9.4313134     0.1723336     4.0000000
   150   6 C        5.7677942    17.7470249     2.5309675     4.0000000
   151   6 C        5.2817978    17.4706165     0.2240690     4.0000000
   152   6 C        8.0488321    15.7190817    15.2893491     4.0000000
   153   6 C        2.4898634     4.6406440     9.6063143     4.0000000
   154   6 C        3.6514531     5.1234298     9.0566624     4.0000000
   155   6 C        9.0415177     8.5698386     8.2904516     4.0000000
   156   6 C        4.9895053     7.6153485     5.5729919     4.0000000
   157   6 C        7.7654819     4.9842073     9.7926296     4.0000000
   158   6 C        6.9999788     4.5799751    11.9996345     4.0000000
   159   6 C        6.9040482     5.2899403    10.8258731     4.0000000
   160   6 C       18.2066783     0.6032774     9.5407588     4.0000000
   161   6 C       20.4838432     0.0304492     9.8993618     4.0000000
   162   6 C       19.5527703     0.7971880     9.2436437     4.0000000
   163   6 C       14.0946654     4.0340892     7.9604143     4.0000000
   164   6 C       16.8169940     0.6932001     5.6023939     4.0000000
   165   6 C       17.8012566     4.4613099     9.8129967     4.0000000
   166   6 C       18.4385821     4.0160118    12.0526514     4.0000000
   167   6 C       -0.7827143     9.0258185     8.3061656     4.0000000
   168   6 C       16.0133192    15.4549597     9.5315837     4.0000000
   169   6 C       15.4329468    17.7449790     9.7471507     4.0000000
   170   6 C       15.2120443    16.5229707     9.1548104     4.0000000
   171   6 C       15.3634713    10.1480548     8.0589067     4.0000000
   172   6 C       16.6753585    14.1317772     5.5684390     4.0000000
   173   6 C       12.9897873    13.1912354     9.8624950     4.0000000
   174   6 C       13.0718782    13.8355209    12.1473373     4.0000000
   175   6 C       13.7312630    13.5994267    10.9527664     4.0000000
   176   6 C        8.6769415    16.2641245    19.2626805     4.0000000
   177   6 C       10.3647819    17.9360101    19.3348816     4.0000000
   178   6 C        9.1807299    17.4793221    18.8107009     4.0000000
   179   6 C        3.7199299    14.1522804    17.6562096     4.0000000
   180   6 C       -7.9785641    17.4518246    11.1081639     4.0000000
   181   6 C       -3.1312733    13.5808961    11.2581458     4.0000000
   182   6 C       17.8962190     3.5767632    10.8675425     4.0000000
   183   6 C       -5.1979677    16.8092719     9.4426200     4.0000000
   184   6 C        8.8484965     3.9842794    -0.1625034     4.0000000
   185   6 C        8.0439173     3.6760638    16.9309284     4.0000000
   186   6 C        8.7949149     3.3363379    18.0471748     4.0000000
   187   6 C        8.8811192    16.1606737     9.9412595     4.0000000
   188   6 C       10.5448939    17.8515706     9.8226997     4.0000000
   189   6 C        9.3797974    17.3832085    10.3781834     4.0000000
   190   6 C        3.9082861    13.9844016    11.1369571     4.0000000
   191   6 C        8.1058107    15.6217514    13.9231366     4.0000000
   192   6 C        5.2928050    17.4362275     9.5564568     4.0000000
   193   6 C        5.8188389    17.6716296     7.2515692     4.0000000
   194   6 C        6.0211989    17.0238379     8.4586181     4.0000000
   195   6 C       -4.9728825    21.9626245     9.8723029     4.0000000
   196   6 C       12.6947507     3.9722919     1.4364638     4.0000000
   197   6 C       -7.2541925    22.5693520     9.6065817     4.0000000
   198   6 C       -0.9078497    18.5233445    11.4288374     4.0000000
   199   6 C       -3.8141356    21.7924039    13.8193609     4.0000000
   200   6 C       -4.6931814    18.1308646     9.5503972     4.0000000
   201   6 C       -5.3252517    18.5499093     7.3033911     4.0000000
   202   6 C       -4.7679913    18.9988152     8.4793222     4.0000000
   203   6 C       -2.9811135     7.1068487     9.8049465     4.0000000
   204   6 C       -2.3584168     4.8288984     9.5661453     4.0000000
   205   6 C       -2.1624877     6.0438718    10.1736383     4.0000000
   206   6 C       -2.3825183    12.4323604    11.2985495     4.0000000
   207   6 C       -3.6385027     8.3442510    13.8028953     4.0000000
   208   6 C       -0.0544043     9.4074758     9.4154512     4.0000000
   209   6 C       -7.8644610    14.6654579    13.7969875     4.0000000
   210   6 C       -6.3046855    21.8141859    10.2486100     4.0000000
   211   6 C        6.8555325     1.8633172     1.4936071     4.0000000
   212   6 C        9.2826744     0.8820892     4.1172056     4.0000000
   213   6 C        7.8039751     1.0832836     0.8611011     4.0000000
   214   6 C       -5.7825765    17.2338023     7.1799448     4.0000000
   215   6 C       -5.7321271    16.3559106     8.2397636     4.0000000
   216   6 C        5.4565913    21.3823741    10.7035989     4.0000000
   217   6 C        7.7382003    20.8183133    11.0458654     4.0000000
   218   6 C        6.4001169    20.6099400    11.3533762     4.0000000
   219   6 C        0.4633934    18.5286156    11.4101301     4.0000000
   220   6 C        3.9584397    21.6571553    13.8855447     4.0000000
   221   6 C        4.3815244    18.5244073     9.4582373     4.0000000
   222   6 C        4.9154184    18.7428885     7.1510888     4.0000000
   223   6 C        4.2011752    19.1834748     8.2396884     4.0000000
   224   6 C        9.6268989    15.4475814     0.8989166     4.0000000
   225   6 C        5.5250136     1.6903984     1.1368082     4.0000000
   226   6 C       10.8225910    15.9087843     1.4156117     4.0000000
   227   6 C        9.9313189     9.8353974     1.8606527     4.0000000
   228   6 C       11.3175183    17.1168620     0.9421822     4.0000000
   229   6 C        8.4051893    14.2990092     4.1563798     4.0000000
   230   6 C       18.6708903     6.2734608    18.1109487     4.0000000
   231   6 C       18.7147291     5.4804423    16.9715994     4.0000000
   232   6 C       20.9582817     7.8864722     4.2609109     4.0000000
   233   6 C       16.3645772     8.7629826     1.6850991     4.0000000
   234   6 C       21.1998156     5.0498054     1.4315960     4.0000000
   235   6 C       18.3725829     5.6450217    -0.1110107     4.0000000
   236   6 C       21.4105912     6.3105325     0.9034909     4.0000000
   237   6 C       10.9109374    13.8184018    18.1569511     4.0000000
   238   6 C       11.6456008    14.2856996    17.0830160     4.0000000
   239   6 C       11.8497412    13.1904657    -0.1317355     4.0000000
   240   6 C       21.9808549     4.0094033     0.9744421     4.0000000
   241  17 Cl       4.6518557    19.6412242     4.0590921     7.0000000
   242  17 Cl      21.6389885     2.5279463     7.8716155     7.0000000
   243  17 Cl       8.6841210    20.0391456    17.4161214     7.0000000
   244  17 Cl      -8.7185519    20.0349990    17.9079757     7.0000000
   245  17 Cl       2.4707822     8.6333872     3.9112164     7.0000000
   246  17 Cl       0.3055544     4.9924690    17.8177357     7.0000000
   247  17 Cl       4.2387132     2.6149122     7.5951468     7.0000000
   248  17 Cl      12.6613361    17.7489798     8.1516522     7.0000000
   249  17 Cl      -6.3136507    16.3367219     3.8738733     7.0000000
   250  17 Cl       6.6519718    17.0954213     5.8692149     7.0000000
   251  17 Cl       8.2633740     2.7880183    15.4949072     7.0000000
   252  17 Cl       4.3227337     2.6060388     1.9369354     7.0000000
   253  17 Cl      19.4090047     6.1140875    15.5519070     7.0000000
   254  17 Cl      12.8053390    17.7035220     1.5493517     7.0000000
   255  17 Cl       8.9329877    19.9209720    11.8759908     7.0000000
   256  17 Cl       0.3250585     4.7500430    11.2112220     7.0000000
   257  17 Cl      14.0024050    14.2873542    13.5136810     7.0000000
   258  17 Cl      -1.0234012     8.4371371     5.7139507     7.0000000
   259   1 H       11.2666942    15.3360215     7.6380403     1.0000000
   260   1 H       10.7174321     9.9976528     8.2281856     1.0000000
   261   1 H        7.7639716    14.9930905     6.1367752     1.0000000
   262   1 H       11.2143707    13.8735231    13.1973894     1.0000000
   263   1 H        9.8630094    13.1031652    11.2499346     1.0000000
   264   1 H       20.2617322     4.9730470     7.4667976     1.0000000
   265   1 H       15.7917891     7.9893993     7.9942537     1.0000000
   266   1 H        7.0517413     2.6100447     7.2606201     1.0000000
   267   1 H       19.2078704     5.6541360    13.1733658     1.0000000
   268   1 H       19.0866170     7.2672991    11.2681966     1.0000000
   269   1 H       14.8026209    13.6447247    18.1321198     1.0000000
   270   1 H       12.0674456     4.8840910     7.8181836     1.0000000
   271   1 H       -3.5927000    21.9457661     6.3334218     1.0000000
   272   1 H        8.0467938     3.1063499    13.1187607     1.0000000
   273   1 H       -3.4258364     8.6695106     6.2887655     1.0000000
   274   1 H       13.5574895    14.5226162    16.1707206     1.0000000
   275   1 H       14.9195955    18.3197268     0.4158613     1.0000000
   276   1 H       14.5217110     9.9591276     1.8496051     1.0000000
   277   1 H       -1.8393390     8.8531973     8.3719508     1.0000000
   278   1 H        2.3100799     3.8411460     0.3931543     1.0000000
   279   1 H        4.4340228     4.6920724     1.3516590     1.0000000
   280   1 H        9.7866199     7.6502971     2.0732032     1.0000000
   281   1 H        4.2415205     7.9726757     3.5359645     1.0000000
   282   1 H        6.5452638     4.9189604    16.0686375     1.0000000
   283   1 H        6.1839856     6.2480115    18.1531963     1.0000000
   284   1 H       21.4851412     0.0716882    -0.0264677     1.0000000
   285   1 H       19.7599192     1.3542382     1.1998989     1.0000000
   286   1 H       14.7168752     4.8314525     1.5823672     1.0000000
   287   1 H        4.4701974    21.4888518     3.8076922     1.0000000
   288   1 H       18.3073282     3.5980163    16.0606698     1.0000000
   289   1 H       17.2651338     2.6239360    18.1068560     1.0000000
   290   1 H        9.5680154     2.4716003    11.2351053     1.0000000
   291   1 H       14.6442359    16.0572725     1.3775703     1.0000000
   292   1 H       -7.7140305    15.1440790     3.5640751     1.0000000
   293   1 H        1.6825372     7.4167406    17.3133103     1.0000000
   294   1 H       -7.3009254    17.6495393    17.3320674     1.0000000
   295   1 H        4.6600820     7.5477038    15.8752891     1.0000000
   296   1 H       17.4055127    12.4000715    19.1759205     1.0000000
   297   1 H        9.3211452     5.1121907     6.9277570     1.0000000
   298   1 H       17.0811471     5.7327492     6.8987142     1.0000000
   299   1 H       12.2191699    12.0277963     6.9153314     1.0000000
   300   1 H        3.7293097    17.5490988    16.5883624     1.0000000
   301   1 H       -3.9902480    17.0584060    16.5466752     1.0000000
   302   1 H       14.6688391     1.0601385    19.1564419     1.0000000
   303   1 H        0.5612705    10.6110712    16.5263512     1.0000000
   304   1 H       -3.9869145    16.8801422    12.4784296     1.0000000
   305   1 H        3.8778195    17.4332220    12.5012126     1.0000000
   306   1 H       12.5474405    11.9335445     2.8034406     1.0000000
   307   1 H       17.0905069     5.3921131     2.8742999     1.0000000
   308   1 H        9.2694584     5.1520954     2.8488375     1.0000000
   309   1 H       20.9180094     7.2135258    13.1331918     1.0000000
   310   1 H        0.6931379    10.5394496    12.3856622     1.0000000
   311   1 H        5.9791885     9.2363776    19.2030524     1.0000000
   312   1 H       -4.3364329    10.0833180     9.6120252     1.0000000
   313   1 H       -1.7368448    21.5329614     9.6149145     1.0000000
   314   1 H        3.3766348     9.5414387     1.3884740     1.0000000
   315   1 H       -2.8715626    14.6537497    17.4668408     1.0000000
   316   1 H       16.4980969    14.0049520    15.8284035     1.0000000
   317   1 H       -5.8520360    15.1271187     1.3611846     1.0000000
   318   1 H        5.8756330    20.0695903    17.0816862     1.0000000
   319   1 H        0.9796731    17.7895814    17.7702058     1.0000000
   320   1 H       16.6273343     0.7258865    15.7104818     1.0000000
   321   1 H        3.4392065    20.0390464     1.5332311     1.0000000
   322   1 H        5.9542201     9.0531725     9.8054036     1.0000000
   323   1 H       14.9581500     0.9931268     9.6793205     1.0000000
   324   1 H       17.3322587    12.4647998     9.7744075     1.0000000
   325   1 H        7.1009902    13.4865136     0.2122552     1.0000000
   326   1 H       -1.6868667    21.4985730     0.2349376     1.0000000
   327   1 H       -4.1833210    10.0693806     0.2273385     1.0000000
   328   1 H        6.9872788    13.5109717     9.5834728     1.0000000
   329   1 H        2.0672862    12.7062497    17.5029752     1.0000000
   330   1 H       -1.3177566    12.3438959    11.4578839     1.0000000
   331   1 H        3.4833910    19.9842053     8.1653892     1.0000000
   332   1 H       -1.7306381     3.9925254     9.8191732     1.0000000
   333   1 H        6.2652388    17.4542023     3.4410589     1.0000000
   334   1 H        6.7037093    16.2772300     1.2862250     1.0000000
   335   1 H       -8.5073715    22.4677866    19.4865055     1.0000000
   336   1 H       -6.8043702    21.0658060    18.3534712     1.0000000
   337   1 H       -1.7073760    17.7504770    17.7906308     1.0000000
   338   1 H        8.4444093     0.9537087    15.6347530     1.0000000
   339   1 H        8.8776056    15.7934332    15.9699846     1.0000000
   340   1 H       -5.2871779    18.8754330     3.3361108     1.0000000
   341   1 H       -1.8826498     4.0594765    19.0723828     1.0000000
   342   1 H       -1.4957002     6.3180436    18.1174494     1.0000000
   343   1 H       -1.3666203    12.4288896    17.4898270     1.0000000
   344   1 H       20.8343938     7.2734645    15.8269583     1.0000000
   345   1 H       -0.2795258     8.5823163     3.3966131     1.0000000
   346   1 H       -1.5659292     8.9047513     1.2906640     1.0000000
   347   1 H       -4.2637043    19.8537968     1.2818632     1.0000000
   348   1 H        3.2551128    15.1125757    17.4942739     1.0000000
   349   1 H        8.6403208    18.0298815    18.0630307     1.0000000
   350   1 H       10.7820114    18.8684944    18.9958394     1.0000000
   351   1 H       -1.3807444     6.1954859    10.8945666     1.0000000
   352   1 H        2.1298877     3.6628955     9.3359443     1.0000000
   353   1 H        4.2394096     4.5461324     8.3663020     1.0000000
   354   1 H        9.5023525     7.5960640     8.2220813     1.0000000
   355   1 H        4.1780307     7.9103919     6.2172063     1.0000000
   356   1 H       21.5335880     0.1687731     9.7055748     1.0000000
   357   1 H       19.8387414     1.5614640     8.5444218     1.0000000
   358   1 H       14.7566774     4.8775098     7.8360665     1.0000000
   359   1 H        4.5669592    21.6245631     6.4947690     1.0000000
   360   1 H       17.5637506     2.5631064    10.7651824     1.0000000
   361   1 H       14.8234309    18.5931479     9.4850863     1.0000000
   362   1 H       14.4222155    16.3740147     8.4421778     1.0000000
   363   1 H       14.2947403    10.2228695     7.9205371     1.0000000
   364   1 H       -7.8912040    15.2623098     6.2486934     1.0000000
   365   1 H       14.7895084    13.7553000    10.8764141     1.0000000
   366   1 H        1.6336138     7.2240943    11.6598890     1.0000000
   367   1 H        2.2237188    12.5656928    11.1588778     1.0000000
   368   1 H        6.1646696     6.0578563    10.7161316     1.0000000
   369   1 H        1.7471223     8.9105817     6.0563019     1.0000000
   370   1 H        7.1378907     2.5813560     2.2408299     1.0000000
   371   1 H       12.0290869     4.8154649     1.5407732     1.0000000
   372   1 H       -3.4706533    21.8660511     3.6596429     1.0000000
   373   1 H        9.5217604     2.5423343    18.0037644     1.0000000
   374   1 H       10.9525600    18.7963424    10.1384097     1.0000000
   375   1 H        8.8350972    17.9425028    11.1162867     1.0000000
   376   1 H       19.0288765     7.2889326    18.0919623     1.0000000
   377   1 H        3.4493019    14.9544686    11.2511473     1.0000000
   378   1 H        6.7342654    16.2264527     8.5327933     1.0000000
   379   1 H       -8.2969859    22.4410100     9.8463576     1.0000000
   380   1 H       -1.5624696    17.6765696    11.5691594     1.0000000
   381   1 H        8.4169207     0.8665607    12.9376324     1.0000000
   382   1 H       -4.4039081    20.0040735     8.5604155     1.0000000
   383   1 H        4.6024884     7.4435454    13.1949688     1.0000000
   384   1 H        8.9909711    15.5381061    13.3132930     1.0000000
   385   1 H       -3.3881455     8.5551464     3.6160165     1.0000000
   386   1 H       -6.5704184    21.1037144    11.0102438     1.0000000
   387   1 H       20.4291383     4.8754095     2.1591903     1.0000000
   388   1 H       16.0441109     7.7450683     1.8445282     1.0000000
   389   1 H       -7.2037432    17.5973132    11.8379124     1.0000000
   390   1 H       -2.7855457    14.5941712    11.3909954     1.0000000
   391   1 H       -6.1383476    16.9110091     6.2153048     1.0000000
   392   1 H       -6.0568734    15.3325572     8.1478137     1.0000000
   393   1 H        6.1109997    19.8873700    12.0936087     1.0000000
   394   1 H        1.1266158    17.6864832    11.5373334     1.0000000
   395   1 H       16.4790126    14.0011348    13.1507173     1.0000000
   396   1 H        4.7650922    19.1857519     6.1814340     1.0000000
   397   1 H        9.8428324    13.9303951    18.1857370     1.0000000
   398   1 H       16.8447487     0.5925480    13.0443025     1.0000000
   399   1 H       10.9713236    10.0564997     2.0452976     1.0000000
   400   1 H        7.9143098    14.9624585     3.4645604     1.0000000
   401   1 H       11.3694797    15.3335470     2.1391637     1.0000000
   402   1 H        3.0801510     9.5791463     8.0531875     1.0000000
   403   7 N        9.1365998     1.0266461     8.4978309     5.0000000
   404   7 N       -4.5197277    13.2473163    17.7126233     5.0000000
   405   7 N       -7.5782771    14.9513738    18.3445050     5.0000000
   406   7 N       -5.0102725    16.2741621    18.2565767     5.0000000
   407   7 N        1.7068127    10.0783549    18.2583527     5.0000000
   408   7 N        3.5854658     9.4268124    15.5802045     5.0000000
   409   7 N        4.1072954    11.9702573    17.7176814     5.0000000
   410   7 N        3.7973761    21.6124462    18.3713647     5.0000000
   411   7 N        4.1621489     8.4796559    18.3526331     5.0000000
   412   7 N        9.3952196     3.8826691     8.6987619     5.0000000
   413   7 N        9.8674548     2.0705276     5.9012857     5.0000000
   414   7 N       12.3082066     2.7217985     7.9850406     5.0000000
   415   7 N       -6.5487526    14.8204586    15.5773299     5.0000000
   416   7 N        8.6748769    10.7560626     8.2147134     5.0000000
   417   7 N       19.6157795     7.8252169     6.0305134     5.0000000
   418   7 N       17.4509576     9.3973990     8.1141194     5.0000000
   419   7 N       20.6018031     7.5953431     8.6537832     5.0000000
   420   7 N       11.1480365    12.6124105     8.6965565     5.0000000
   421   7 N        9.0947504    13.2554604     5.9924923     5.0000000
   422   7 N        8.7958436    14.2691625     8.7088408     5.0000000
   423   7 N       13.6594905    12.6488093     1.1067591     5.0000000
   424   7 N       15.8088137    13.1752463     3.7561071     5.0000000
   425   7 N       16.3700841    13.8946851     0.5423760     5.0000000
   426   7 N       17.3135564     4.1011093     1.1536089     5.0000000
   427   7 N        0.7013203    19.9489686    17.8746248     5.0000000
   428   7 N       16.5227053     1.9022418     3.7574398     5.0000000
   429   7 N       14.4875694     2.6665242     1.5019484     5.0000000
   430   7 N       18.0505252     6.4016399     8.6994481     5.0000000
   431   7 N        3.1847667    20.5878496    15.6653240     5.0000000
   432   7 N        4.5283174    15.7353318    14.4753282     5.0000000
   433   7 N        6.1839675    10.8154486     8.0604529     5.0000000
   434   7 N       -8.5260541    19.8242406    11.2782786     5.0000000
   435   7 N       16.9794824     1.1518919     0.4528509     5.0000000
   436   7 N       21.7289841     2.6675268     1.4782823     5.0000000
   437   7 N        6.0546005     4.9096404    13.0587452     5.0000000
   438   7 N       18.5626210     3.0502214    13.1357029     5.0000000
   439   7 N       -5.4258966    19.4890752     6.1947340     5.0000000
   440   7 N       10.9864791    15.0867885    16.0554341     5.0000000
   441   7 N       10.8459138     4.0797607     4.7901572     5.0000000
   442   7 N       17.4248833     7.4120304     4.8969675     5.0000000
   443   7 N       10.5760620    11.5185615     4.9646356     5.0000000
   444   7 N        2.2606449    18.5402337    14.5778999     5.0000000
   445   7 N       -4.3341301    15.1233376    14.4788714     5.0000000
   446   7 N        2.3577516    11.2654020    14.4262350     5.0000000
   447   7 N       -1.2085541    10.9223646    14.4982214     5.0000000
   448   7 N       -2.8067156    18.4130349    14.5932314     5.0000000
   449   7 N       14.2315170    11.5707290     4.8348246     5.0000000
   450   7 N       15.8997006     4.0895119     4.7852846     5.0000000
   451   7 N        8.4672034     6.8533134     4.9630264     5.0000000
   452   7 N       13.3838947     0.4084463     1.5661813     5.0000000
   453   7 N       18.9267999    11.3384279     1.6761841     5.0000000
   454   7 N        6.4363082    10.8034005     1.6679865     5.0000000
   455   7 N       -0.2112191    22.0962902    11.4170728     5.0000000
   456   7 N       -5.7617370    11.0804675    11.2879173     5.0000000
   457   7 N        6.7548687    11.7234972    11.2782185     5.0000000
   458   7 N       -5.7772844    11.0867174    17.7543795     5.0000000
   459   7 N       -0.4086585    22.1861060    17.8334172     5.0000000
   460   7 N        6.6034934    11.9385134    17.7564131     5.0000000
   461   7 N       18.7302755    11.5338748     8.0158405     5.0000000
   462   7 N       13.3774067     0.4647104     7.9607972     5.0000000
   463   7 N        3.5467243    18.7478401    18.3591637     5.0000000
   464   7 N        7.9887530     5.6037916     1.1584692     5.0000000
   465   7 N       16.4398633    10.9779789     1.6516122     5.0000000
   466   7 N        7.9655073     8.8124067     1.7630772     5.0000000
   467   7 N        1.7733329     9.9857341    10.6021151     5.0000000
   468   7 N        3.5885179     9.3667832    13.3776824     5.0000000
   469   7 N        4.2617860    11.7957127    11.1420459     5.0000000
   470   7 N        4.1091784     8.3135137    10.6171382     5.0000000
   471   7 N       -0.4965982     9.8367974    18.2462857     5.0000000
   472   7 N       -2.7131552     9.2662519    15.6057205     5.0000000
   473   7 N       -3.2881330    11.4267481    17.7265908     5.0000000
   474   7 N       -3.1551642     8.5485029    18.9151847     5.0000000
   475   7 N       -4.2438671    18.3552778    18.2616182     5.0000000
   476   7 N       -3.5343438    20.5569306    15.6499294     5.0000000
   477   7 N       -1.4956313    19.9167554    17.8829150     5.0000000
   478   7 N       -4.0093393    21.3514592    18.9974374     5.0000000
   479   7 N        6.7230275    15.7445670    15.6594166     5.0000000
   480   7 N       -7.5830267    14.9649818    10.6969643     5.0000000
   481   7 N        5.0828178    13.9409756    17.7115225     5.0000000
   482   7 N       13.3500732    12.8304078     8.5543818     5.0000000
   483   7 N       15.6692999    13.2721925     5.9543343     5.0000000
   484   7 N       16.2285863    11.2229341     8.0531783     5.0000000
   485   7 N       16.0701882    14.1080455     9.1465515     5.0000000
   486   7 N       17.2965400     4.3257692     8.5138251     5.0000000
   487   7 N       16.5864062     2.0044412     5.9592749     5.0000000
   488   7 N       14.5059663     2.7168278     7.9949662     5.0000000
   489   7 N       17.0369407     1.2408663     9.1241007     5.0000000
   490   7 N        7.9277186     5.5335285     8.5158822     5.0000000
   491   7 N        6.2418820     7.2370030     6.0076624     5.0000000
   492   7 N        7.6826937     8.7938691     8.2000764     5.0000000
   493   7 N        5.2262139     7.1329608     9.1211253     5.0000000
   494   7 N        6.2934320     7.2657890     3.8020383     5.0000000
   495   7 N        7.5645746    15.4988831    18.9090529     5.0000000
   496   7 N       -4.4604706    13.2082146    11.2285943     5.0000000
   497   7 N        4.9761339    17.0578238    18.2865177     5.0000000
   498   7 N       -4.9942422    16.2157229    10.6967891     5.0000000
   499   7 N        5.4922443     7.2433010     0.5381163     5.0000000
   500   7 N       -6.5535043    14.7899973    13.3748503     5.0000000
   501   7 N       -0.4241229     9.7436456    10.7298069     5.0000000
   502   7 N       -2.6650322     9.2322716    13.3995787     5.0000000
   503   7 N       -3.2600107    11.3673110    11.2823066     5.0000000
   504   7 N       -3.0529824     8.4410658    10.2071952     5.0000000
   505   7 N       -4.1760306    18.2700155    10.8457493     5.0000000
   506   7 N       -3.5201290    20.4996470    13.4443228     5.0000000
   507   7 N       -1.3272753    19.8380618    11.4040466     5.0000000
   508   7 N        5.1884789    16.9407460    10.8661572     5.0000000
   509   7 N        6.8062483    15.5992420    13.4603698     5.0000000
   510   7 N        5.2659351    13.7505594    11.2197138     5.0000000
   511   7 N        7.7560458    15.4110792    10.2867784     5.0000000
   512   7 N        9.4245751     3.9138019     1.1134001     5.0000000
   513   7 N        9.9221288     2.0312940     3.7008449     5.0000000
   514   7 N       -3.7962745    21.3171504    10.2539731     5.0000000
   515   7 N        0.8712978    19.8463016    11.3772540     5.0000000
   516   7 N        4.0596090    21.4811158    10.8147687     5.0000000
   517   7 N       12.2911393     2.6533373     1.4607747     5.0000000
   518   7 N        3.3154558    20.5100100    13.4686568     5.0000000
   519   7 N        3.7845494    18.6452122    10.7166099     5.0000000
   520   7 N        8.8931301    14.2672272     1.0972861     5.0000000
   521   7 N        9.2381482    13.2594221     3.7945062     5.0000000
   522   7 N        8.9376272    10.7862455     1.7466021     5.0000000
   523   7 N       20.7824934     7.5441386     1.1139637     5.0000000
   524   7 N       17.6835536     9.1686567     1.6454866     5.0000000
   525   7 N       19.6589440     7.7014489     3.8330417     5.0000000
   526   7 N       18.1653663     6.1475440     1.1835768     5.0000000
   527   7 N        9.1970843     0.9760446     0.9995765     5.0000000
   528   7 N       11.4436458    12.7099929     1.1261882     5.0000000
   529   8 O       -0.0507549    21.6325358     8.3950785     6.0000000
   530   8 O        1.9498530    11.7227657    15.4978117     6.0000000
   531   8 O        6.6446217    10.7257454    17.9987498     6.0000000
   532   8 O       10.9934964     4.6579376     5.8715548     6.0000000
   533   8 O       16.7949815     7.4757703     5.9558545     6.0000000
   534   8 O        2.0757346    21.5659255     2.0500039     6.0000000
   535   8 O       10.7628712    10.9411887     6.0394317     6.0000000
   536   8 O        6.1489182    12.0355656     8.2665159     6.0000000
   537   8 O       14.0029226    11.0023770     3.7626061     6.0000000
   538   8 O       -6.3824891    13.1294247     1.9506723     6.0000000
   539   8 O       15.5448896     4.5551954     3.6996567     6.0000000
   540   8 O       18.3465562    11.0574558    17.9842916     6.0000000
   541   8 O       -5.3988983    11.5517727     8.2527143     6.0000000
   542   8 O       -3.7772224    15.3336401    15.5599913     6.0000000
   543   8 O       -7.6527486    19.9357109    12.1499820     6.0000000
   544   8 O        1.8980677    18.0680127    15.6599109     6.0000000
   545   8 O       10.7930012    14.5958755    14.9376267     6.0000000
   546   8 O       10.6463840    16.2394048    16.3537010     6.0000000
   547   8 O       -4.9317442    20.6138433     6.3362901     6.0000000
   548   8 O       -5.9971768    19.1354660     5.1574047     6.0000000
   549   8 O       19.0222421     3.4189150    14.2213242     6.0000000
   550   8 O       18.1979278     1.8869608    12.9238634     6.0000000
   551   8 O        6.1851979     4.3874683    14.1708158     6.0000000
   552   8 O        5.1497535     5.7128309    12.8010301     6.0000000
   553   8 O       22.3795680     1.7229662     1.0116575     6.0000000
   554   8 O       20.8522240     2.5173001     2.3407179     6.0000000
   555   8 O       -9.1807356    20.7868188    10.8571068     6.0000000
   556   8 O        9.0681235     6.6835827     3.9001893     6.0000000
   557   8 O       13.0097731     1.0365356    17.8713620     6.0000000
   558   8 O        5.4265436    10.1223634     1.8913836     6.0000000
   559   8 O       19.5199342     9.2861742    17.5225195     6.0000000
   560   8 O       19.5083920     9.2867574    11.5559367     6.0000000
   561   8 O        5.1761227    10.1497954     7.7877697     6.0000000
   562   8 O       -0.7675805    11.3113232    13.4129679     6.0000000
   563   8 O        2.0634718    21.6024856     7.8891627     6.0000000
   564   8 O       15.8579927     4.7306525     5.8379907     6.0000000
   565   8 O       -6.5502311    13.3251736     7.7386147     6.0000000
   566   8 O       13.7062760    11.2399725     5.9022052     6.0000000
   567   8 O        7.6158519    12.6135668    17.5286784     6.0000000
   568   8 O        3.9129484    15.9441099    15.5237570     6.0000000
   569   8 O       10.8896994     1.0286634    17.3869191     6.0000000
   570   8 O       -2.5030490    17.9209639    15.6822765     6.0000000
   571   8 O       -0.9076003    11.4420454    15.5758431     6.0000000
   572   8 O        6.7804165    10.5044242    11.0668945     6.0000000
   573   8 O        2.0711178    11.7500851    13.3275024     6.0000000
   574   8 O        9.0324768     6.8622217     6.0599830     6.0000000
   575   8 O       -3.7317665    15.1211400    13.4020585     6.0000000
   576   8 O       18.3733880    11.0708109    11.0451241     6.0000000
   577   8 O       11.0993180     0.9524538    11.4919735     6.0000000
   578   8 O        3.9725584    15.6032270    13.3814092     6.0000000
   579   8 O        7.7717316    12.3857470    11.5240702     6.0000000
   580   8 O       11.1446466     4.5837522     3.7027621     6.0000000
   581   8 O       -0.0321144    21.5586689     1.5159084     6.0000000
   582   8 O       -2.6813494    17.8110689    13.5237484     6.0000000
   583   8 O       -5.1893166    11.3852661     1.4404947     6.0000000
   584   8 O       11.1570647    11.2046419     3.9226037     6.0000000
   585   8 O        6.3866341    12.0154051     1.4224166     6.0000000
   586   8 O        2.1645444    17.9362107    13.5049505     6.0000000
   587   8 O       16.8983940     7.1263491     3.8184334     6.0000000
   588   8 O       13.2127034     0.9333442    10.9765241     6.0000000
   589  30 Zn      -3.3080944    19.9250846    11.5587008     2.0000000
   590  30 Zn      -2.2564191     9.6695658    11.5099848     2.0000000
   591  30 Zn       6.9156765     7.1269698     1.9034718     2.0000000
   592  30 Zn      16.4314342     2.4432445     1.8357827     2.0000000
   593  30 Zn       9.3301914    12.5917463     7.8554879     2.0000000
   594  30 Zn      18.8561843     8.0212810     7.8601282     2.0000000
   595  30 Zn      10.3667794     2.4017902     7.7907771     2.0000000
   596  30 Zn       3.5183142    10.1026085    17.4421612     2.0000000
   597  30 Zn       6.2674336    15.4320343    11.5640580     2.0000000
   598  30 Zn      15.5080193    12.7037952     1.8494740     2.0000000
   599  30 Zn      10.3822412     2.3288826     1.8113073     2.0000000
   600  30 Zn      -3.4554204    20.0667636    17.5932473     2.0000000
   601  30 Zn       9.6127498    12.6438751     1.9421985     2.0000000
   602  30 Zn       2.8185153    20.1515547    11.5815003     2.0000000
   603  30 Zn      -5.8362751    14.6071776    11.5246387     2.0000000
   604  30 Zn       3.5543576     9.9805176    11.4864802     2.0000000
   605  30 Zn      -2.3525226     9.6935053    17.5229672     2.0000000
   606  30 Zn       6.1322451    15.6205900    17.5554191     2.0000000
   607  30 Zn      15.2110451    12.9126529     7.8453612     2.0000000
   608  30 Zn      16.4843960     2.6287991     7.8381132     2.0000000
   609  30 Zn       6.7732581     7.0493860     7.9069667     2.0000000
   610  30 Zn      -5.8610750    14.6734559    17.4307803     2.0000000
   611  30 Zn      19.0265388     7.7621785     1.9623987     2.0000000
   612  30 Zn       2.6107409    20.2880670    17.5298084     2.0000000

 * 3D periodic system

 * cell parameter

      |a|/Å         |b|/Å         |c|/Å        α/°      β/°      γ/°
   25.2111413    25.0131156    19.3662423    88.967   90.769  120.946

 * direct lattice/Å

            a    25.2042828    -0.5880151    -0.0033663
            b   -12.3585605    21.7458906     0.1953992
            c    -0.2555376     0.0822684    19.3643816

 * reciprocal lattice/Å⁻¹

           a*     0.2526399     0.1435551     0.0027240
           b*     0.0068315     0.2928295    -0.0011539
           c*    -0.0000250    -0.0029299     0.3244834

 * geometry in fractional coordinates

     #   Z                         fractional coordinates
     1   6 C        0.3149849     0.2925333     0.4775269
     2   6 C        0.9725242     0.2929532     0.4791294
     3   6 C        0.9680601     0.1997954     0.4743891
     4   6 C        0.9441236     0.2350184     0.4563330
     5   6 C        0.8249112     0.3900575     0.4180411
     6   6 C        0.9871176     0.3596946     0.2878739
     7   6 C        0.8205654     0.2363930     0.5037288
     8   6 C        0.8259013     0.2189253     0.6231007
     9   6 C        0.8495417     0.2554059     0.5666942
    10   6 C        0.3215778     0.0293369     0.4760935
    11   6 C        0.2342971     0.0363001     0.4689676
    12   6 C        0.2933218     0.0584608     0.4514278
    13   6 C        0.5672035     0.1763376     0.4182492
    14   6 C        0.7500021     0.5975816     0.5682423
    15   6 C        0.4165774     0.1802908     0.5031607
    16   6 C        0.4058167     0.1508229     0.5658839
    17   6 C        0.2939316     0.3196332     0.9728931
    18   6 C        0.2015161     0.2298642     0.9744020
    19   6 C        0.2349693     0.2886512     0.9539889
    20   6 C        0.3849847     0.5650108     0.9168761
    21   6 C        0.3542210     0.3780972     0.7821225
    22   6 C        0.2367986     0.4123596     0.0078232
    23   6 C        0.2284339     0.3859497     0.1263778
    24   6 C        0.2592795     0.3984325     0.0647353
    25   6 C        0.0239055     0.7058569     0.9711760
    26   6 C        0.0267494     0.7983322     0.9718845
    27   6 C        0.0514391     0.7644551     0.9508920
    28   6 C        0.3922525     0.1740203     0.6221279
    29   6 C        0.1760728     0.6139132     0.9149626
    30   6 C        0.7864960     0.6088391     0.6241051
    31   6 C        0.6402610     0.6248172     0.2880618
    32   6 C        0.2852476     0.2328210     0.0319653
    33   6 C        0.5623765     0.3865167     0.0816696
    34   6 C        0.3745838     0.3591611     0.2118269
    35   6 C        0.4135906     0.2296638     0.9962326
    36   6 C        0.3916056     0.2120267     0.8766996
    37   6 C        0.4024142     0.2477967     0.9331729
    38   6 C        0.7097488     0.0231143     0.0135391
    39   6 C        0.7985652     0.0186655     0.0078835
    40   6 C        0.7691594     0.0466584     0.0312352
    41   6 C        0.6181163     0.1770401     0.0796954
    42   6 C        0.6417914     0.0155105     0.2125513
    43   6 C        0.7727994     0.1840244     0.9956008
    44   6 C        0.7679122     0.5870962     0.5046622
    45   6 C        0.7905814     0.1809317     0.8759272
    46   6 C        0.9731082     0.6817250     0.0144198
    47   6 C        0.9745468     0.7735368     0.0111817
    48   6 C        0.9477797     0.7158015     0.0332306
    49   6 C        0.8247742     0.4376509     0.0811764
    50   6 C        0.9870366     0.6258838     0.2129111
    51   6 C        0.8179266     0.5836870     0.9967640
    52   6 C        0.8242567     0.6072358     0.8775830
    53   6 C        0.8474382     0.5940520     0.9341228
    54   6 C        0.7060070     0.6787556     0.4804107
    55   6 C        0.7991548     0.7675947     0.4779475
    56   6 C        0.7644686     0.7084781     0.4594923
    57   6 C        0.6101682     0.4340791     0.4181527
    58   6 C        0.7547579     0.1553127     0.9322067
    59   6 C        0.0141165     0.6403269     0.7854575
    60   6 C        0.1741435     0.7628299     0.9996349
    61   6 C        0.1574551     0.7671983     0.1192881
    62   6 C        0.9185701     0.4589107     0.0886738
    63   6 C        0.5452742     0.0833917     0.0859802
    64   6 C        0.4382502     0.3313343     0.2459922
    65   6 C        0.6702522     0.1072193     0.2463891
    66   6 C        0.8953238     0.5623984     0.2466732
    67   6 C        0.5557904     0.6699486     0.7522699
    68   6 C        0.3303461     0.8925537     0.7529226
    69   6 C        0.1076212     0.4364050     0.7533667
    70   6 C        0.3316344     0.4455786     0.7476655
    71   6 C        0.1040710     0.6649054     0.7479823
    72   6 C        0.5541586     0.8871636     0.7472666
    73   6 C        0.6668376     0.5601443     0.2540476
    74   6 C        0.5416356     0.4593438     0.0898587
    75   6 C        0.8963415     0.3347862     0.2535728
    76   6 C        0.4409177     0.2156244     0.3960949
    77   6 C        0.7862063     0.2246105     0.3960992
    78   6 C        0.7772064     0.5623181     0.3974076
    79   6 C        0.5585598     0.7795702     0.9060718
    80   6 C        0.2190886     0.7819759     0.8977189
    81   6 C        0.2202025     0.4411629     0.9063379
    82   6 C        0.2227249     0.4400970     0.5935801
    83   6 C        0.2132545     0.7744198     0.6042562
    84   6 C        0.5564360     0.7812064     0.5939322
    85   6 C        0.7828026     0.5603471     0.1039979
    86   6 C        0.7823522     0.2182244     0.1028627
    87   6 C        0.4399444     0.2203323     0.1027294
    88   6 C        0.4470454     0.1097972     0.2515499
    89   6 C        0.4530476     0.9163419     0.5879228
    90   6 C        0.0820846     0.5363337     0.5894508
    91   6 C        0.4583605     0.5448910     0.5861751
    92   6 C        0.1382210     0.7385103     0.0565902
    93   6 C        0.6812923     0.9723030     0.9704394
    94   6 C        0.7695856     0.9669588     0.9679438
    95   6 C        0.7108104     0.9436183     0.9484781
    96   6 C        0.4365572     0.8223496     0.9180866
    97   6 C        0.6227680     0.9770488     0.7808919
    98   6 C        0.5882287     0.8254043     0.0073165
    99   6 C        0.6148036     0.8434103     0.1258645
   100   6 C        0.6025487     0.8619400     0.0641873
   101   6 C        0.3863283     0.3862282     0.4937434
   102   6 C        0.6128703     0.9998734     0.4957023
   103   6 C        0.9951215     0.6092955     0.4957823
   104   6 C        0.6121343     0.6145473     0.0042966
   105   6 C        0.3863514     0.9980642     0.0040525
   106   6 C        0.0078007     0.3917183     0.0049677
   107   6 C        0.6114678     0.6139272     0.5036248
   108   6 C        0.3840636     0.9977800     0.5038751
   109   6 C        0.0025837     0.3872981     0.5042622
   110   6 C        0.3873854     0.3871784     0.9973584
   111   6 C        0.6161447     0.0008382     0.9970531
   112   6 C        0.9982732     0.6125483     0.9963287
   113   6 C        0.5375671     0.4552029     0.4105041
   114   6 C        0.5470978     0.0827980     0.4132047
   115   6 C        0.9185973     0.4629802     0.4116014
   116   6 C        0.4580812     0.5443474     0.9135067
   117   6 C        0.4567358     0.9159641     0.9142996
   118   6 C        0.0826334     0.5400744     0.9111709
   119   6 C        0.2271033     0.2020236     0.0114035
   120   6 C        0.3188526     0.2924884     0.0140665
   121   6 C        0.3770368     0.0213918     0.2873574
   122   6 C        0.1578299     0.3849841     0.3739427
   123   6 C        0.2920894     0.9732417     0.9866609
   124   6 C        0.2020252     0.9752740     0.9898569
   125   6 C        0.2326446     0.9480666     0.9681158
   126   6 C        0.3838984     0.8221855     0.9194074
   127   6 C        0.3596415     0.9844246     0.7868074
   128   6 C        0.2291036     0.8166897     0.0047580
   129   6 C        0.2119659     0.8201942     0.1245379
   130   6 C        0.2476621     0.8454092     0.0680835
   131   6 C        0.0274093     0.3185170     0.9857094
   132   6 C        0.0173949     0.2227121     0.9872979
   133   6 C        0.0484251     0.2809728     0.9662316
   134   6 C        0.1765610     0.5615976     0.9171023
   135   6 C        0.6007920     0.7529087     0.0737781
   136   6 C        0.0158107     0.3747222     0.7879588
   137   6 C        0.1748790     0.3864988     0.1308381
   138   6 C        0.1514946     0.3991765     0.0741703
   139   6 C        0.2925691     0.3212034     0.5201342
   140   6 C        0.1998890     0.2319961     0.5255351
   141   6 C        0.2347524     0.2912680     0.5433095
   142   6 C        0.3854171     0.5656924     0.5811335
   143   6 C        0.3527429     0.3776789     0.7114260
   144   6 C        0.2317308     0.4126748     0.4873197
   145   6 C        0.2123444     0.3864909     0.3685372
   146   6 C        0.2490976     0.3997545     0.4246482
   147   6 C        0.0295661     0.7046400     0.5187965
   148   6 C        0.0392663     0.7999392     0.5239159
   149   6 C        0.1824972     0.4126853     0.0119459
   150   6 C        0.6137816     0.7890818     0.1303885
   151   6 C        0.5874501     0.7705699     0.0115777
   152   6 C        0.6228848     0.6478328     0.7888993
   153   6 C        0.2229133     0.2028629     0.4864202
   154   6 C        0.2799126     0.2325338     0.4618070
   155   6 C        0.5575138     0.3816453     0.4154510
   156   6 C        0.3747263     0.3586283     0.2825419
   157   6 C        0.4135864     0.2329591     0.4978982
   158   6 C        0.3885890     0.2255497     0.6162787
   159   6 C        0.3993198     0.2552889     0.5546043
   160   6 C        0.7065100     0.0222834     0.4790180
   161   6 C        0.7963684     0.0202198     0.4871952
   162   6 C        0.7664624     0.0474183     0.4629732
   163   6 C        0.6199527     0.1767547     0.4153048
   164   6 C        0.6418323     0.0162309     0.2832582
   165   6 C        0.7677556     0.1808502     0.4985165
   166   6 C        0.7743365     0.1637499     0.6172160
   167   6 C        0.1394962     0.3966025     0.4361318
   168   6 C        0.9791339     0.6847406     0.4759233
   169   6 C        0.9879201     0.7797512     0.4842645
   170   6 C        0.9576928     0.7225651     0.4596198
   171   6 C        0.8249052     0.4426099     0.4154991
   172   6 C        0.9860651     0.6259829     0.2836142
   173   6 C        0.8232525     0.5890993     0.4986275
   174   6 C        0.8410600     0.6105724     0.6180904
   175   6 C        0.8597687     0.6011106     0.5550809
   176   6 C        0.6820783     0.7082872     0.9848845
   177   6 C        0.7744343     0.7980975     0.9877846
   178   6 C        0.7166707     0.7675534     0.9657496
   179   6 C        0.4376217     0.6174971     0.9188972
   180   6 C        0.0601571     0.7625369     0.5415646
   181   6 C        0.1754942     0.6098777     0.5829064
   182   6 C        0.7449110     0.1445741     0.5553903
   183   6 C        0.1788393     0.7622545     0.4966403
   184   6 C        0.4131576     0.1750234     0.0010834
   185   6 C        0.3907226     0.1577993     0.8817311
   186   6 C        0.4012197     0.1390065     0.9441519
   187   6 C        0.6827525     0.7073652     0.5217964
   188   6 C        0.7752747     0.7968538     0.5153432
   189   6 C        0.7176474     0.7673018     0.5379767
   190   6 C        0.4380292     0.6182067     0.5829157
   191   6 C        0.6224910     0.6461323     0.7182144
   192   6 C        0.5867661     0.7649565     0.4932236
   193   6 C        0.6138744     0.7730282     0.3749204
   194   6 C        0.6013251     0.7425065     0.4367819
   195   6 C        0.2915313     0.9791299     0.5198272
   196   6 C        0.5655249     0.1769949     0.0817296
   197   6 C        0.2037431     0.9851594     0.5095661
   198   6 C        0.3793453     0.8228782     0.5853690
   199   6 C        0.3587240     0.9835511     0.7160989
   200   6 C        0.2312137     0.8181566     0.5018732
   201   6 C        0.2244845     0.8350424     0.3831451
   202   6 C        0.2537033     0.8545439     0.4450345
   203   6 C        0.0234414     0.3150126     0.5219695
   204   6 C        0.0202258     0.2225453     0.5135029
   205   6 C        0.0479044     0.2795921     0.5380057
   206   6 C        0.1760386     0.5575919     0.5848189
   207   6 C        0.0161434     0.3749391     0.7172186
   208   6 C        0.1764214     0.4108190     0.4925967
   209   6 C        0.0128467     0.6392689     0.7147548
   210   6 C        0.2318609     0.9566871     0.5355203
   211   6 C        0.2885197     0.0523459     0.0493047
   212   6 C        0.3771832     0.0207453     0.2166603
   213   6 C        0.3192796     0.0244233     0.0292761
   214   6 C        0.1732115     0.7796370     0.3772688
   215   6 C        0.1498808     0.7430817     0.4336692
   216   6 C        0.6779851     0.9711077     0.5214927
   217   6 C        0.7673975     0.9679274     0.5261399
   218   6 C        0.7081490     0.9433278     0.5442219
   219   6 C        0.4316780     0.8224211     0.5833398
   220   6 C        0.6224974     0.9756698     0.7101914
   221   6 C        0.5854296     0.8186965     0.4883183
   222   6 C        0.6128997     0.8263339     0.3698632
   223   6 C        0.5992953     0.8495551     0.4259752
   224   6 C        0.7060150     0.6812583     0.0278359
   225   6 C        0.2298641     0.0277403     0.0286536
   226   6 C        0.7645759     0.7119593     0.0482935
   227   6 C        0.6149431     0.4390238     0.0846500
   228   6 C        0.7987521     0.7705464     0.0275814
   229   6 C        0.6409824     0.6247175     0.2173444
   230   6 C        0.8632919     0.2631371     0.9441337
   231   6 C        0.8446782     0.2343387     0.8814218
   232   6 C        0.9864801     0.3590369     0.2171626
   233   6 C        0.8250139     0.3852325     0.0841071
   234   6 C        0.9452860     0.2382815     0.0473963
   235   6 C        0.8272905     0.2383348     0.0009240
   236   6 C        0.9765516     0.2970422     0.0281082
   237   6 C        0.7426012     0.6000126     0.9445697
   238   6 C        0.7727295     0.6109505     0.8831441
   239   6 C        0.7648194     0.5859236     0.0015138
   240   6 C        0.9657009     0.2012121     0.0266694
   241  17 Cl       0.6300341     0.8879580     0.1967256
   242  17 Cl       0.9320509     0.1269329     0.4503324
   243  17 Cl       0.8064154     0.9307863     0.9446101
   244  17 Cl       0.0624565     0.8721949     0.9522728
   245  17 Cl       0.2578078     0.3706447     0.1971305
   246  17 Cl       0.1270484     0.1922358     0.9581544
   247  17 Cl       0.1991604     0.0734220     0.4426414
   248  17 Cl       0.8728546     0.8042051     0.4575557
   249  17 Cl       0.1133386     0.7357729     0.1900045
   250  17 Cl       0.6294981     0.7433932     0.3046154
   251  17 Cl       0.3772686     0.1133088     0.8111640
   252  17 Cl       0.1920541     0.0637992     0.0481853
   253  17 Cl       0.8892033     0.2659802     0.8110721
   254  17 Cl       0.8720656     0.8090390     0.0496223
   255  17 Cl       0.8048184     0.9323202     0.5494411
   256  17 Cl       0.1270058     0.1947328     0.5494377
   257  17 Cl       0.8858695     0.6233025     0.6881658
   258  17 Cl       0.1128037     0.3700268     0.3036056
   259   1 H        0.7830043     0.6857433     0.4321370
   260   1 H        0.6542069     0.4403898     0.4143316
   261   1 H        0.6294148     0.6514044     0.3207968
   262   1 H        0.7729932     0.6152405     0.6741736
   263   1 H        0.7083039     0.5963549     0.5723568
   264   1 H        0.9037147     0.2173848     0.4273524
   265   1 H        0.7873531     0.3460019     0.4133152
   266   1 H        0.3169151     0.0979866     0.4210718
   267   1 H        0.8468642     0.2322042     0.6728699
   268   1 H        0.8897936     0.2973988     0.5697774
   269   1 H        0.8876936     0.5922938     0.9313581
   270   1 H        0.5602480     0.2135949     0.4131388
   271   1 H        0.3457875     0.9872798     0.3211055
   272   1 H        0.3841557     0.1528137     0.6717852
   273   1 H        0.0242264     0.3695352     0.3207162
   274   1 H        0.8456100     0.6152108     0.8280269
   275   1 H        0.9553361     0.8006450     0.0232222
   276   1 H        0.7870823     0.4439811     0.0853687
   277   1 H        0.0970115     0.3935627     0.4403793
   278   1 H        0.2002072     0.1556028     0.0230897
   279   1 H        0.3055279     0.2120219     0.0599370
   280   1 H        0.5558471     0.3423833     0.0851944
   281   1 H        0.3484871     0.3705930     0.1790266
   282   1 H        0.3849823     0.2258985     0.8269308
   283   1 H        0.4028762     0.2891654     0.9298757
   284   1 H        0.8448933     0.0367854     0.0195885
   285   1 H        0.7913473     0.0864398     0.0615351
   286   1 H        0.6620608     0.2146579     0.0849484
   287   1 H        0.6302654     0.9779048     0.1798516
   288   1 H        0.7767791     0.1609391     0.8259213
   289   1 H        0.7133910     0.1144394     0.9284534
   290   1 H        0.4075367     0.1105576     0.5689061
   291   1 H        0.9076761     0.6962083     0.0630623
   292   1 H        0.0247018     0.6518628     0.1802548
   293   1 H        0.2150320     0.3103544     0.9272660
   294   1 H        0.0922029     0.7837668     0.9224049
   295   1 H        0.3643481     0.3512730     0.8154527
   296   1 H        0.9983461     0.5712663     0.9986070
   297   1 H        0.4620831     0.2247262     0.3463870
   298   1 H        0.7775519     0.2363846     0.3459808
   299   1 H        0.7643033     0.5408019     0.3479990
   300   1 H        0.5366152     0.7669957     0.8568263
   301   1 H        0.2318578     0.7732718     0.8482736
   302   1 H        0.5756107     0.0023377     0.9996051
   303   1 H        0.2291390     0.4624846     0.8567522
   304   1 H        0.2221438     0.7628101     0.6543396
   305   1 H        0.5346110     0.7720406     0.6432377
   306   1 H        0.7740953     0.5398342     0.1540617
   307   1 H        0.7693959     0.2265146     0.1524184
   308   1 H        0.4621011     0.2334183     0.1517794
   309   1 H        0.9789122     0.3524975     0.6828601
   310   1 H        0.2351760     0.4612594     0.6432577
   311   1 H        0.4285742     0.4286094     0.9998388
   312   1 H        0.0052496     0.4298996     0.5059061
   313   1 H        0.4234068     0.9941066     0.5061073
   314   1 H        0.2991338     0.3960751     0.0611100
   315   1 H        0.2133980     0.6579468     0.9087808
   316   1 H        0.9779178     0.6291150     0.8204418
   317   1 H        0.0958290     0.6989446     0.0525039
   318   1 H        0.6882413     0.9032438     0.9193782
   319   1 H        0.4430826     0.7849627     0.9112114
   320   1 H        0.6503355     0.0139934     0.8138817
   321   1 H        0.6054142     0.9043830     0.0605569
   322   1 H        0.4286128     0.4264948     0.4915848
   323   1 H        0.5724716     0.0016402     0.4934824
   324   1 H        0.9899104     0.5655840     0.4959231
   325   1 H        0.5703901     0.5736335     0.0030014
   326   1 H        0.4276172     0.9979984     0.0013711
   327   1 H        0.0102623     0.4342433     0.0034907
   328   1 H        0.5690801     0.5737133     0.5046201
   329   1 H        0.3412065     0.5588309     0.9100990
   330   1 H        0.2138906     0.5516905     0.5906058
   331   1 H        0.5991266     0.8906245     0.4231508
   332   1 H        0.0387943     0.1944818     0.5231091
   333   1 H        0.6225375     0.7758903     0.1795957
   334   1 H        0.6004746     0.7115810     0.0761909
   335   1 H        0.1557026     0.9562441     0.9779151
   336   1 H        0.2118542     0.9077329     0.9387166
   337   1 H        0.3400504     0.7845657     0.9133728
   338   1 H        0.3718453     0.0221624     0.8195451
   339   1 H        0.6527395     0.6431074     0.8231379
   340   1 H        0.2262205     0.8401090     0.1745024
   341   1 H        0.0330080     0.1927571     0.9740333
   342   1 H        0.0884946     0.2980397     0.9365305
   343   1 H        0.2143696     0.5554742     0.9127452
   344   1 H        0.9781922     0.3495474     0.8209823
   345   1 H        0.1528471     0.3775264     0.1800126
   346   1 H        0.1101967     0.3989134     0.0765001
   347   1 H        0.2893124     0.8859969     0.0716057
   348   1 H        0.4441795     0.6615281     0.9136046
   349   1 H        0.6975711     0.7882775     0.9354273
   350   1 H        0.8020519     0.8442363     0.9752712
   351   1 H        0.0883381     0.2978274     0.5671205
   352   1 H        0.1949888     0.1562312     0.4767213
   353   1 H        0.2983216     0.2104949     0.4327047
   354   1 H        0.5510447     0.3377021     0.4093857
   355   1 H        0.3509890     0.3717707     0.3170270
   356   1 H        0.8430541     0.0392730     0.4774998
   357   1 H        0.7882447     0.0879519     0.4339952
   358   1 H        0.6635233     0.2144094     0.4076014
   359   1 H        0.6279556     0.9793050     0.3178636
   360   1 H        0.7063004     0.1015423     0.5507753
   361   1 H        0.9716851     0.8097708     0.4743246
   362   1 H        0.9174313     0.7062104     0.4304546
   363   1 H        0.7873638     0.4489517     0.4091297
   364   1 H        0.0227627     0.6498400     0.3183341
   365   1 H        0.9021404     0.6039836     0.5505575
   366   1 H        0.2169587     0.3137510     0.5725699
   367   1 H        0.3414812     0.5593372     0.5867508
   368   1 H        0.3947711     0.2938295     0.5500303
   369   1 H        0.2251581     0.3778122     0.3190454
   370   1 H        0.3102611     0.0933380     0.0773280
   371   1 H        0.5591254     0.2144774     0.0884435
   372   1 H        0.3489574     0.9845232     0.1831332
   373   1 H        0.3988886     0.0968283     0.9480640
   374   1 H        0.8030266     0.8434685     0.5253340
   375   1 H        0.6986299     0.7893891     0.5658363
   376   1 H        0.9053847     0.3030550     0.9484520
   377   1 H        0.4443998     0.6620329     0.5899287
   378   1 H        0.6039122     0.7027988     0.4407883
   379   1 H        0.1572139     0.9677647     0.5193764
   380   1 H        0.3353854     0.7855793     0.5920196
   381   1 H        0.3721258     0.0203932     0.6814755
   382   1 H        0.2919258     0.8978356     0.4496728
   383   1 H        0.3570378     0.3474348     0.6774131
   384   1 H        0.6489065     0.6353041     0.6850848
   385   1 H        0.0229985     0.3702794     0.1827192
   386   1 H        0.2084423     0.9171680     0.5660616
   387   1 H        0.9043512     0.2212511     0.0751359
   388   1 H        0.7875859     0.3413093     0.0905455
   389   1 H        0.1002070     0.7784722     0.5708738
   390   1 H        0.2127900     0.6540882     0.5875528
   391   1 H        0.1522449     0.7662316     0.3275121
   392   1 H        0.1098210     0.7009164     0.4306073
   393   1 H        0.6858943     0.9030581     0.5735279
   394   1 H        0.4378535     0.7846630     0.5881507
   395   1 H        0.9753540     0.6290012     0.6824127
   396   1 H        0.6222329     0.8482579     0.3206018
   397   1 H        0.7041205     0.6046915     0.9489322
   398   1 H        0.6527276     0.0099485     0.6759032
   399   1 H        0.6588316     0.4452872     0.0904545
   400   1 H        0.6287138     0.6491141     0.1827817
   401   1 H        0.7835199     0.6903251     0.0771137
   402   1 H        0.2905619     0.4004015     0.4215738
   403   7 N        0.3791177     0.0388935     0.4673396
   404   7 N        0.1176838     0.6000588     0.9117826
   405   7 N        0.0373873     0.6605892     0.9608167
   406   7 N        0.1697120     0.7430328     0.9315438
   407   7 N        0.2583979     0.4299710     0.9405466
   408   7 N        0.3404177     0.4200435     0.8041785
   409   7 N        0.3981894     0.5200146     0.9139873
   410   7 N        0.6230239     0.9605640     0.9612159
   411   7 N        0.3389004     0.3786218     0.9630762
   412   7 N        0.4330958     0.1706980     0.4377918
   413   7 N        0.4204841     0.0767334     0.3085848
   414   7 N        0.5224098     0.1179729     0.4170697
   415   7 N        0.0710455     0.6567901     0.8054046
   416   7 N        0.5973330     0.4793658     0.4152619
   417   7 N        0.9308838     0.3443573     0.3101109
   418   7 N        0.8831430     0.4031851     0.4157742
   419   7 N        0.9618062     0.3400882     0.4689526
   420   7 N        0.7408869     0.5708065     0.4400226
   421   7 N        0.6566663     0.5847643     0.3105057
   422   7 N        0.6594602     0.6207021     0.4697857
   423   7 N        0.8280316     0.5684949     0.0626013
   424   7 N        0.9304078     0.5865527     0.1903418
   425   7 N        0.9593458     0.6239286     0.0294434
   426   7 N        0.7464614     0.1728144     0.0606326
   427   7 N        0.4813317     0.8806311     0.9152737
   428   7 N        0.6598920     0.0723139     0.1899902
   429   7 N        0.6051213     0.1188336     0.0821989
   430   7 N        0.8309105     0.2619133     0.4379454
   431   7 N        0.5805178     0.9216046     0.8034490
   432   7 N        0.5105871     0.6862984     0.7513625
   433   7 N        0.5065844     0.4873388     0.3985895
   434   7 N        0.0729636     0.8611184     0.5472418
   435   7 N        0.6672995     0.0388938     0.0294137
   436   7 N        0.9303216     0.1391068     0.0460850
   437   7 N        0.3699780     0.2476851     0.6743769
   438   7 N        0.7519719     0.1230098     0.6753147
   439   7 N        0.2473817     0.8753465     0.3246659
   440   7 N        0.7514165     0.6305380     0.8251723
   441   7 N        0.4926685     0.1712945     0.2509978
   442   7 N        0.8347740     0.3188101     0.2531641
   443   7 N        0.6828624     0.5146119     0.2539103
   444   7 N        0.5083629     0.8258413     0.7487431
   445   7 N        0.1657021     0.6810758     0.7479340
   446   7 N        0.3155315     0.4909697     0.7484306
   447   7 N        0.1694091     0.4811631     0.7528446
   448   7 N        0.3135938     0.8308073     0.7530421
   449   7 N        0.8335677     0.5172899     0.2468739
   450   7 N        0.6867181     0.1688828     0.2464095
   451   7 N        0.4836289     0.3151079     0.2462647
   452   7 N        0.5138271     0.0203456     0.0982157
   453   7 N        0.9816623     0.4910853     0.1007217
   454   7 N        0.5098738     0.4907171     0.1016710
   455   7 N        0.4853870     0.9796596     0.5982863
   456   7 N        0.0188587     0.5045307     0.6005853
   457   7 N        0.4897511     0.5131237     0.5975736
   458   7 N        0.0193834     0.5078365     0.9003023
   459   7 N        0.4882538     0.9791025     0.9026900
   460   7 N        0.4895398     0.5127047     0.9017120
   461   7 N        0.9818221     0.4941679     0.4004783
   462   7 N        0.5153910     0.0194740     0.4028215
   463   7 N        0.5703254     0.8292248     0.9400957
   464   7 N        0.4297678     0.2561594     0.0611282
   465   7 N        0.8829005     0.4829666     0.0839031
   466   7 N        0.5172318     0.3995546     0.0847674
   467   7 N        0.2588306     0.4305702     0.5518659
   468   7 N        0.3386966     0.4196398     0.6903879
   469   7 N        0.3985247     0.5205733     0.5828504
   470   7 N        0.3390824     0.3794879     0.5293263
   471   7 N        0.1735485     0.4302316     0.9470514
   472   7 N        0.0729253     0.4127844     0.8100820
   473   7 N        0.1185023     0.5161546     0.9149345
   474   7 N        0.0448978     0.3778476     0.9720036
   475   7 N        0.2553494     0.8273881     0.9396914
   476   7 N        0.3415494     0.9276160     0.8093358
   477   7 N        0.3968753     0.8803923     0.9172289
   478   7 N        0.3357164     0.9589667     0.9715771
   479   7 N        0.5814899     0.6627362     0.8096592
   480   7 N        0.0375406     0.6561034     0.5302318
   481   7 N        0.4826180     0.6042095     0.9170838
   482   7 N        0.8272568     0.5738054     0.4304091
   483   7 N        0.9287849     0.5869723     0.3038986
   484   7 N        0.8831332     0.4874526     0.4119788
   485   7 N        0.9597313     0.6250075     0.4620931
   486   7 N        0.7480039     0.1750535     0.4304043
   487   7 N        0.6603098     0.0735310     0.3036890
   488   7 N        0.6069779     0.1185921     0.4126318
   489   7 N        0.6640890     0.0381444     0.4635802
   490   7 N        0.4286336     0.2533214     0.4300992
   491   7 N        0.4138400     0.3405727     0.3031694
   492   7 N        0.5128138     0.3952240     0.4112123
   493   7 N        0.3732475     0.3349366     0.4617416
   494   7 N        0.4139035     0.3417676     0.1894689
   495   7 N        0.6237703     0.6649154     0.9710313
   496   7 N        0.1171020     0.5962021     0.5856584
   497   7 N        0.5694569     0.7438587     0.9468880
   498   7 N        0.1686839     0.7367611     0.5624699
   499   7 N        0.3767363     0.3364059     0.0287740
   500   7 N        0.0689827     0.6548086     0.6918123
   501   7 N        0.1725378     0.4276510     0.5602975
   502   7 N        0.0735294     0.4128438     0.6963158
   503   7 N        0.1179656     0.5123530     0.5883961
   504   7 N        0.0399816     0.3735602     0.5370335
   505   7 N        0.2511499     0.8240973     0.5699068
   506   7 N        0.3397701     0.9261507     0.6956344
   507   7 N        0.3930395     0.8812665     0.5877939
   508   7 N        0.5689874     0.7435922     0.5605130
   509   7 N        0.5811181     0.6606660     0.6959053
   510   7 N        0.4829029     0.6048071     0.5856487
   511   7 N        0.6240484     0.6650064     0.5358077
   512   7 N        0.4295202     0.1709901     0.0688202
   513   7 N        0.4204362     0.0760700     0.1949844
   514   7 N        0.3324134     0.9613877     0.5364445
   515   7 N        0.4770641     0.8805195     0.5846170
   516   7 N        0.6196556     0.9592460     0.5309091
   517   7 N        0.5207060     0.1187613     0.0851478
   518   7 N        0.5798085     0.9197694     0.6896578
   519   7 N        0.5667870     0.8273921     0.5526717
   520   7 N        0.6603630     0.6228583     0.0389688
   521   7 N        0.6581519     0.5848943     0.1968155
   522   7 N        0.6015785     0.4838472     0.0891845
   523   7 N        0.9662142     0.3441008     0.0391191
   524   7 N        0.8833415     0.3989675     0.0882529
   525   7 N        0.9298017     0.3429991     0.1964935
   526   7 N        0.8315574     0.2577325     0.0691796
   527   7 N        0.3780500     0.0377360     0.0392514
   528   7 N        0.7444586     0.5712973     0.0693942
   529   8 O        0.4610333     0.9921961     0.4101793
   530   8 O        0.3063607     0.5071400     0.8046171
   531   8 O        0.4605989     0.4583727     0.8942634
   532   8 O        0.5138308     0.1958290     0.3065512
   533   8 O        0.8107229     0.3177213     0.3083189
   534   8 O        0.5424434     0.9943270     0.1017979
   535   8 O        0.6845763     0.4923047     0.3093046
   536   8 O        0.5349863     0.5420570     0.4004498
   537   8 O        0.8097299     0.4939834     0.1917745
   538   8 O        0.0076180     0.5458101     0.1010251
   539   8 O        0.6895157     0.1931281     0.1908590
   540   8 O        0.9931767     0.5361063     0.8939901
   541   8 O        0.0082243     0.4658642     0.4027844
   542   8 O        0.1926865     0.6940969     0.8032483
   543   8 O        0.1155673     0.8750347     0.5862275
   544   8 O        0.4922074     0.8010755     0.8052438
   545   8 O        0.7533007     0.6129142     0.7667125
   546   8 O        0.7320683     0.6642800     0.8371754
   547   8 O        0.2660200     0.9285248     0.3352825
   548   8 O        0.2477431     0.8552898     0.2671603
   549   8 O        0.7539943     0.1428354     0.7336421
   550   8 O        0.7315847     0.0697175     0.6635375
   551   8 O        0.3864680     0.2442283     0.7329669
   552   8 O        0.3381964     0.2693144     0.6623472
   553   8 O        0.9450057     0.1034208     0.0253946
   554   8 O        0.8858010     0.1240690     0.0821462
   555   8 O        0.0587737     0.8972191     0.5266793
   556   8 O        0.5058019     0.3130452     0.1909345
   557   8 O        0.5428323     0.0049968     0.8981981
   558   8 O        0.4551433     0.4622175     0.1028113
   559   8 O        0.9937004     0.4531420     0.8982140
   560   8 O        0.9939311     0.4506431     0.6115995
   561   8 O        0.4526918     0.4589321     0.3874657
   562   8 O        0.1953814     0.4958831     0.6969289
   563   8 O        0.5438023     0.9947810     0.3874755
   564   8 O        0.6979044     0.1952769     0.3020245
   565   8 O        0.0072965     0.5480948     0.3895797
   566   8 O        0.8065877     0.5040201     0.3021869
   567   8 O        0.5442405     0.5410417     0.8999151
   568   8 O        0.4909945     0.6919513     0.8069811
   569   8 O        0.4595787     0.0050073     0.8980906
   570   8 O        0.3114455     0.8067794     0.8085667
   571   8 O        0.1939941     0.5027085     0.8082441
   572   8 O        0.4616961     0.4584287     0.5954489
   573   8 O        0.3109725     0.5112661     0.6927749
   574   8 O        0.4982444     0.3033053     0.3018875
   575   8 O        0.1894286     0.6819390     0.6926273
   576   8 O        0.9918870     0.5322678     0.5981577
   577   8 O        0.4572055     0.0054301     0.6090490
   578   8 O        0.4938383     0.6945867     0.6951030
   579   8 O        0.5436377     0.5418498     0.6085882
   580   8 O        0.5081279     0.1972584     0.1951062
   581   8 O        0.4593596     0.9946420     0.1042459
   582   8 O        0.3015428     0.8041248     0.6975913
   583   8 O        0.0075088     0.4627583     0.1098120
   584   8 O        0.6948859     0.5000614     0.1983607
   585   8 O        0.5385781     0.5450126     0.1096918
   586   8 O        0.4877330     0.8005358     0.6933844
   587   8 O        0.8081715     0.3061324     0.1976108
   588   8 O        0.5400600     0.0058254     0.5955941
   589  30 Zn       0.3263284     0.8972878     0.5983731
   590  30 Zn       0.1027688     0.4304917     0.5992139
   591  30 Zn       0.4344502     0.3323217     0.0922192
   592  30 Zn       0.6708513     0.1011581     0.0920630
   593  30 Zn       0.6635747     0.5625195     0.4077291
   594  30 Zn       0.9010715     0.3380646     0.4065309
   595  30 Zn       0.4398334     0.1009961     0.4070222
   596  30 Zn       0.3332723     0.4372810     0.9029677
   597  30 Zn       0.5654985     0.6700842     0.5971046
   598  30 Zn       0.8999398     0.5656682     0.0937792
   599  30 Zn       0.4383818     0.1022070     0.0975520
   600  30 Zn       0.3312948     0.8978848     0.9068808
   601  30 Zn       0.6682157     0.5660163     0.0999527
   602  30 Zn       0.5596319     0.8954752     0.5906173
   603  30 Zn       0.0982755     0.6606982     0.5948633
   604  30 Zn       0.3334440     0.4374675     0.5907203
   605  30 Zn       0.1043708     0.4342329     0.9068551
   606  30 Zn       0.5654926     0.6701877     0.9093266
   607  30 Zn       0.8975607     0.5687686     0.3993760
   608  30 Zn       0.6730279     0.1024836     0.4007597
   609  30 Zn       0.4307028     0.3282017     0.4001416
   610  30 Zn       0.1010939     0.6658717     0.9011302
   611  30 Zn       0.9011239     0.3343209     0.0999740
   612  30 Zn       0.5632644     0.8968610     0.9020526

 * volume of direct unit cell/Å³ = 10472.3032531

 * mass density of direct unit cell/g·cm⁻³ =     1.2621362


optimized geometry written to: xtbopt.poscar


           -------------------------------------------------
          | TOTAL ENERGY             -130.856141995214 Eh   |
          | GRADIENT NORM               0.007746852658 Eh/α |
           -------------------------------------------------
########################################################################
[WARNING] Runtime exception occurred
-1- gfnff_setup: Could not read topology file.
########################################################################

------------------------------------------------------------------------
 * finished run on 2026/09/03 at 05:01:09.365     
------------------------------------------------------------------------
 total:
 * wall-time:     0 d,  1 h, 44 min, 16.619 sec
 *  cpu-time:     0 d,  2 h, 31 min,  2.737 sec
 * ratio c/w:     1.449 speedup
 SCF:
 * wall-time:     0 d,  0 h,  0 min, 17.531 sec
 *  cpu-time:     0 d,  0 h,  0 min, 28.706 sec
 * ratio c/w:     1.637 speedup
 ANC optimizer:
 * wall-time:     0 d,  1 h, 43 min, 47.781 sec
 *  cpu-time:     0 d,  2 h, 30 min, 20.018 sec
Note: The following floating-point exceptions are signalling: IEEE_UNDERFLOW_FLAG IEEE_DENORMAL
normal termination of xtb
 * ratio c/w:     1.448 speedup

