 energy: -130.856141995214 gnorm: 0.007746852658 xtb: 6.7.1 (edcfbbe)
    1.00000000000000
   47.62918729539974   -1.11118744673285   -0.00636142952621
  -23.35429246768075   41.09377366507123    0.36925100072208
   -0.48289595853748    0.15546475267154   36.59337440602947
 C    Cl   H    N    O    Zn  
 240 18 144 126 60 24
Direct
    0.31461560362211    0.30016032968329    0.48482620977989
    1.00228009171441    0.31719692868124    0.45154366863632
    0.97496357653298    0.21150857245023    0.44188558154462
    0.96601691804330    0.25976625671424    0.42121235962767
    0.85777717859234    0.43591808284059    0.41423525095241
    1.02597851881063    0.39271904771354    0.28696341086931
    0.87123151630887    0.28807545126223    0.51084013690899
    0.88571120848402    0.26720239837609    0.62759531352649
    0.90282253962974    0.30908825035928    0.57326731860699
    0.34132428960811    0.06012613460825    0.44667924128385
    0.26284139863377    0.08535345238645    0.43332737152305
    0.31996310611007    0.09500268717867    0.41384836647422
    0.60728838315601    0.20053652240952    0.40887446697746
    0.74736364673390    0.62841150964697    0.57060704500987
    0.44473357852964    0.19124971271474    0.51076484733101
    0.43330686768729    0.15840458689982    0.57300452678843
    0.31228796534593    0.34128779270750    0.95595002569981
    0.20672760625735    0.26036942715735    0.95209976443728
    0.25367821635122    0.31815805376240    0.92862715884540
    0.42806405782522    0.60245055566931    0.90613861801636
    0.36579044166913    0.38723258376141    0.78102034527477
    0.28344513596948    0.44892738875527    0.00540021356186
    0.27135995311877    0.42069080342077    0.12434553869757
    0.30796958425554    0.43966614666599    0.06552685633885
    0.04693713445388    0.74149504177539    0.95227673960683
    0.07183610229417    0.84684120456066    0.94809527202305
    0.08220111415544    0.80087673969474    0.92464644483557
    0.40720548747436    0.17314761359484    0.62593921622717
    0.19070764318109    0.62903220612650    0.90506568419600
    0.78733882970771    0.64773076922455    0.62603160996627
    0.66358450084527    0.67448574686705    0.27866057012179
    0.27631138929610    0.24940360637339    0.03032699900087
    0.57240418631367    0.41087304712038    0.09272816560611
    0.37827095583212    0.36047223307400    0.21336193687100
    0.43373262658859    0.24437910364348    0.99110865054105
    0.40086773015317    0.22453555182296    0.87398664518568
    0.41017049359871    0.25842685484696    0.93250341516997
    0.74234061363839    0.04454277809566    0.00164433491081
    0.82059022853658    0.01976748453763   -0.01368458304019
    0.79926559197952    0.05236023826151    0.02100641974311
    0.65713831361845    0.20051964833477    0.07340619148374
    0.69086839660593    0.04693934143883    0.21817416158808
    0.81611968795961    0.22096963756337    0.99176982471818
    0.76765989198333    0.61821749132430    0.50813292036526
    0.83511498944889    0.21097096736266    0.87435484077292
    1.00235112618492    0.72832548186682    0.00440060825959
    1.02654978278076    0.83338478748459   -0.00200802193178
    0.99188000152340    0.77478727289586    0.02651290042039
    0.85354119596259    0.47770907895689    0.08273174130432
    0.99713442397695    0.67319663019565    0.21024641981151
    0.83364427366409    0.62684404225086    0.98640116507827
    0.85551881032321    0.67175434980738    0.87377872786521
    0.87205973500462    0.64830524638427    0.92908350610408
    0.74071521537047    0.72780400661688    0.45384881640936
    0.84631914800864    0.80847221017488    0.44825217549929
    0.79865694053655    0.75118037841104    0.42546223405602
    0.61580083420896    0.46543054328636    0.42403491122676
    0.80027765520433    0.18487622894909    0.93254351086950
    0.02596804766671    0.67291109284022    0.77654815651052
    0.18150012359672    0.77280641576690    1.00171679492977
    0.16294431183612    0.78404223258456    0.11883772437428
    0.95402054747078    0.50967851844564    0.07903424297424
    0.58153681881888    0.10074301997732    0.07654085210519
    0.44616010164414    0.33520867938437    0.25082257847977
    0.72333773803923    0.14425923086407    0.24795115451233
    0.90122925489776    0.60635422712848    0.24409828174595
    0.60428268766886    0.73412314052464    0.74305050303281
    0.32370331315292    0.91441348770016    0.74313083334813
    0.14511885433527    0.45199759932566    0.74457929702043
    0.36490962521642    0.47091743296586    0.74201232701888
    0.11497788229511    0.68513781783183    0.74055957698790
    0.57472131455636    0.92577236772892    0.74307377020382
    0.67873675473300    0.59805659258563    0.24832762437715
    0.54361014226053    0.48134070378676    0.08256647627931
    0.93495318294606    0.37662478935322    0.25051301024092
    0.47301779808444    0.23476066543979    0.40543181268251
    0.83097765628544    0.27413726654925    0.40448048147165
    0.78033403328529    0.59329215176276    0.40184656151135
    0.57744452999911    0.82982131133467    0.89980849314865
    0.22427858193585    0.79480079959005    0.89721080453003
    0.26409494547760    0.47221442539396    0.89983699574391
    0.26325268520039    0.46933521354061    0.58411696402240
    0.22028546182738    0.79034125987712    0.58572282792966
    0.58035340558684    0.82604096233976    0.58689880612724
    0.78829576349223    0.59052941177677    0.08850034858835
    0.82411303836467    0.26174273837537    0.09560163279189
    0.47118984379570    0.23788781762544    0.09397321619418
    0.47802430873281    0.13876820173292    0.24645038449508
    0.46746159511671    0.95994739225517    0.57802409918425
    0.09325471688253    0.54528209615001    0.57517794682509
    0.50852597115074    0.58196509579158    0.57352319129901
    0.14755021779475    0.74652135101302    0.06118187416134
    0.70738070230040    1.00344058206672    0.94727131731867
    0.78576039984416    0.97874482404659    0.93310370721072
    0.72867099792669    0.96996996329504    0.91352132436660
    0.44577750980861    0.86514378936677    0.91542774747208
    0.65839576888846    1.01322570259938    0.77755195791989
    0.59926748735638    0.86933411871065    0.00593207435630
    0.62647781649487    0.88172442420716    0.12479644696795
    0.60682987562766    0.90051782922443    0.06683165030007
    0.40287784176223    0.38946316809772    0.50480857052880
    0.66339491503436    1.04867744918980    0.50570822369475
    0.99737836223869    0.64558582358040    0.50336523922663
    0.64084602916070    0.67427926609999    0.00839763696620
    0.38819424670189    1.01168769021564    0.00800282315592
    0.05175919350757    0.41737873083129    0.01165427460529
    0.64136624796973    0.67275343408454    0.48512089023126
    0.39107233337305    1.01188809609981    0.48154065800588
    0.04935122185945    0.41612173190416    0.48602777995709
    0.41235415232353    0.39588565982103    0.98463443392963
    0.65739044018231    0.04980603035645    0.98358885776423
    1.00175144494073    0.64073504161566    0.98175106269212
    0.53525202736635    0.47918637091994    0.41642393743700
    0.58611364635693    0.10228762316757    0.41230459639929
    0.95329822515037    0.51881251215879    0.41212138244297
    0.50922251357354    0.58964059731458    0.91067446584784
    0.46517629082552    0.96277884281932    0.91316929456566
    0.09552292900548    0.54579866024245    0.91159458357354
    0.21832814191326    0.22643612937508    0.00240786535018
    0.32386082525759    0.30738763043226    0.00765550985617
    0.39495118773100    0.05149263322616    0.28290748282536
    0.20068238247366    0.41087819399718    0.36285061470555
    0.30200262623593    1.01499308621294    0.99245995196044
    0.22446137592164    1.04076375758843    1.00773065648063
    0.24423695115975    1.00595323473590    0.97492922913782
    0.39021659190492    0.86274241265146    0.91591404538938
    0.35164310858719    1.01023277029147    0.77438799837239
    0.23131269239532    0.83584058763192    0.00059466411445
    0.21129310529405    0.84648322072554    0.11740985740389
    0.24580024726095    0.87266053594883    0.05904478197188
    0.04936666720185    0.32842681732400    0.99172579287450
    0.02028096069068    0.22192040734172    0.99858826066312
    0.05711592866388    0.28032866468224    0.96998422652251
    0.19563985619486    0.57692716576009    0.90600674842052
    0.63172981569876    0.80216989078332    0.06210226627001
    0.05034813261271    0.38323417710207    0.77982904212804
    0.21179160911814    0.41201417545733    0.12370600795151
    0.18707733893545    0.42093987659270    0.06426547164527
    0.30307639745845    0.33440171576460    0.53407398417225
    0.19857753499227    0.25140118738092    0.54175102516543
    0.24489577914157    0.31034459969562    0.56209349920382
    0.42842619468956    0.59646202898099    0.56663443358456
    0.36417221500560    0.38569642232351    0.71023242894081
    0.27745454042921    0.44627213732245    0.47745018517064
    0.26078188243001    0.42104999595460    0.35824341679713
    0.29936625167227    0.43847618653633    0.41481354752459
    0.04554259822363    0.74483321651459    0.53620091616855
    0.07493220915371    0.85108375601450    0.54434879479681
    0.22282878932322    0.43971387675127    0.00450125224601
    0.63848900957433    0.83291119616286    0.12240859052913
    0.61163226129400    0.81992436648241    0.00340394993089
    0.68940485219200    0.73853537981315    0.78222795710620
    0.21030647973537    0.21722140388617    0.49392630191748
    0.26780486013132    0.24108567779022    0.46531080590905
    0.56294299491665    0.40770767877058    0.42411273481833
    0.37703024738602    0.35931682580211    0.28423581853764
    0.43036356090629    0.23893509351319    0.50336699425298
    0.39130466631642    0.21885811065423    0.61753518789839
    0.40315945595274    0.25205748676760    0.55658779573749
    0.74998994471717    0.04615939423589    0.49236088020616
    0.82861998482867    0.02187262669933    0.51113830939449
    0.80841636432331    0.05671478690808    0.47692114660483
    0.66235081358566    0.20187263809051    0.40916350532019
    0.69445935367910    0.04956258430563    0.28893497881433
    0.82195281448607    0.22547322721622    0.50462269086315
    0.83837599447351    0.20500161801386    0.62049058457878
    0.17834638376404    0.41827421578165    0.42475074728335
    1.00111725201155    0.73594291515888    0.48497035729932
    1.03019579674289    0.84199925930200    0.49503737629781
    0.99313691635341    0.78491584139031    0.46501777795815
    0.85309961408162    0.48817708782207    0.41139393390354
    0.99578751659829    0.67572329823659    0.28091551991799
    0.82796742699679    0.62709325590753    0.50312728335094
    0.84697909574286    0.65678999396026    0.62082293408094
    0.86758016419125    0.64672307904387    0.55923901618339
    0.72883589894694    0.76389046391378    0.98716658193213
    0.83493178843287    0.84363102509147    0.99010894187417
    0.77666094693779    0.82115583691032    0.96325627844253
    0.48057315683318    0.66037280171473    0.90520788998675
    0.08273723298265    0.80263202052182    0.56555427325178
    0.18926538252517    0.62746915923274    0.57508554576330
    0.80601865058658    0.18415827160732    0.55949483084407
    0.17913911541372    0.77601483466914    0.47982892092471
    0.44674855719858    0.19533899623321   -0.01028530451741
    0.41476607495187    0.17696049277927    0.87261999989768
    0.43768490186675    0.16173901527934    0.93042188826666
    0.73064084759680    0.76100300281128    0.50582662085846
    0.83612074067950    0.84163845835790    0.49890872134595
    0.77881343146884    0.81844152474908    0.52781867630328
    0.48148477430778    0.65395083091279    0.56861079413057
    0.68887983594025    0.73431213246297    0.71171762005569
    0.61533511740002    0.81661971579042    0.48537368936783
    0.64086544235897    0.82858593163455    0.36623021022027
    0.63472499615983    0.79839377180709    0.42886725892755
    0.30611704618912    1.01635402516303    0.49961515736328
    0.60182149060309    0.19866860073848    0.07228064620737
    0.22813512135202    1.04219911400402    0.48561864607797
    0.39166336040002    0.86019941094277    0.58158704968899
    0.35053106652219    1.00895584202360    0.70352836566221
    0.22967782245511    0.83813706269803    0.48477659579046
    0.21286293589016    0.85739218566271    0.36854127406553
    0.24603594577488    0.87870349588953    0.42905849620973
    0.04675732235587    0.32617459912592    0.50305606500026
    0.01964625955579    0.22073101212508    0.49178336574142
    0.05554682948132    0.27745663497602    0.52258887856113
    0.19314833406350    0.57474802933580    0.57770470586453
    0.05032925597090    0.38239506870249    0.70894827870282
    0.21683175042581    0.43664960574698    0.48185686182078
    0.02482939484264    0.67240291003844    0.70571239339244
    0.24933842616750    1.00791885801025    0.51912335738360
    0.31887300538053    0.09401993907228    0.07623838175563
    0.39518450712237    0.05044669138574    0.21217711975621
    0.33891279048723    0.05881364649081    0.04393374544015
    0.16435114126739    0.79558010111796    0.36278164891137
    0.14678149933896    0.75452593900164    0.41792317778265
    0.71257769790972    1.00049833494932    0.54277494245936
    0.79157966481204    0.97662801336103    0.56070459294960
    0.73314933281454    0.96540538055192    0.57668790895296
    0.44691183781275    0.86193942690024    0.58061302722260
    0.65999626083554    1.01109131620657    0.70697842494209
    0.60351314661087    0.86636185026125    0.47979753005111
    0.62897193560558    0.87754842495256    0.36054514638651
    0.61079126070014    0.89710556866441    0.41656123852312
    0.74041521540412    0.73024065518385    0.03918124854152
    0.26126887451035    0.08457990193433    0.05789809684492
    0.79925400295880    0.75294029403121    0.06564517841750
    0.62484818075656    0.46883768276906    0.09146409590826
    0.84655078450879    0.80986814675295    0.04063049070807
    0.66646187381666    0.67478456745249    0.20794730110889
    0.90192043296275    0.30935060020852    0.93230645835809
    0.88507069981157    0.27264866927819    0.87383650372073
    1.02474261332983    0.38955603502305    0.21628584244386
    0.85894422269619    0.42588446631994    0.08287241791307
    0.96841705443249    0.25813464155947    0.07149294677097
    0.86766759958357    0.28308417946143   -0.00843839214773
    1.00546761351890    0.31721732482043    0.04363122290967
    0.76230435562986    0.65253894091875    0.93119481251023
    0.80205534401970    0.67531348842786    0.87551260603031
    0.77777694664288    0.62765329862100   -0.01300120047064
    0.97585299212294    0.21057958687822    0.04836612267089
    0.63755859043241    0.91969688896326    0.20044690047802
    0.93124954499879    0.13989750593516    0.40524994175356
    0.81457381600676    0.94017326050944    0.89004414268587
    0.11495022400624    0.92096818787047    0.91551625924302
    0.29829438864106    0.40432943471145    0.19795183650624
    0.13407615604696    0.22973531398941    0.91783447250300
    0.23347095123191    0.12508246622563    0.39100095365153
    0.91815211222780    0.83946523310500    0.41265000315335
    0.12106787821902    0.75380116977637    0.19246618593243
    0.66060056103725    0.80289130484979    0.29510647398497
    0.40267798881918    0.13607523123715    0.79887259447447
    0.23419352027761    0.12579941499767    0.09879699216786
    0.92684846228961    0.30319546849712    0.80022090005127
    0.92004134563941    0.83871575631066    0.07170714351546
    0.81947862368599    0.93595379082640    0.60398854911593
    0.12645737400310    0.21967149189022    0.57676637082402
    0.89531016599547    0.67860861215773    0.69117080905408
    0.15409490061585    0.39105293408702    0.29115610824584
    0.80672238066947    0.72558663405525    0.38725620615303
    0.66292463582584    0.47608495573954    0.42022465711919
    0.65739582985661    0.70607152764307    0.30990002771986
    0.77361428234709    0.65634862929477    0.67504059144665
    0.70083249821795    0.61933424729731    0.57483252730681
    0.93156053431947    0.25242896850536    0.38320919713876
    0.82097388427298    0.38804994621748    0.40905993569142
    0.34632343464918    0.12797558540876    0.37371601699531
    0.90722113717172    0.28197744277878    0.67760086211343
    0.93837645086876    0.35737739185209    0.57846020837825
    0.91480576109507    0.64868056241143    0.92997793688646
    0.60019731684545    0.23930917514547    0.40142997767908
    0.35969322566681    1.01771889413869    0.31685861439385
    0.40021246392790    0.15111206193474    0.67601336486200
    0.06305401676659    0.39916508853746    0.32074255413447
    0.88394769521217    0.68860134370620    0.82828072904074
    1.01864056665730    0.86994108800266    0.01287438995537
    0.81224487080922    0.47959721125923    0.09081759165011
    0.13194523615831    0.40906823418803    0.42823279830422
    0.18081677314577    0.18145712559000    0.01850337336681
    0.28607524237950    0.22324805675957    0.06759831016938
    0.56919806323220    0.36680413644676    0.10346036687913
    0.35423550776201    0.37553099135616    0.17887369603895
    0.38253012655554    0.23341493360860    0.82751499374422
    0.39927276969950    0.29458007058650    0.93454983429219
    0.86552001414708    0.02670616127436   -0.00148584219547
    0.82598550344290    0.08437873472659    0.06125638001086
    0.70282178947786    0.24088181656484    0.07940687571934
    0.67235899102619    1.00565472125040    0.18660298421450
    0.82528591021625    0.18464203934687    0.82767265403374
    0.76201223802897    0.13773583080006    0.93380248899177
    0.44606000812809    0.12352930791710    0.57902542869365
    0.95629417909514    0.76402279155700    0.06359614784874
    0.03737694576986    0.69675202693628    0.17702894641214
    0.24461295631854    0.34430893756101    0.89064842604616
    0.11719993350034    0.81144031627598    0.88688125947002
    0.36670545609453    0.35391401563312    0.81631158224784
    0.99148045657801    0.59331153113811    0.98445310376023
    0.49459710770580    0.24711736618369    0.35535012412012
    0.82078376205422    0.28448125125739    0.35353000082613
    0.76912236472671    0.57257424185627    0.35147210635633
    0.55809616182328    0.81888874126951    0.84847691975898
    0.23647216680261    0.78763424529696    0.84658361010317
    0.62234429432532    0.06183898454932    0.98874593425149
    0.27216936061490    0.49210697056447    0.84852232620450
    0.23076957003304    0.78007698069033    0.63656977389624
    0.55964813202376    0.81440035412378    0.63745714031732
    0.77838566979028    0.56929369094175    0.13916382310144
    0.81163267603223    0.26935508115385    0.14585543641330
    0.49166218514959    0.24967003890502    0.14468353639470
    1.01159466264885    0.35651998792552    0.67479218623409
    0.27404006995707    0.48967284782322    0.63471704158493
    0.45976995580205    0.43343819159658    0.98737501776096
    0.06018268038445    0.46345557090600    0.49171045575753
    0.42630620456620    0.99989519493896    0.48651028514916
    0.35437070518093    0.44809763306560    0.06724247557648
    0.22691180685263    0.67661192676840    0.89522069661774
    0.99021049988981    0.66773558230885    0.81083208432864
    0.11090312709169    0.69839064986810    0.06326527808038
    0.70219823528571    0.93859996231724    0.87276984504345
    0.45354314031088    0.82688983726103    0.90940982578000
    0.69196241891598    0.04902336030960    0.81093382362684
    0.59679349588610    0.93738289046012    0.06982284231437
    0.45050595957699    0.42659861715357    0.50213651489948
    0.62833739628813    0.06077093928872    0.49934778844354
    0.98593793484084    0.59797516649377    0.49889962109064
    0.59374804941019    0.63622431581711    0.00464441220709
    0.42346347377017    1.00006950377812    0.00211472530213
    0.06195205724162    0.46469600237256    0.00706171857739
    0.59379745442583    0.63551951765005    0.48859250260243
    0.38101757335592    0.59121141981095    0.89797525571886
    0.23400910152158    0.57175354106265    0.58597024682387
    0.60019243627679    0.93365704114831    0.41235366539979
    0.02588920953624    0.18238772589658    0.50523802747228
    0.65219500214896    0.81963784051436    0.16954312783153
    0.64200032844230    0.76565721176466    0.05880783638829
    0.17970902466267    1.03428861343798    0.99590121793280
    0.21566183880946    0.97100864666515    0.93803474966076
    0.34461530789405    0.82214205752485    0.91049357272186
    0.36810845729592    0.05075789352227    0.80694929751008
    0.72472273977068    0.74277665524606    0.81734013582157
    0.22011126643746    0.87333330028332    0.16350654496804
    0.02531829539805    0.18364335092012    0.98307215166749
    0.09206572084244    0.28950057127277    0.93270167143282
    0.23660133339606    0.57455379077113    0.89743924950845
    1.01076988351517    0.35872782249744    0.81387911319270
    0.18631762167011    0.39905342673304    0.17141087538932
    0.14104659457968    0.41306868609889    0.06250783179063
    0.28272656559311    0.92042026889151    0.05695846711559
    0.48375351915918    0.70465197486612    0.89639908316700
    0.76718645714792    0.84636453922750    0.92438967104364
    0.87286606989960    0.88760561365599    0.97216325635943
    0.09075641203688    0.28524021984715    0.55974606477208
    0.17337593141478    0.17131143476930    0.48042091174622
    0.27795683245318    0.21494663261130    0.42992528332445
    0.55919468946126    0.36283826232235    0.42103412128125
    0.35142205381454    0.37206679479919    0.31737072127045
    0.87390539485651    0.02949620098536    0.50106186316350
    0.83707359760929    0.09277341604235    0.44045361209822
    0.70818571945582    0.24192310424802    0.40234586664625
    0.68051530008892    1.01159130621150    0.32530838301095
    0.76944656856736    0.13657384049817    0.55468263445778
    1.02495276357461    0.88091381440176    0.48111047069021
    0.95766655355866    0.77724582215578    0.42828779680958
    0.81177647165160    0.49052725490689    0.40421746132304
    0.03411816769753    0.70157653595609    0.31561662574695
    0.91365924731430    0.65515222155556    0.55521904857788
    0.23579332501986    0.33631567413216    0.59877806350443
    0.38134575345312    0.58599591752122    0.57041110943042
    0.39092725008860    0.28706266339864    0.55056526043975
    0.27646001145085    0.41606739302357    0.30860439835696
    0.34695565754108    0.12765410328497    0.11449135871540
    0.59436550615494    0.23722198818909    0.07727698611558
    0.36162010667539    1.01462750048829    0.17881298248252
    0.44875073130052    0.12553251681703    0.92854739644762
    0.87423508951256    0.88605506639351    0.51477080032435
    0.77001011611358    0.84377979093032    0.56567801387462
    0.93950742120119    0.35706964936054    0.93085099528615
    0.48524264272918    0.69864104859287    0.57405741572737
    0.64521050543844    0.76199309629303    0.43306688447386
    0.18337721670046    1.03503986151142    0.49806542362574
    0.34605596840374    0.81999771643724    0.58923118203049
    0.36384274534786    0.04716178171496    0.66770228547990
    0.28367812236244    0.92593479363934    0.43277620076894
    0.36084789646172    0.34948931349117    0.67794024409426
    0.72229567039000    0.73148823558305    0.68025886247160
    0.06079784327140    0.39436695192732    0.18276659642300
    0.22275130356362    0.97437834557717    0.55878886768904
    0.93375991121176    0.24903531298473    0.10915258371248
    0.82287095266897    0.37806658483747    0.09158176867196
    0.11753234745969    0.81012098048159    0.60316984477978
    0.22637509888889    0.67504461538678    0.58147243924740
    0.14225275270508    0.78032657237197    0.31311655406656
    0.11030287945584    0.70649607577980    0.41365308914824
    0.70533625406527    0.93127951607328    0.61525392372872
    0.45439379996837    0.82338936592426    0.58757225803870
    0.98819504482912    0.66802869393410    0.67254983185323
    0.63262542434804    0.89820282650341    0.31026322507382
    0.72192829159028    0.65659180949749    0.93263343240848
    0.69650206246926    0.04353512277960    0.67330528451141
    0.67179730001422    0.48023907864603    0.10089249146882
    0.66158238088081    0.70529813185413    0.17191216485878
    0.80841474648106    0.72659294466554    0.10327772962595
    0.34620037289953    0.44830866082627    0.41141276628125
    0.39451295274010    0.05622046850612    0.43833951109252
    0.12861399509791    0.60922757647053    0.90857606440058
    0.04484052891533    0.68520409897571    0.94042598219652
    0.17828141759283    0.74966127778263    0.93525804087936
    0.30680999534907    0.46820701778522    0.93821215880490
    0.36630134186943    0.44037616667631    0.80020053204177
    0.44632156970107    0.55908891469869    0.90939843330134
    0.65444337160377    1.00800868850233    0.93866171721425
    0.36905092858659    0.39635153410411    0.94381679811780
    0.47025186907797    0.18957047592347    0.44738340828271
    0.44662419275184    0.10614234729102    0.30375610123095
    0.56054740881859    0.13876608230136    0.41105432354447
    0.08204579588474    0.68073033539742    0.79757733928000
    0.59811769429859    0.50921250211361    0.41918338956859
    0.97012976236844    0.38491655576273    0.30770756699044
    0.91990844254276    0.45545210698520    0.41458701384942
    1.00566192481583    0.37479353654498    0.44328470718089
    0.74018249033805    0.59832860136884    0.44319180369215
    0.67114190493636    0.62656223418583    0.30325377645656
    0.68346140344183    0.67298223712573    0.44306301603904
    0.83870639550276    0.60414949959699    0.05120391168960
    0.93830465296965    0.63053458235383    0.18777050601988
    0.97591680622969    0.66526468607961    0.02146564997209
    0.79035904936074    0.20974602941265    0.05759467703686
    0.49173275139231    0.92720683425703    0.91379652794215
    0.70945004868527    0.10592915085824    0.19309315418388
    0.64410359388305    0.13975020678117    0.07626422463380
    0.87582454349061    0.31637834961547    0.44620977266244
    0.60522837499049    0.96008798306986    0.79939350975150
    0.54786724153122    0.73561444808594    0.74019580552313
    0.49925094317362    0.50930022593489    0.41119911921055
    0.11500079883065    0.91257258951214    0.57323543919332
    0.70924025046117    0.07206242697213    0.02278190467300
    0.93528545979932    0.14767468967640    0.07501273847883
    0.36128325238137    0.23299985856654    0.67208102286871
    0.82176711238122    0.15992666079319    0.67687261951813
    0.22979305942895    0.90125644121165    0.31084921044470
    0.79341017376681    0.71212052174653    0.82207413296963
    0.53139117486946    0.20105110842877    0.24543313112268
    0.87210454807386    0.36348595890089    0.24936909994619
    0.69057437782902    0.54741295731245    0.25097605896808
    0.52081612209318    0.86385323115813    0.74419401342122
    0.17753709774983    0.69745572640239    0.74069944769821
    0.35844320425924    0.52494119078276    0.73975347389678
    0.20723968389801    0.50506306635004    0.74364523308048
    0.31416367318453    0.85241266611608    0.74506527042391
    0.83869177099069    0.55384256091896    0.24423333568940
    0.73481898810391    0.20700131458274    0.24515682561114
    0.49918957176955    0.32769521321469    0.25307678294186
    0.54816247891576    0.03330009095207    0.08063876056768
    1.02080696895679    0.54870126195330    0.08120087067835
    0.50635061868077    0.51018707406711    0.08107673538442
    0.50130187815852    1.02747708995032    0.57931063003781
    0.02638173123723    0.50807050955146    0.57779947481621
    0.54434791766406    0.55164985301537    0.57694891607514
    0.02870285653323    0.50715730596361    0.91174499309959
    0.49819687515232    1.03026993495797    0.91062966756982
    0.54598243297075    0.56031642515080    0.91140352300325
    1.02011891385803    0.55643214993161    0.40851023917045
    0.55195942480102    0.03474085557224    0.41085055748795
    0.57891056203575    0.87423266946546    0.93936839871458
    0.44975373218361    0.26963941943886    0.05718209613387
    0.91256400411212    0.52920296781433    0.08010988367571
    0.52239000641527    0.41904147330202    0.08690984016494
    0.30404925260004    0.46536881017622    0.54286298197595
    0.36409766163703    0.43798630315726    0.68648336785177
    0.44569474635872    0.55232981876861    0.56989278735750
    0.35977145669460    0.38997147659313    0.54440928584789
    0.21268908077275    0.45455566821805    0.93771039211328
    0.10938346011323    0.42604018054146    0.80161820338212
    0.13654566644325    0.52571602561866    0.91014142997810
    0.07664678964453    0.39150092543643    0.97286575793111
    0.25664819996852    0.84748459517762    0.93454491270879
    0.33434733214630    0.95134430330342    0.79863965017631
    0.40266337831886    0.92331531530107    0.91424842452051
    0.33485256620609    0.98724229444244    0.97114685299731
    0.63683843888045    0.73821364903207    0.80133279676465
    0.04164493944832    0.68723762444035    0.54547669198877
    0.53056955373970    0.65199656228412    0.90815752745837
    0.83364299078524    0.61090875767920    0.43573903969965
    0.93586295884379    0.63449738879501    0.30124919585474
    0.91244074713190    0.53921379684440    0.41059343345923
    0.97246333993584    0.67330216156305    0.46571393587754
    0.79799870795145    0.21884614496566    0.43759461056843
    0.71530097842336    0.11035707029403    0.30675491138082
    0.64880761563969    0.14092217105664    0.41156047988307
    0.71734277083261    0.07467908469549    0.47055069789646
    0.44888401029096    0.26494722616471    0.43717496278621
    0.41893111442284    0.34296578072161    0.30685500371320
    0.51338554889281    0.41668786238421    0.41934642169639
    0.37706494481634    0.33644076408916    0.46769654301809
    0.42070534169098    0.34476847512886    0.19293603686669
    0.66647170036808    0.72708168132477    0.96926540975983
    0.12729218697109    0.60866046182935    0.57373848786351
    0.59774138775218    0.79703650870000    0.93639910323618
    0.17431331261180    0.74834350100078    0.54487410935204
    0.38656164008758    0.34344873001771    0.02439055468647
    0.08020390282154    0.67971000133359    0.68384861009633
    0.21021624532337    0.45167351948496    0.54957902252021
    0.10958561530799    0.42491400409698    0.68770178180377
    0.13352458226817    0.52416002520715    0.57736600136567
    0.07452546541116    0.38820412428807    0.52320758452537
    0.25421271824849    0.84494661940890    0.55160569102771
    0.33265388407037    0.94909510298521    0.68476187241919
    0.40482597995624    0.92102068195654    0.57969538527435
    0.60038757615050    0.79317370700009    0.55324218540506
    0.63591096634767    0.73193508378404    0.68783455975381
    0.53076749562175    0.64451349112165    0.57298825061950
    0.66842633548304    0.72478123083108    0.52402431873450
    0.46885496014182    0.19244641024616    0.05563691970079
    0.44697220388218    0.10477741550575    0.19013651804991
    0.33884514521298    0.98748073567896    0.51962210733239
    0.49340479534196    0.92380007425479    0.57829913603289
    0.65871079878627    1.00356090219716    0.54847561420748
    0.55546844933184    0.13675506473434    0.07415278232114
    0.60775245456204    0.95700576308737    0.68598650506495
    0.58281509398734    0.87111181568553    0.54472987916053
    0.68402904880455    0.67439569281822    0.04997899711835
    0.67604536952107    0.62730644924872    0.18974046565349
    0.60656800029684    0.51209274215051    0.08513473548068
    1.00848856530912    0.37398829853035    0.05392795685154
    0.92123026225305    0.44623238199223    0.08063228310673
    0.96808487529345    0.37959881671029    0.19428078382742
    0.87137828267177    0.30604131056590    0.05818465874943
    0.39253805249180    0.05530500589162    0.05112951249151
    0.75101606128377    0.60458817666855    0.05218758535930
    0.49584817572801    1.00659315233475    0.42346098960136
    0.35295624255737    0.54561645430764    0.79488140173262
    0.52003250223152    0.50379525923494    0.92448390724348
    0.55100403485387    0.22795905989735    0.30100969766198
    0.84869226840896    0.36557723162302    0.30402612774479
    0.57707922177757    1.00696612573485    0.09580404657258
    0.68536021425725    0.52051007201179    0.30675038860997
    0.52580761340242    0.56608815648519    0.42127205096117
    0.81604997332706    0.52730273602618    0.18912654539253
    0.04418745419587    0.60460258251843    0.09464191498948
    0.73072147441981    0.22851821813187    0.18887586178138
    0.99812673585356    0.53198058596436    0.92353597277026
    0.05042333374378    0.53098774159419    0.42083086538496
    0.20520333322265    0.70766389416907    0.79643158494442
    0.15304017584790    0.91855712597077    0.61819747567843
    0.49591732563795    0.84125231213292    0.80029409677015
    0.77392989576662    0.68923631691129    0.76457673727321
    0.80619904371593    0.76541395869130    0.83694144850080
    0.27542188868556    0.95418784052101    0.31763315727033
    0.19829370707790    0.88434575760662    0.25744543829273
    0.84914235305381    0.17741008315145    0.73276374924693
    0.78043376340262    0.10535497036756    0.66647645250432
    0.35508623022802    0.20860164697434    0.72975480311539
    0.34313952681440    0.26949627717904    0.65840088006604
    0.93966156487321    0.10444624784187    0.05135263483194
    0.89697350815142    0.13956166725450    0.11962515554449
    0.11048669564727    0.95679933345676    0.55103855474040
    0.51901319232490    0.32063342420286    0.19826529859462
    0.55453869963851    0.05917111217955    0.92239799705471
    0.45028596410383    0.47730824058300    0.09293525585137
    1.00463740385506    0.45079012197468    0.90050990424761
    1.00159987069895    0.45190052495431    0.59237664313373
    0.44339989733450    0.47723155832031    0.39743131366361
    0.23338697333542    0.52386935237231    0.68741621378124
    0.57995297092816    1.00758431347478    0.39733950296769
    0.74824681490961    0.23664316605901    0.29922306518463
    0.04442441763317    0.61248016256789    0.39345878531355
    0.81047820825080    0.53766045933345    0.29951253808148
    0.60201278754396    0.59292000067338    0.89932378107106
    0.52834853488907    0.74448298912844    0.79424504776452
    0.46890300941539    0.05658809041178    0.89739195920692
    0.31560332387677    0.82960973145713    0.80153521554879
    0.23168130156101    0.52941224250493    0.79905346655743
    0.51743077923282    0.49490121985918    0.56660384401667
    0.35751542888652    0.54742011268971    0.68278660637902
    0.52259768966938    0.32852353297741    0.30972065457132
    0.20124041588423    0.69820600181865    0.68508808126890
    0.99650233050105    0.53390656727819    0.56516928374838
    0.47303464254428    0.05434685523320    0.59299319492525
    0.52202826864378    0.72905430714912    0.68376621298408
    0.60047218012042    0.58357463909828    0.58933260950271
    0.55444640249196    0.22506426940647    0.18904043555324
    0.49192761438168    1.00443420753007    0.06823345810981
    0.30498742698828    0.82469060091490    0.69011401765134
    0.05209274391042    0.52470660661396    0.06910330756695
    0.70631180926201    0.53360573279838    0.19730633837818
    0.53193808885831    0.56666396066269    0.06782977113765
    0.50268644498241    0.83579513931338    0.68906558549911
    0.84394030600607    0.34979733911992    0.19380552849250
    0.55735144027493    0.05584873990104    0.56637427092697
    0.32723475378175    0.92289430763950    0.58764951717081
    0.13518735881137    0.44608552059332    0.58991169027281
    0.44173032309815    0.33932399472576    0.09495036637828
    0.71730757888252    0.13139640178574    0.09360085130876
    0.66625220187033    0.59554350771238    0.39977326326618
    0.94486006985934    0.39289227414623    0.40210620627814
    0.47508917260929    0.12177682273675    0.40117889922231
    0.37984873561629    0.47145685769553    0.89604295100897
    0.60960342442307    0.72390474697730    0.58998319202418
    0.91461196511987    0.60858558881083    0.08952703958284
    0.47145277559396    0.11949389738299    0.09241427969908
    0.32716417313235    0.92822885676124    0.89922693112435
    0.67624092268752    0.59936619155057    0.09436703354857
    0.57876306434301    0.94010613020943    0.58869696019515
    0.10406377390228    0.67230925772052    0.58838028396090
    0.37592649695993    0.46689974190056    0.58852970949115
    0.13447697565199    0.44599244448998    0.90043016666768
    0.61107317163769    0.73144512508434    0.89930846819007
    0.91004230432422    0.61689541064251    0.39907723427253
    0.72627883054348    0.13899947242338    0.40349327247910
    0.43683400391426    0.33445078331722    0.40502640310813
    0.10714144642920    0.67428654179331    0.89336113117399
    0.94323308519376    0.38208508164192    0.09764911670152
    0.57610648594541    0.94514999572740    0.89582340133954
