      -----------------------------------------------------------      
     |                   =====================                   |     
     |                           x T B                           |     
     |                   =====================                   |     
     |                         S. Grimme                         |     
     |          Mulliken Center for Theoretical Chemistry        |     
     |                    University of Bonn                     |     
      -----------------------------------------------------------      

   * xtb version 6.7.1 (edcfbbe) compiled by 'conda@5dfe00f5fb80' on 2026-06-10

   xtb is free software: you can redistribute it and/or modify it under
   the terms of the GNU Lesser General Public License as published by
   the Free Software Foundation, either version 3 of the License, or
   (at your option) any later version.
   
   xtb is distributed in the hope that it will be useful,
   but WITHOUT ANY WARRANTY; without even the implied warranty of
   MERCHANTABILITY or FITNESS FOR A PARTICULAR PURPOSE.  See the
   GNU Lesser General Public License for more details.
   
   Cite this work as:
   * C. Bannwarth, E. Caldeweyher, S. Ehlert, A. Hansen, P. Pracht,
     J. Seibert, S. Spicher, S. Grimme, WIREs Comput. Mol. Sci., 2020, 11,
     e01493. DOI: 10.1002/wcms.1493
   
   for GFN2-xTB:
   * C. Bannwarth, S. Ehlert and S. Grimme., J. Chem. Theory Comput., 2019,
     15, 1652-1671. DOI: 10.1021/acs.jctc.8b01176
   for GFN1-xTB:
   * S. Grimme, C. Bannwarth, P. Shushkov, J. Chem. Theory Comput., 2017,
     13, 1989-2009. DOI: 10.1021/acs.jctc.7b00118
   for GFN0-xTB:
   * P. Pracht, E. Caldeweyher, S. Ehlert, S. Grimme, ChemRxiv, 2019, preprint.
     DOI: 10.26434/chemrxiv.8326202.v1
   for GFN-FF:
   * S. Spicher and S. Grimme, Angew. Chem. Int. Ed., 2020, 59, 15665-15673.
     DOI: 10.1002/anie.202004239
   
   for ALPB and GBSA implicit solvation:
   * S. Ehlert, M. Stahn, S. Spicher, S. Grimme, J. Chem. Theory Comput.,
     2021, 17, 4250-4261. DOI: 10.1021/acs.jctc.1c00471
   
   for ddCOSMO and CPCM-X implicit solvation:
   * M. Stahn, S. Ehlert, S. Grimme, J. Phys. Chem. A,
     2023, XX, XXXX-XXXX. DOI: 10.1021/acs.jpca.3c04382
   
   for DFT-D4:
   * E. Caldeweyher, C. Bannwarth and S. Grimme, J. Chem. Phys., 2017,
     147, 034112. DOI: 10.1063/1.4993215
   * E. Caldeweyher, S. Ehlert, A. Hansen, H. Neugebauer, S. Spicher,
     C. Bannwarth and S. Grimme, J. Chem. Phys., 2019, 150, 154122.
     DOI: 10.1063/1.5090222
   * E. Caldeweyher, J.-M. Mewes, S. Ehlert and S. Grimme, Phys. Chem. Chem. Phys.
     2020, 22, 8499-8512. DOI: 10.1039/D0CP00502A
   
   for sTDA-xTB:
   * S. Grimme and C. Bannwarth, J. Chem. Phys., 2016, 145, 054103.
     DOI: 10.1063/1.4959605
   
   in the mass-spec context:
   * V. Asgeirsson, C. Bauer and S. Grimme, Chem. Sci., 2017, 8, 4879.
     DOI: 10.1039/c7sc00601b
   * J. Koopman and S. Grimme, ACS Omega 2019, 4, 12, 15120-15133.
     DOI: 10.1021/acsomega.9b02011
   
   for metadynamics refer to:
   * S. Grimme, J. Chem. Theory Comput., 2019, 155, 2847-2862
     DOI: 10.1021/acs.jctc.9b00143
   
   for SPH calculations refer to:
   * S. Spicher and S. Grimme, J. Chem. Theory Comput., 2021, 17, 1701-1714
     DOI: 10.1021/acs.jctc.0c01306
   
   for ONIOM refer to:
   * C. Plett, A. Katbashev, S. Ehlert, S. Grimme, M. Bursch,
     Phys. Chem. Chem. Phys., 2023, 25, 17860-17868. DOI: 10.1039/D3CP02178E
   
   for DIPRO refer to:
   * J. Kohn, N. Gildemeister, S. Grimme, D. Fazzi, A. Hansen,
     J. Chem. Phys., 2023, just accepted.
   
   for PTB refer to:
   * S. Grimme, M. Mueller, A. Hansen, J. Chem. Phys., 2023, 158, 124111.
     DOI: 10.1063/5.0137838
   
   with help from (in alphabetical order)
   P. Atkinson, C. Bannwarth, F. Bohle, G. Brandenburg, E. Caldeweyher
   M. Checinski, S. Dohm, S. Ehlert, S. Ehrlich, I. Gerasimov, C. Hölzer
   A. Katbashev, J. Kohn, J. Koopman, C. Lavigne, S. Lehtola, F. März, M. Müller,
   F. Musil, H. Neugebauer, J. Pisarek, C. Plett, P. Pracht, F. Pultar,
   J. Seibert, P. Shushkov, S. Spicher, M. Stahn, M. Steiner, T. Strunk,
   J. Stückrath, T. Rose, and J. Unsleber
   
 * started run on 2026/09/03 at 03:16:52.750     
   ID    Z sym.   atoms
    1    6 C      1-240
    2   17 Cl     241-258
    3    1 H      259-412
    4    7 N      413-538
    5    8 O      539-603
    6   30 Zn     604-627

           -------------------------------------------------
          |                Calculation Setup                |
           -------------------------------------------------

          program call               : /home/leehk/miniconda3/envs/spectra/bin/xtb POSCAR --gfnff --opt
          coordinate file            : POSCAR
          omp threads                :                     3


molecular fragmentation (1/2 indicates fragments):
111111111111111111111222111111111122211111212111112221111211211111111111
111111111111111111121111122211112211112211111111111111122211112122111111
111122211111111111111111111111111111111112211111111111111111111111112111
111111111111211111122111112121112121211111112111111111121212112211121211
122112221111111222222221111112121122211122111121221112221112221111111111
111121111211121221111112111211111121211111221111211111111111111111111111
111111111111112111111111111111111111111111111111111111111111111111111111
111111111111111111111111111111111122212121111111111111222221211111121211
121211212121112122111212111111111111111111111111111
# atoms in fragment 1/2:   513   114
 fragment masses (1/2) :     7008.79     1041.03
CMA distance (Bohr)    :   0.816
constraining FC (au)   :  0.0500

          ==================== Thresholds ====================
          CN  :   150.00000
          rep :   500.00000
          disp:  2500.00000
          HB1 :   250.00000
          HB2 :   450.00000

          Pauling EN used:
          Z : 1  EN :  2.20
          Z : 6  EN :  2.55
          Z : 7  EN :  3.04
          Z : 8  EN :  3.44
          Z :17  EN :  3.16
          Z :30  EN :  1.65
          electric field strengths (au): 0.000

           ------------------------------------------------- 
          |           Force Field Initialization            |
           ------------------------------------------------- 

          distances ...
          ----------------------------------------
          generating topology and atomic info file ...
          pair mat ...
          computing topology distances matrix with Floyd-Warshall algo ...
          making topology EEQ charges ...
          #fragments for EEQ constrain: 6
          ----------------------------------------
          generating topology and atomic info file ...
          pair mat ...
          computing topology distances matrix with Floyd-Warshall algo ...
          making topology EEQ charges ...
          rings ...
          # BATM   9792
          # H in HB   154
          doing iterative Hueckel for 48 subsystem(s) ...

  atom   neighbors  erfCN metchar sp-hybrid imet pi  qest     coordinates
    1  C       3    2.94   0.00         2    0    1   0.030    8.316394   12.487602   17.513864
    2  C       3    2.94   0.00         2    0    1   0.035   40.717223   12.505527   17.572637
    3  C       3    2.82   0.00         2    0    1   0.033   42.793127    8.528823   17.398782
    4  C       3    2.84   0.00         2    0    1  -0.016   40.745158   10.032417   16.736554
    5  C       3    2.95   0.00         2    0    1   0.011   31.047922   16.650695   15.332152
    6  C       3    2.94   0.00         2    0    1   0.012   39.791656   15.354567   10.558116
    7  C       3    2.94   0.00         2    0    1   0.033   34.620900   10.091095   18.474848
    8  C       3    2.82   0.00         2    0    1  -0.007   35.314418    9.345438   22.852956
    9  C       3    2.81   0.00         2    0    1  -0.013   35.580599   10.902713   20.784182
   10  C       3    2.95   0.00         2    0    1   0.035   15.128060    1.252326   17.461292
   11  C       3    2.82   0.00         2    0    1   0.033   10.654239    1.549570   17.199942
   12  C       3    2.84   0.00         2    0    1  -0.016   13.017494    2.495563   16.556649
   13  C       3    2.95   0.00         2    0    1   0.012   23.612395    7.527464   15.339784
   14  C       3    2.81   0.00         2    0    1  -0.016   22.240934   25.509439   20.840958
   15  C       3    2.95   0.00         2    0    1   0.011   18.057533    0.913169   10.539172
   16  C       3    2.81   0.00         2    0    1  -0.013   16.286211    6.438296   20.754462
   17  C       3    2.94   0.00         2    0    1   0.035    6.610745   13.644435   35.682006
   18  C       3    2.82   0.00         2    0    1   0.033    4.267866    9.812396   35.737347
   19  C       3    2.84   0.00         2    0    1  -0.016    4.467977   12.321881   34.988672
   20  C       3    2.95   0.00         2    0    1   0.011    5.051369   24.119066   33.627517
   21  C       3    2.94   0.00         2    0    1   0.011    8.141617   16.140133   28.685268
   22  C       3    2.94   0.00         2    0    1   0.035    1.509250   17.602722    0.286926
   23  C       3    2.82   0.00         2    0    1   0.033    1.747834   16.475343    4.635053
   24  C       3    2.85   0.00         2    0    1  -0.016    2.960615   17.008206    2.374243
   25  C       3    2.94   0.00         2    0    1   0.034  -16.218070   30.131472   35.619029
   26  C       3    2.82   0.00         2    0    1   0.033  -18.357022   34.079040   35.645014
   27  C       3    2.84   0.00         2    0    1  -0.016  -16.305098   32.632901   34.875087
   28  C       3    2.94   0.00         2    0    1   0.033   16.090361    7.696216   18.454013
   29  C       3    2.95   0.00         2    0    1   0.011   -6.451472   26.206600   33.557337
   30  C       3    2.84   0.00         2    0    1  -0.014   23.762326   25.989998   22.889794
   31  C       3    2.94   0.00         2    0    1   0.010   16.160374   26.672067   10.565008
   32  C       3    2.81   0.00         2    0    1  -0.015    8.322254    9.938615    1.172364
   33  C       3    2.95   0.00         2    0    1   0.010   18.194432   16.499542    2.995330
   34  C       3    2.94   0.00         2    0    1   0.010    9.612027   15.331795    7.769002
   35  C       3    2.94   0.00         2    0    1   0.032   14.726298    9.803842   36.538011
   36  C       3    2.84   0.00         2    0    1  -0.014   14.077302    9.050950   32.153996
   37  C       3    2.81   0.00         2    0    1  -0.015   13.728495   10.577896   34.225221
   38  C       3    2.94   0.00         2    0    1   0.032   34.414997    0.986698    0.496563
   39  C       3    2.85   0.00         2    0    1  -0.014   38.902543    0.796787    0.289137
   40  C       3    2.81   0.00         2    0    1  -0.015   36.763174    1.991744    1.145587
   41  C       3    2.95   0.00         2    0    1   0.009   26.104654    7.557453    2.922923
   42  C       3    2.94   0.00         2    0    1   0.010   31.252670    0.662107    7.795572
   43  C       3    2.94   0.00         2    0    1   0.032   33.557098    7.855597   36.514837
   44  C       3    2.94   0.00         2    0    1   0.033   23.382173   25.061840   18.509085
   45  C       3    2.84   0.00         2    0    1  -0.014   34.509826    7.723574   32.125667
   46  C       3    2.94   0.00         2    0    1   0.033   31.164411   29.101335    0.528865
   47  C       3    2.85   0.00         2    0    1  -0.014   28.972547   33.020578    0.410102
   48  C       3    2.81   0.00         2    0    1  -0.015   29.076088   30.555984    1.218772
   49  C       3    2.95   0.00         2    0    1   0.011   29.868193   18.682351    2.977239
   50  C       3    2.94   0.00         2    0    1   0.011   33.227218   26.717598    7.808768
   51  C       3    2.94   0.00         2    0    1   0.032   25.931488   24.916309   36.557499
   52  C       3    2.82   0.00         2    0    1  -0.007   25.663125   25.921555   32.186395
   53  C       3    2.81   0.00         2    0    1  -0.012   27.130709   25.358767   34.260060
   54  C       3    2.94   0.00         2    0    1   0.033   18.071745   28.974576   17.619631
   55  C       3    2.82   0.00         2    0    1   0.033   20.473638   32.766924   17.529291
   56  C       3    2.85   0.00         2    0    1  -0.016   20.220877   30.243366   16.852423
   57  C       3    2.95   0.00         2    0    1   0.011   19.377946   18.529879   15.336246
   58  C       3    2.81   0.00         2    0    1  -0.015   33.375430    6.629957   34.189782
   59  C       3    2.94   0.00         2    0    1   0.011  -15.085547   27.334142   28.807584
   60  C       3    2.95   0.00         2    0    1   0.034  -10.216744   32.563524   36.662791
   61  C       3    2.82   0.00         2    0    1   0.033  -11.147005   32.750002    4.375031
   62  C       3    2.98   0.00         2    0    1   0.051   33.967581   19.589885    3.252216
   63  C       3    2.98   0.00         2    0    1   0.053   24.822191    3.559809    3.153425
   64  C       3    3.00   0.00         2    0    1   0.048   13.436059   14.143928    9.022057
   65  C       3    3.00   0.00         2    0    1   0.048   30.395310    4.576956    9.036611
   66  C       3    3.00   0.00         2    0    1   0.054   30.271194   24.007545    9.047031
   67  C       3    3.00   0.00         2    0    1   0.052   10.884385   28.598625   27.590387
   68  C       3    3.00   0.00         2    0    1   0.048   -5.714413   38.101145   27.614326
   69  C       3    3.00   0.00         2    0    1   0.053   -5.450732   18.629166   27.630614
   70  C       3    3.00   0.00         2    0    1   0.054    5.365154   19.020765   27.421515
   71  C       3    3.00   0.00         2    0    1   0.052  -11.257303   28.383342   27.433136
   72  C       3    3.00   0.00         2    0    1   0.054    5.450511   37.871053   27.406886
   73  C       3    3.00   0.00         2    0    1   0.050   19.064296   23.911325    9.317497
   74  C       3    2.98   0.00         2    0    1   0.050   15.377193   19.608374    3.295675
   75  C       3    3.00   0.00         2    0    1   0.052   35.931046   14.291285    9.300084
   76  C       3    2.98   0.00         2    0    1   0.033   16.419310    9.204531   14.527248
   77  C       3    2.98   0.00         2    0    1   0.033   33.217670    9.588125   14.527408
   78  C       3    2.98   0.00         2    0    1   0.034   24.450979   24.004116   14.575393
   79  C       3    2.98   0.00         2    0    1   0.033    8.319179   33.278130   33.231256
   80  C       3    2.98   0.00         2    0    1   0.033   -8.473197   33.380822   32.924904
   81  C       3    2.98   0.00         2    0    1   0.034   -0.018682   18.832272   33.241016
   82  C       3    2.98   0.00         2    0    1   0.033    0.131923   18.786769   21.770252
   83  C       3    2.98   0.00         2    0    1   0.029   -8.574546   33.058273   22.161812
   84  C       3    2.98   0.00         2    0    1   0.033    8.174166   33.347978   21.783165
   85  C       3    2.98   0.00         2    0    1   0.033   24.775397   23.919980    3.814247
   86  C       3    2.98   0.00         2    0    1   0.029   33.185087    9.315518    3.772611
   87  C       3    2.98   0.00         2    0    1   0.033   16.255302    9.405497    3.767724
   88  C       3    3.00   0.00         2    0    1   0.055   19.329550    4.687000    9.225891
   89  C       3    2.98   0.00         2    0    1   0.049   -0.252535   39.116611   21.562764
   90  C       3    2.98   0.00         2    0    1   0.051   -9.172295   22.894903   21.618804
   91  C       3    2.98   0.00         2    0    1   0.053    9.164052   23.260194   21.498664
   92  C       3    2.85   0.00         2    0    1  -0.016  -11.388046   31.525373    2.075511
   93  C       3    2.94   0.00         2    0    1   0.035    9.618806   41.505470   35.592011
   94  C       3    2.82   0.00         2    0    1   0.033   14.102635   41.277336   35.500484
   95  C       3    2.84   0.00         2    0    1  -0.016   11.780755   40.280983   34.786556
   96  C       3    2.95   0.00         2    0    1   0.012    1.251139   35.104290   33.671911
   97  C       3    2.94   0.00         2    0    1   0.011    6.617087   41.708054   28.640132
   98  C       3    2.94   0.00         2    0    1   0.035    8.651985   35.234687    0.268342
   99  C       3    2.82   0.00         2    0    1   0.033    9.518135   36.003322    4.616228
  100  C       3    2.85   0.00         2    0    1  -0.016    8.457391   36.794314    2.354145
  101  C       3    2.98   0.00         2    0    1   0.029    9.523838   16.487230   18.108623
  102  C       3    2.98   0.00         2    0    1   0.029    5.566678   42.682388   18.180468
  103  C       3    2.98   0.00         2    0    1   0.034   34.034569   26.009480   18.183404
  104  C       3    2.98   0.00         2    0    1   0.029   15.027075   26.233668    0.157582
  105  C       3    2.98   0.00         2    0    1   0.033   -5.554210   42.605155    0.148631
  106  C       3    2.98   0.00         2    0    1   0.033   -9.269702   16.721588    0.182195
  107  C       3    2.98   0.00         2    0    1   0.033   15.009505   26.207197   18.471037
  108  C       3    2.98   0.00         2    0    1   0.030   -5.659979   42.593026   18.480215
  109  C       3    2.98   0.00         2    0    1   0.034   -9.417919   16.532901   18.494413
  110  C       3    2.98   0.00         2    0    1   0.033    9.552526   16.527790   36.579298
  111  C       3    2.98   0.00         2    0    1   0.033   30.350109    0.035780   36.568102
  112  C       3    2.98   0.00         2    0    1   0.034   34.109749   26.148336   36.541532
  113  C       3    2.98   0.00         2    0    1   0.049   15.278708   19.431608   15.055722
  114  C       3    2.98   0.00         2    0    1   0.051   24.926711    3.534463   15.154769
  115  C       3    2.98   0.00         2    0    1   0.055   33.868624   19.763603   15.095970
  116  C       3    2.98   0.00         2    0    1   0.053    9.163682   23.236989   33.503939
  117  C       3    2.98   0.00         2    0    1   0.053   -0.061429   39.100485   33.533018
  118  C       3    2.98   0.00         2    0    1   0.054   -9.237439   23.054585   33.418269
  119  C       3    2.85   0.00         2    0    1  -0.014    6.215256    8.623941    0.418238
  120  C       3    2.94   0.00         2    0    1   0.032    8.508148   12.485683    0.515905
  121  C       3    2.82   0.00         2    0    1  -0.007   15.045889    7.428542   22.817278
  122  C       3    2.82   0.00         2    0    1   0.033   -1.708550   16.434119   13.714793
  123  C       3    2.94   0.00         2    0    1   0.032   -9.588769   41.545539   36.186955
  124  C       3    2.85   0.00         2    0    1  -0.014  -14.078267   41.632294   36.304172
  125  C       3    2.81   0.00         2    0    1  -0.015  -11.898441   40.470871   35.506794
  126  C       3    2.95   0.00         2    0    1   0.009   -1.340453   35.097284   33.720354
  127  C       3    2.94   0.00         2    0    1   0.010   -6.534631   42.022914   28.857093
  128  C       3    2.94   0.00         2    0    1   0.032   -8.835094   34.862682    0.174504
  129  C       3    2.84   0.00         2    0    1  -0.014   -9.766206   35.012279    4.567574
  130  C       3    2.81   0.00         2    0    1  -0.015   -8.628126   36.088651    2.497044
  131  C       3    2.93   0.00         2    0    1   0.032   -6.499059   13.596788   36.152058
  132  C       3    2.82   0.00         2    0    1  -0.007   -4.631496    9.507088   36.210318
  133  C       3    2.81   0.00         2    0    1  -0.012   -4.537850   11.994107   35.437688
  134  C       3    2.96   0.00         2    0    1   0.010   -5.138047   23.973360   33.635812
  135  C       3    2.81   0.00         2    0    1  -0.015   11.057963   32.140009    2.705898
  136  C       3    2.94   0.00         2    0    1   0.011   -8.455996   15.996065   28.899321
  137  C       3    2.84   0.00         2    0    1  -0.014   -0.905507   16.498779    4.798640
  138  C       3    2.81   0.00         2    0    1  -0.015   -2.370615   17.039963    2.720283
  139  C       3    2.95   0.00         2    0    1   0.034    6.504887   13.711466   19.076536
  140  C       3    2.82   0.00         2    0    1   0.033    4.135117    9.903403   19.274623
  141  C       3    2.84   0.00         2    0    1  -0.016    4.392789   12.433586   19.926517
  142  C       3    2.95   0.00         2    0    1   0.010    5.055887   24.148161   21.313760
  143  C       3    2.95   0.00         2    0    1   0.010    8.079067   16.122279   26.092391
  144  C       3    2.93   0.00         2    0    1   0.033    1.251680   17.616176   17.873027
  145  C       3    2.84   0.00         2    0    1  -0.014    0.941416   16.498445   13.516538
  146  C       3    2.81   0.00         2    0    1  -0.016    2.426150   17.064637   15.574477
  147  C       3    2.96   0.00         2    0    1   0.037  -15.909061   30.079524   19.027475
  148  C       3    2.82   0.00         2    0    1   0.012  -17.779647   34.147638   19.215235
  149  C       3    2.93   0.00         2    0    1   0.033   -1.175379   17.616622    0.438129
  150  C       3    2.84   0.00         2    0    1  -0.014   10.806728   33.684158    4.782152
  151  C       3    2.93   0.00         2    0    1   0.032    9.965046   32.893929    0.424624
  152  C       3    2.95   0.00         2    0    1   0.009   14.736638   27.654551   28.933815
  153  C       3    2.85   0.00         2    0    1  -0.014    5.988035    8.659770   17.840038
  154  C       3    2.81   0.00         2    0    1  -0.015    8.066359    9.926356   16.937320
  155  C       3    2.95   0.00         2    0    1   0.007   18.074798   16.291597   15.237156
  156  C       3    2.94   0.00         2    0    1   0.007    9.632179   15.309050   10.362560
  157  C       3    2.96   0.00         2    0    1   0.036   14.644879    9.944510   18.261005
  158  C       3    2.82   0.00         2    0    1   0.012   13.595327    9.628217   22.602750
  159  C       3    2.81   0.00         2    0    1  -0.009   13.391316   10.897720   20.340767
  160  C       3    2.94   0.00         2    0    1   0.030   34.275828    0.951231   17.568550
  161  C       3    2.85   0.00         2    0    1  -0.014   38.755954    0.863140   17.868460
  162  C       3    2.81   0.00         2    0    1  -0.015   36.611510    2.024182   16.980088
  163  C       3    2.95   0.00         2    0    1   0.007   26.202208    7.545267   15.231794
  164  C       3    2.94   0.00         2    0    1   0.007   31.236929    0.692860   10.388830
  165  C       3    2.85   0.00         2    0    1  -0.016   -2.898596   16.930084   15.995648
  166  C       3    2.82   0.00         2    0    1   0.012   34.132550    6.990120   22.637126
  167  C       3    2.81   0.00         2    0    1  -0.009   33.154724    6.171548   20.369597
  168  C       3    2.93   0.00         2    0    1   0.033   31.387107   29.230066   17.455051
  169  C       3    2.82   0.00         2    0    1  -0.007   29.478581   33.285858   17.760974
  170  C       3    2.81   0.00         2    0    1  -0.013   29.398024   30.844710   16.857102
  171  C       3    2.96   0.00         2    0    1   0.011   29.752431   18.894038   15.238920
  172  C       3    2.94   0.00         2    0    1   0.012   33.176888   26.721826   10.401886
  173  C       3    2.95   0.00         2    0    1   0.034   26.060617   25.147349   18.287755
  174  C       3    2.82   0.00         2    0    1   0.033   26.409157   26.063987   22.669197
  175  C       3    2.85   0.00         2    0    1  -0.016   27.564530   25.660084   20.358249
  176  C       3    2.94   0.00         2    0    1   0.032   16.164431   30.235216   36.121804
  177  C       3    2.85   0.00         2    0    1  -0.014   18.503359   34.069021   36.228169
  178  C       3    2.81   0.00         2    0    1  -0.015   16.408885   32.765160   35.420008
  179  C       3    2.95   0.00         2    0    1   0.009    6.352366   26.359587   33.701641
  180  C       3    2.81   0.00         2    0    1  -0.009  -15.828098   32.551015   19.862523
  181  C       3    2.95   0.00         2    0    1   0.008   -6.380539   26.034334   21.378782
  182  C       3    2.96   0.00         2    0    1   0.036   33.386715    7.720096   18.283682
  183  C       3    2.94   0.00         2    0    1   0.030   -9.971098   32.538961   18.214870
  184  C       3    2.95   0.00         2    0    1   0.012   23.513454    7.555523    2.997531
  185  C       3    2.95   0.00         2    0    1   0.035   16.051610    7.471364    0.039734
  186  C       3    2.82   0.00         2    0    1   0.033   15.370258    6.736104   32.338531
  187  C       3    2.85   0.00         2    0    1  -0.016   16.350838    5.933882   34.627887
  188  C       3    2.94   0.00         2    0    1   0.033   16.220388   30.195858   19.137500
  189  C       3    2.85   0.00         2    0    1  -0.014   18.575439   34.015929   18.900823
  190  C       3    2.81   0.00         2    0    1  -0.016   16.463226   32.754418   19.730933
  191  C       3    2.95   0.00         2    0    1   0.010    6.354964   26.389879   21.379124
  192  C       3    2.94   0.00         2    0    1   0.011   14.759137   27.581962   26.341364
  193  C       3    2.94   0.00         2    0    1   0.033   10.069679   32.654303   18.089557
  194  C       3    2.82   0.00         2    0    1   0.033   11.206957   32.998869   13.750649
  195  C       3    2.85   0.00         2    0    1  -0.016   11.340614   31.695963   16.019492
  196  C       3    2.84   0.00         2    0    1  -0.016   12.931492    2.234532    1.808309
  197  C       3    2.93   0.00         2    0    1   0.030   -9.761397   41.796892   19.065275
  198  C       3    2.81   0.00         2    0    1  -0.015  -12.149530   40.838859   19.640840
  199  C       3    2.95   0.00         2    0    1   0.007   -1.581957   35.126854   21.469101
  200  C       3    2.94   0.00         2    0    1   0.007   -6.558327   41.985623   26.263775
  201  C       3    2.96   0.00         2    0    1   0.037   -8.767231   34.925298   18.406793
  202  C       3    2.82   0.00         2    0    1   0.012   -9.515089   35.646114   14.052299
  203  C       3    2.81   0.00         2    0    1  -0.009   -8.555478   36.478593   16.322165
  204  C       3    2.94   0.00         2    0    1   0.033   -6.608276   13.447192   19.143849
  205  C       3    2.85   0.00         2    0    1  -0.014   -4.487847    9.499966   18.833327
  206  C       3    2.81   0.00         2    0    1  -0.016   -4.529489   11.935169   19.731995
  207  C       3    2.95   0.00         2    0    1   0.011   -5.065075   23.802368   21.448926
  208  C       3    2.94   0.00         2    0    1   0.011   -8.444944   16.005321   26.304841
  209  C       3    2.94   0.00         2    0    1   0.033   -1.428869   17.536954   18.066568
  210  C       3    2.85   0.00         2    0    1  -0.014  -14.237224   42.054279   18.688940
  211  C       3    2.82   0.00         2    0    1   0.033   10.646688    1.184174    1.050904
  212  C       3    2.94   0.00         2    0    1   0.011   18.080685    0.885572    7.946272
  213  C       3    2.85   0.00         2    0    1  -0.016   36.067826   11.232743   34.627222
  214  C       3    2.82   0.00         2    0    1  -0.007  -10.676911   33.280984   13.836779
  215  C       3    2.81   0.00         2    0    1  -0.012  -10.925984   31.720516   15.905332
  216  C       3    2.94   0.00         2    0    1   0.034    9.485245   41.454444   19.126360
  217  C       3    2.82   0.00         2    0    1   0.033   13.970909   41.318683   19.296802
  218  C       3    2.84   0.00         2    0    1  -0.016   11.656733   40.268579   19.959981
  219  C       3    2.95   0.00         2    0    1   0.011    1.008874   35.107342   21.394676
  220  C       3    2.95   0.00         2    0    1   0.010    6.637731   41.649190   26.047111
  221  C       3    2.93   0.00         2    0    1   0.033    8.679333   34.948347   17.909650
  222  C       3    2.84   0.00         2    0    1  -0.014    9.845148   35.274371   13.565171
  223  C       3    2.81   0.00         2    0    1  -0.016    8.602263   36.265630   15.623143
  224  C       3    2.94   0.00         2    0    1   0.035   15.135876    1.042578    1.073737
  225  C       3    2.82   0.00         2    0    1   0.033   20.381042   32.892922    1.011579
  226  C       3    2.94   0.00         2    0    1   0.008  -15.122065   27.288979   26.214479
  227  C       3    2.95   0.00         2    0    1   0.031   18.010460   29.081413    1.020915
  228  C       3    2.95   0.00         2    0    1   0.008   19.491440   18.740958    3.104641
  229  C       3    2.82   0.00         2    0    1   0.033   35.860086   10.003403   32.327188
  230  C       3    2.84   0.00         2    0    1  -0.016   20.140370   30.391970    1.771223
  231  C       3    2.94   0.00         2    0    1   0.008   39.776446   15.326491    7.964697
  232  C       3    2.95   0.00         2    0    1   0.008   31.171900   16.444725    3.084728
  233  C       3    2.81   0.00         2    0    1  -0.009   40.722035   10.171712    1.738317
  234  C       3    2.95   0.00         2    0    1   0.031   34.904533   10.173987    0.033887
  235  C       3    2.96   0.00         2    0    1   0.037   40.814962   12.680076    1.030902
  236  C       3    2.81   0.00         2    0    1  -0.009   21.816218   25.613211   34.643209
  237  C       3    2.82   0.00         2    0    1   0.012   23.031720   26.080126   32.390353
  238  C       3    2.96   0.00         2    0    1   0.037   23.258621   25.011786    0.055520
  239  C       3    2.94   0.00         2    0    1   0.008   16.198391   26.667811    7.971363
  240  C       3    2.82   0.00         2    0    1   0.012   42.641924    8.589302    0.978131
  241  Cl      1    1.07   0.00         0    0    1  -0.047   42.813933    5.418486   16.516475
  242  Cl      1    1.07   0.00         0    0    1  -0.047   16.809537   39.733211   34.644694
  243  Cl      1    1.07   0.00         0    0    1  -0.047  -12.547075   31.408520    6.968642
  244  Cl      1    1.07   0.00         0    0    1  -0.047  -18.417368   37.232075   34.925730
  245  Cl      1    1.06   0.00         0    0    1  -0.047    3.572923   15.822004    7.229996
  246  Cl      1    1.07   0.00         0    0    1  -0.047    1.524615    8.206120   35.141448
  247  Cl      1    1.07   0.00         0    0    1  -0.047    8.007392    3.134224   16.234398
  248  Cl      1    1.07   0.00         0    0    1  -0.047   23.204128   34.329739   16.781395
  249  Cl      1    1.06   0.00         0    0    1  -0.047    9.170956   37.904968    7.215145
  250  Cl      1    1.06   0.00         0    0    1  -0.047   12.707455   31.733813   11.172130
  251  Cl      1    1.07   0.00         0    0    1  -0.047   15.803595    4.836901   29.750398
  252  Cl      1    1.07   0.00         0    0    1  -0.047    7.894273    2.723447    1.767254
  253  Cl      1    1.07   0.00         0    0    1  -0.047   37.274972   11.354107   29.747028
  254  Cl      1    1.07   0.00         0    0    1  -0.047   23.046103   34.536090    1.819958
  255  Cl      1    1.07   0.00         0    0    1  -0.047   16.693013   39.798690   20.151402
  256  Cl      1    1.07   0.00         0    0    1  -0.047    1.460971    8.312715   20.151277
  257  Cl      1    1.07   0.00         0    0    1  -0.047   28.304145   26.607408   25.239294
  258  Cl      1    1.07   0.00         0    0    1  -0.047   -3.559334   15.795628   11.135093
  259  H       1    0.98   0.00         0    0    0   0.081   39.187934    9.279676   15.673656
  260  H       1    0.97   0.00         0    0    0   0.084   30.282411   14.770058   15.158823
  261  H       1    0.98   0.00         0    0    0   0.084   -7.913334   15.774641   11.762645
  262  H       1    0.97   0.00         0    0    0   0.088   36.020446    9.912283   24.678301
  263  H       1    0.98   0.00         0    0    0   0.082   36.529732   12.695297   20.897260
  264  H       1    0.98   0.00         0    0    0   0.081   13.206299    4.182832   15.443304
  265  H       1    0.97   0.00         0    0    0   0.083   22.351310    9.117893   15.152354
  266  H       1    0.97   0.00         0    0    0   0.083    3.045784   23.855255   33.378956
  267  H       1    0.97   0.00         0    0    0   0.088   15.169440    6.523279   24.638516
  268  H       1    0.98   0.00         0    0    0   0.082   17.363362    4.719460   20.865306
  269  H       1    0.98   0.00         0    0    0   0.081    2.950343   13.248342   34.008579
  270  H       1    0.98   0.00         0    0    0   0.080   20.215796   25.457073   20.991861
  271  H       1    0.97   0.00         0    0    0   0.083    9.301902   14.995067   29.907691
  272  H       1    0.98   0.00         0    0    0   0.081    4.983198   16.907569    2.241280
  273  H       1    0.98   0.00         0    0    0   0.081  -14.771733   33.457272   33.830290
  274  H       1    0.97   0.00         0    0    0   0.084   -7.287884   42.144795   11.776924
  275  H       1    0.98   0.00         0    0    0   0.085   22.938983   26.263258   24.726113
  276  H       1    0.98   0.00         0    0    0   0.081   29.158294   25.283715   34.158659
  277  H       1    0.97   0.00         0    0    0   0.083   21.393155   18.799266   15.196101
  278  H       1    0.97   0.00         0    0    0   0.084    8.043930   15.819795    6.566012
  279  H       1    0.98   0.00         0    0    0   0.085   13.408950    9.643106   30.328665
  280  H       1    0.98   0.00         0    0    0   0.079   12.731706   12.343832   34.104292
  281  H       1    0.97   0.00         0    0    0   0.085   40.739552    1.570286    0.718433
  282  H       1    0.97   0.00         0    0    0   0.079   36.876406    3.689925    2.256874
  283  H       1    0.97   0.00         0    0    0   0.084   27.343630    9.163273    3.115582
  284  H       1    0.97   0.00         0    0    0   0.084    6.965543   41.744598    6.596272
  285  H       1    0.97   0.00         0    0    0   0.084   14.970486   27.807015   11.765602
  286  H       1    0.98   0.00         0    0    0   0.085   34.322224    6.870133   30.291639
  287  H       1    0.97   0.00         0    0    0   0.085   27.357520   34.177765    0.851700
  288  H       1    0.98   0.00         0    0    0   0.080   27.582205   29.719594    2.312886
  289  H       1    0.97   0.00         0    0    0   0.084   27.854284   18.952574    3.130997
  290  H       1    0.98   0.00         0    0    0   0.084  -14.848091   27.826582    6.611057
  291  H       1    0.97   0.00         0    0    0   0.088   26.519117   26.261988   30.368865
  292  H       1    0.97   0.00         0    0    0   0.083   -5.696898   28.086296   33.330611
  293  H       1    0.98   0.00         0    0    0   0.081   21.694849   29.272868   15.849134
  294  H       1    0.98   0.00         0    0    0   0.080   32.343744    4.885167   34.052128
  295  H       1    0.97   0.00         0    0    0   0.083   32.698102   26.855530   30.090675
  296  H       1    0.97   0.00         0    0    0   0.083   31.711208    0.597347   29.850076
  297  H       1    0.98   0.00         0    0    0   0.081   11.663351   38.557482   33.719285
  298  H       1    0.97   0.00         0    0    0   0.078    0.224096   19.690144   23.592239
  299  H       1    0.97   0.00         0    0    0   0.079   -7.850245   32.562680   23.998678
  300  H       1    0.97   0.00         0    0    0   0.078    7.324279   32.956706   23.591504
  301  H       1    0.97   0.00         0    0    0   0.078   24.851755   23.044332    5.650397
  302  H       1    0.97   0.00         0    0    0   0.079   32.342131    9.669409    5.590124
  303  H       1    0.97   0.00         0    0    0   0.078   17.024927    9.964110    5.566690
  304  H       1    0.97   0.00         0    0    0   0.285   27.429631   33.391107   30.304067
  305  H       1    0.97   0.00         0    0    0   0.285   28.502961   31.002974   31.457012
  306  H       1    0.97   0.00         0    0    0   0.285    2.003707   14.164979   25.619538
  307  H       1    0.97   0.00         0    0    0   0.285    3.425109   13.554927   28.026185
  308  H       1    0.97   0.00         0    0    0   0.285   12.308161   41.518836   26.573100
  309  H       1    0.97   0.00         0    0    0   0.285   14.023596   41.959812   28.819724
  310  H       1    0.97   0.00         0    0    0   0.285   26.470770   16.490272   10.034877
  311  H       1    0.97   0.00         0    0    0   0.285   27.286181   13.994388   11.170731
  312  H       1    0.97   0.00         0    0    0   0.084   18.960288   14.615587    3.124605
  313  H       1    0.97   0.00         0    0    0   0.078   -0.103674   19.742445   31.422401
  314  H       1    0.97   0.00         0    0    0   0.078   -7.629262   33.009265   31.111439
  315  H       1    0.97   0.00         0    0    0   0.078    7.547405   32.741351   31.425119
  316  H       1    0.97   0.00         0    0    0   0.078   24.345246   23.085639   12.763276
  317  H       1    0.97   0.00         0    0    0   0.083    2.494218   33.508324   33.419754
  318  H       1    0.98   0.00         0    0    0   0.081    7.552593   38.606113    2.220998
  319  H       1    0.97   0.00         0    0    0   0.079   10.615711   18.206120   18.029452
  320  H       1    0.97   0.00         0    0    0   0.079   28.177625    0.070017   18.099052
  321  H       1    0.97   0.00         0    0    0   0.078   34.855007   24.143532   18.188565
  322  H       1    0.97   0.00         0    0    0   0.079   13.977786   24.487148    0.110079
  323  H       1    0.97   0.00         0    0    0   0.078   -3.518536   42.602350    0.050287
  324  H       1    0.98   0.00         0    0    0   0.081  -12.502488   29.836400    1.925642
  325  H       1    0.97   0.00         0    0    0   0.078  -10.196431   18.536886    0.128027
  326  H       1    0.97   0.00         0    0    0   0.079   -3.630153   42.436214   18.562083
  327  H       1    0.97   0.00         0    0    0   0.078  -10.336461   18.351463   18.554703
  328  H       1    0.97   0.00         0    0    0   0.078   10.561690   18.296388   36.670269
  329  H       1    0.97   0.00         0    0    0   0.078   28.315164    0.099793   36.661700
  330  H       1    0.97   0.00         0    0    0   0.078   35.130772   24.386097   36.625093
  331  H       1    0.97   0.00         0    0    0   0.078   17.238264    9.593065   12.704151
  332  H       1    0.97   0.00         0    0    0   0.078   32.500899   10.090735   12.689255
  333  H       1    0.97   0.00         0    0    0   0.078   13.911250   24.490552   18.507540
  334  H       1    0.98   0.00         0    0    0   0.079    9.834513    9.050746    2.198260
  335  H       1    0.98   0.00         0    0    0   0.081   37.158841   12.936749   34.785600
  336  H       1    0.98   0.00         0    0    0   0.081   -4.917816   16.800323   16.151432
  337  H       1    0.97   0.00         0    0    0   0.085   11.563434   33.121044    6.586886
  338  H       1    0.98   0.00         0    0    0   0.079   12.060877   30.375820    2.794390
  339  H       1    0.97   0.00         0    0    0   0.085  -15.892577   40.819949   35.866193
  340  H       1    0.98   0.00         0    0    0   0.079  -11.929177   38.749113   34.428543
  341  H       1    0.97   0.00         0    0    0   0.084   -2.574620   33.491377   33.499026
  342  H       1    0.98   0.00         0    0    0   0.084   17.782646    0.946065   30.057786
  343  H       1    0.98   0.00         0    0    0   0.085   -9.554392   35.862396    6.400080
  344  H       1    0.98   0.00         0    0    0   0.079   -7.575435   37.821253    2.626223
  345  H       1    0.97   0.00         0    0    0   0.088   -3.123636    8.228374   35.723823
  346  H       1    0.97   0.00         0    0    0   0.081   -2.983387   12.722658   34.348364
  347  H       1    0.97   0.00         0    0    0   0.084   -3.123487   23.711967   33.476009
  348  H       1    0.98   0.00         0    0    0   0.084   39.601793   14.921409   30.110498
  349  H       1    0.97   0.00         0    0    0   0.085   -1.770362   16.115767    6.602174
  350  H       1    0.98   0.00         0    0    0   0.080   -4.399772   17.028732    2.805732
  351  H       1    0.98   0.00         0    0    0   0.081    2.961596   13.393340   20.999678
  352  H       1    0.97   0.00         0    0    0   0.084   16.324685   27.452836   30.189556
  353  H       1    0.97   0.00         0    0    0   0.084    5.590428   28.239175   33.507531
  354  H       1    0.98   0.00         0    0    0   0.080   14.956671   33.649827   34.307904
  355  H       1    0.98   0.00         0    0    0   0.085   18.727548   36.038584   35.769225
  356  H       1    0.98   0.00         0    0    0   0.085    5.760870    6.669166   17.484317
  357  H       1    0.98   0.00         0    0    0   0.080    9.516936    8.985562   15.869957
  358  H       1    0.97   0.00         0    0    0   0.085   18.838944   14.415755   15.014703
  359  H       1    0.97   0.00         0    0    0   0.085    8.138226   15.870069   11.627342
  360  H       1    0.98   0.00         0    0    0   0.085   12.217243   12.542931   20.173013
  361  H       1    0.97   0.00         0    0    0   0.085   40.587585    1.676479   17.512871
  362  H       1    0.98   0.00         0    0    0   0.080   36.686208    3.754474   15.917288
  363  H       1    0.97   0.00         0    0    0   0.084    3.046841   23.876871   21.519778
  364  H       1    0.97   0.00         0    0    0   0.085   27.421845    9.152663   14.949263
  365  H       1    0.97   0.00         0    0    0   0.085    6.817182   41.804368   11.658025
  366  H       1    0.98   0.00         0    0    0   0.085   32.312095    4.334618   20.200334
  367  H       1    0.97   0.00         0    0    0   0.088   27.938476   34.567326   17.396414
  368  H       1    0.97   0.00         0    0    0   0.082   27.816544   30.146563   15.787433
  369  H       1    0.97   0.00         0    0    0   0.084   27.745656   19.164758   15.005316
  370  H       1    0.97   0.00         0    0    0   0.083  -14.893820   27.740236   11.675278
  371  H       1    0.98   0.00         0    0    0   0.081   29.582297   25.782724   20.192348
  372  H       1    0.97   0.00         0    0    0   0.085    6.033579    6.642340    0.846842
  373  H       1    0.97   0.00         0    0    0   0.084    9.036158   14.831225   24.844928
  374  H       1    0.97   0.00         0    0    0   0.285   36.860273    5.546266    9.138102
  375  H       1    0.98   0.00         0    0    0   0.080    4.454045   17.092258   15.461718
  376  H       1    0.97   0.00         0    0    0   0.083   -7.063695   42.027122    6.716628
  377  H       1    0.98   0.00         0    0    0   0.081   17.275454    4.133385   34.771367
  378  H       1    0.98   0.00         0    0    0   0.085   18.794515   36.005806   19.267246
  379  H       1    0.98   0.00         0    0    0   0.080   14.981463   33.697277   20.752717
  380  H       1    0.97   0.00         0    0    0   0.084    5.588849   28.260724   21.636331
  381  H       1    0.97   0.00         0    0    0   0.083   16.328068   27.119728   25.126296
  382  H       1    0.98   0.00         0    0    0   0.081   12.446766   30.000928   16.166431
  383  H       1    0.97   0.00         0    0    0   0.083   22.274227    9.155566    3.243770
  384  H       1    0.97   0.00         0    0    0   0.084   39.564576   15.047341   25.044702
  385  H       1    0.98   0.00         0    0    0   0.080   -2.985870   12.713596   20.799814
  386  H       1    0.97   0.00         0    0    0   0.085   -2.880926    8.301999   19.185645
  387  H       1    0.97   0.00         0    0    0   0.085    1.786919   16.127969   11.701367
  388  H       1    0.97   0.00         0    0    0   0.085   17.840075    0.870542   24.993919
  389  H       1    0.97   0.00         0    0    0   0.085   -2.829551   33.534646   21.713020
  390  H       1    0.97   0.00         0    0    0   0.080  -12.329889   39.151875   20.760978
  391  H       1    0.97   0.00         0    0    0   0.085  -16.102015   41.311738   19.048746
  392  H       1    0.97   0.00         0    0    0   0.084   -3.053844   23.550447   21.661167
  393  H       1    0.98   0.00         0    0    0   0.081   12.992882    3.984394    2.836096
  394  H       1    0.98   0.00         0    0    0   0.085   -7.738389   38.326620   16.492282
  395  H       1    0.97   0.00         0    0    0   0.084   -7.992205   15.806410    6.701441
  396  H       1    0.98   0.00         0    0    0   0.085  -14.246714   33.231260   20.937473
  397  H       1    0.97   0.00         0    0    0   0.285   38.708955    7.666012    8.615083
  398  H       1    0.97   0.00         0    0    0   0.085   -5.631769   27.921579   21.549193
  399  H       1    0.97   0.00         0    0    0   0.088  -11.379999   32.708735   12.011892
  400  H       1    0.98   0.00         0    0    0   0.082  -11.861396   29.920575   15.793032
  401  H       1    0.98   0.00         0    0    0   0.081   11.552241   38.549554   21.034814
  402  H       1    0.97   0.00         0    0    0   0.083    2.243856   33.495530   21.571123
  403  H       1    0.97   0.00         0    0    0   0.084   31.928811    0.424678   24.789548
  404  H       1    0.98   0.00         0    0    0   0.085   32.574531   26.850674   25.028295
  405  H       1    0.98   0.00         0    0    0   0.080    7.581758   38.018794   15.519555
  406  H       1    0.98   0.00         0    0    0   0.081   21.607341   29.468452    2.828236
  407  H       1    0.97   0.00         0    0    0   0.084   21.500412   19.008325    3.317528
  408  H       1    0.97   0.00         0    0    0   0.084   14.992376   27.709248    6.703736
  409  H       1    0.98   0.00         0    0    0   0.085   19.804127   25.812946   34.803212
  410  H       1    0.97   0.00         0    0    0   0.084   30.409538   14.569739    3.320863
  411  H       1    0.97   0.00         0    0    0   0.085    9.764865   36.210257   11.758449
  412  H       1    0.98   0.00         0    0    0   0.085   39.124020    9.444719    2.755698
  413  N       3    2.85   0.00         2    0    1  -0.102    6.427428   17.930728   29.494196
  414  N       3    2.82   0.00         2    0    1  -0.118    2.139868   18.354514   34.495659
  415  N       3    2.83   0.00         2    0    1  -0.118  -14.437875   28.199094   35.239087
  416  N       3    2.86   0.00         2    0    1  -0.101   -8.988108   25.615185   33.440705
  417  N       3    2.83   0.00         2    0    1  -0.118    7.035978   41.004356   35.253731
  418  N       3    2.82   0.00         2    0    1  -0.118   -9.947268   31.718431   34.165472
  419  N       3    2.86   0.00         2    0    1  -0.101    2.021752   37.592196   33.568745
  420  N       3    2.85   0.00         2    0    1  -0.102    5.900971   39.341265   29.467441
  421  N       3    2.82   0.00         2    0    1  -0.118    7.675343   35.397777   34.479123
  422  N       3    2.86   0.00         2    0    1  -0.101    6.811219   22.198276   33.521565
  423  N       3    2.85   0.00         2    0    1  -0.101  -12.685177   28.036920   29.539165
  424  N       3    2.83   0.00         2    0    1  -0.118    7.373509   16.162531   35.321960
  425  N       3    2.81   0.00         2    0    1  -0.120   22.451527   24.366468   16.138348
  426  N       3    2.85   0.00         2    0    1  -0.108   18.835184    3.275581   11.317711
  427  N       3    2.85   0.00         2    0    1  -0.106   22.842887    5.036002   15.296523
  428  N       3    2.83   0.00         2    0    1  -0.123   17.728760    1.660277   17.140231
  429  N       3    2.82   0.00         2    0    1  -0.119   34.501855   11.180500   16.062166
  430  N       3    2.85   0.00         2    0    1  -0.107   33.594720   17.211083   15.249009
  431  N       3    2.83   0.00         2    0    1  -0.124   39.027232   14.517615   17.199393
  432  N       3    2.84   0.00         2    0    1  -0.102   17.956156   24.962298   11.388162
  433  N       3    2.85   0.00         2    0    1  -0.101   17.629150   20.463066   15.230222
  434  N       3    2.83   0.00         2    0    1  -0.119   17.208155   26.496400   17.229947
  435  N       3    2.82   0.00         2    0    1  -0.120   26.804001   24.267792    2.295978
  436  N       3    2.84   0.00         2    0    1  -0.108   31.405237   25.038640    6.981011
  437  N       3    2.85   0.00         2    0    1  -0.107   31.616491   20.616777    3.077247
  438  N       3    2.82   0.00         2    0    1  -0.119   17.141000    7.286722   16.056533
  439  N       3    2.79   0.00         2    0    1   0.274   12.959503   20.803417   14.618741
  440  N       3    2.79   0.00         2    0    1   0.272    3.452715   20.958412   27.449579
  441  N       3    2.79   0.00         2    0    1   0.273   11.494184   21.886233   33.071353
  442  N       3    2.79   0.00         2    0    1   0.276  -17.626464   36.759244   20.070741
  443  N       3    2.79   0.00         2    0    1   0.275   42.428656    5.938163    1.690224
  444  N       3    2.79   0.00         2    0    1   0.276   12.132413   10.573129   24.733570
  445  N       3    2.79   0.00         2    0    1   0.276   34.034236    5.251018   24.767965
  446  N       3    2.79   0.00         2    0    1   0.275   -9.379778   37.366607   11.907505
  447  N       3    2.79   0.00         2    0    1   0.275   21.498416   26.916277   30.264171
  448  N       3    2.79   0.00         2    0    1   0.272   20.062735    7.312182    9.205641
  449  N       3    2.79   0.00         2    0    1   0.273   33.290026   13.609300    9.285092
  450  N       3    2.79   0.00         2    0    1   0.273   20.976367   21.967645    9.312459
  451  N       3    2.79   0.00         2    0    1   0.272    4.704502   35.253339   27.461038
  452  N       3    2.79   0.00         2    0    1   0.273   -8.617940   29.073621   27.431363
  453  N       3    2.83   0.00         2    0    1  -0.125   31.910480   26.634133    1.079870
  454  N       3    2.79   0.00         2    0    1   0.274   24.924502    0.831303   14.773954
  455  N       3    2.79   0.00         2    0    1   0.274   -3.508203   20.539791   27.611466
  456  N       3    2.79   0.00         2    0    1   0.274    8.253287   29.296563   27.557110
  457  N       3    2.79   0.00         2    0    1   0.274   28.338872   22.081964    9.054394
  458  N       3    2.79   0.00         2    0    1   0.276   29.687192    7.209233    9.037359
  459  N       3    2.79   0.00         2    0    1   0.276   16.072761   13.451261    9.032047
  460  N       3    2.79   0.00         2    0    1   0.273   24.825933    0.868507    3.602179
  461  N       3    2.79   0.00         2    0    1   0.274   36.284525   20.963349    3.694089
  462  N       3    2.79   0.00         2    0    1   0.274   13.038382   20.947632    3.728905
  463  N       3    2.79   0.00         2    0    1   0.274   -0.218994   41.819504   21.942859
  464  N       3    2.79   0.00         2    0    1   0.274  -11.504989   21.537300   22.027175
  465  N       3    2.79   0.00         2    0    1   0.273   11.494274   21.904120   21.916718
  466  N       3    2.79   0.00         2    0    1   0.273  -11.560603   21.678419   33.019653
  467  N       3    2.79   0.00         2    0    1   0.273   -0.063954   41.795722   33.107225
  468  N       3    2.79   0.00         2    0    1   0.276   -5.018369   35.465327   27.618709
  469  N       3    2.82   0.00         2    0    1  -0.119   32.535140    7.377065    2.223773
  470  N       3    2.79   0.00         2    0    1   0.273   36.216431   21.094938   14.688017
  471  N       3    2.85   0.00         2    0    1  -0.104   26.898656    5.072744    3.014743
  472  N       3    2.85   0.00         2    0    1  -0.106   -8.921733   25.450550   21.479716
  473  N       3    2.83   0.00         2    0    1  -0.121  -14.319761   28.007605   19.446877
  474  N       3    2.82   0.00         2    0    1  -0.120    2.146429   18.380090   20.240333
  475  N       3    2.84   0.00         2    0    1  -0.103    6.352543   17.913495   25.320791
  476  N       3    2.85   0.00         2    0    1  -0.103    6.813979   22.222124   21.376727
  477  N       3    2.83   0.00         2    0    1  -0.118    7.361134   16.199498   19.413670
  478  N       3    2.82   0.00         2    0    1  -0.125   -2.048919   18.365637   34.734230
  479  N       3    2.84   0.00         2    0    1  -0.107   -6.578799   17.620856   29.710716
  480  N       3    2.85   0.00         2    0    1  -0.108   -6.879876   22.033501   33.556305
  481  N       3    2.84   0.00         2    0    1  -0.120   -7.099273   16.129479   35.649380
  482  N       3    2.82   0.00         2    0    1  -0.121   -7.805065   35.319371   34.464294
  483  N       3    2.84   0.00         2    0    1  -0.101   -6.026325   39.597878   29.683346
  484  N       3    2.85   0.00         2    0    1  -0.104   -2.135358   37.582005   33.640453
  485  N       3    2.83   0.00         2    0    1  -0.121   -7.086504   40.936172   35.633739
  486  N       3    2.82   0.00         2    0    1  -0.121    9.736452   31.753686   34.728238
  487  N       3    2.84   0.00         2    0    1  -0.103   12.328908   28.290745   29.695207
  488  N       3    2.85   0.00         2    0    1  -0.103    8.897789   25.792368   33.635133
  489  N       3    2.83   0.00         2    0    1  -0.118   10.143188   14.297703   16.934920
  490  N       3    2.85   0.00         2    0    1  -0.101   15.536806   16.871239   15.081697
  491  N       3    2.85   0.00         2    0    1  -0.100   12.005153   14.538297   11.119095
  492  N       3    2.81   0.00         2    0    1  -0.116   14.884734   10.813730   15.774396
  493  N       3    2.83   0.00         2    0    1  -0.118   31.793922    1.628300   17.002354
  494  N       3    2.86   0.00         2    0    1  -0.101   26.996126    5.062436   15.133761
  495  N       3    2.84   0.00         2    0    1  -0.107  -12.738018   27.952331   25.373033
  496  N       3    2.85   0.00         2    0    1  -0.100   30.735508    3.138876   11.138152
  497  N       3    2.84   0.00         2    0    1  -0.101   30.744909    3.086922    6.968115
  498  N       3    2.84   0.00         2    0    1  -0.118   31.902894   26.680191   16.947813
  499  N       3    2.86   0.00         2    0    1  -0.107   31.517402   20.808275   15.109809
  500  N       3    2.85   0.00         2    0    1  -0.106   31.314905   25.056551   11.145839
  501  N       3    2.82   0.00         2    0    1  -0.123   26.634928   24.494487   15.785764
  502  N       3    2.83   0.00         2    0    1  -0.119   14.359270   28.383771   35.613721
  503  N       3    2.82   0.00         2    0    1  -0.116   32.555985    7.472648   15.785587
  504  N       3    2.82   0.00         2    0    1  -0.117   -9.843368   31.450703   20.629249
  505  N       3    2.84   0.00         2    0    1  -0.107   37.397801   14.699852   11.373685
  506  N       3    2.85   0.00         2    0    1  -0.101    1.814145   37.587431   21.441520
  507  N       3    2.83   0.00         2    0    1  -0.119   -7.235935   15.946461   19.696339
  508  N       3    2.86   0.00         2    0    1  -0.101   -6.812638   21.871219   21.580124
  509  N       3    2.85   0.00         2    0    1  -0.101   -6.550484   17.623391   25.538206
  510  N       3    2.82   0.00         2    0    1  -0.119   -2.035137   18.255479   20.549573
  511  N       3    2.83   0.00         2    0    1  -0.121   10.278948   14.360426    1.055322
  512  N       3    2.85   0.00         2    0    1  -0.102   15.647848   17.056103    3.108946
  513  N       3    2.84   0.00         2    0    1  -0.101   11.978834   14.589303    6.948995
  514  N       3    2.81   0.00         2    0    1  -0.121   14.870694   10.934877    2.241948
  515  N       3    2.83   0.00         2    0    1  -0.121   31.933698    1.660292    1.078783
  516  N       3    2.81   0.00         2    0    1  -0.114   -7.930961   35.178893   20.902005
  517  N       3    2.85   0.00         2    0    1  -0.100   -6.077913   39.535327   25.513213
  518  N       3    2.85   0.00         2    0    1  -0.101   -2.345973   37.619321   21.558035
  519  N       3    2.82   0.00         2    0    1  -0.118   -7.308984   41.039518   19.674736
  520  N       3    2.82   0.00         2    0    1  -0.119    9.719880   31.742308   20.557479
  521  N       3    2.85   0.00         2    0    1  -0.102   12.361604   28.202374   25.523149
  522  N       3    2.83   0.00         2    0    1  -0.118    6.902431   40.948094   19.471719
  523  N       3    2.83   0.00         2    0    1  -0.120   14.370736   28.387654   19.651380
  524  N       3    2.85   0.00         2    0    1  -0.102    8.897105   25.817881   21.479358
  525  N       3    2.82   0.00         2    0    1  -0.120    7.546101   35.319542   20.269890
  526  N       3    2.83   0.00         2    0    1  -0.117   17.199513   26.588445    1.429225
  527  N       3    2.85   0.00         2    0    1  -0.100   17.727973   20.654367    3.270947
  528  N       3    2.84   0.00         2    0    1  -0.103    5.911240   39.262924   25.294017
  529  N       3    2.81   0.00         2    0    1  -0.115   22.615485   24.387419    2.545113
  530  N       3    2.83   0.00         2    0    1  -0.114   39.145618   14.688902    1.434740
  531  N       3    2.85   0.00         2    0    1  -0.101   18.026176   24.967846    7.218440
  532  N       3    2.85   0.00         2    0    1  -0.101   37.377939   14.641872    7.206633
  533  N       3    2.82   0.00         2    0    1  -0.116   34.636783   11.002029    2.537242
  534  N       3    2.83   0.00         2    0    1  -0.118   17.704663    1.610867    1.439592
  535  N       3    2.85   0.00         2    0    1  -0.101   22.739473    5.069657    3.122897
  536  N       3    2.85   0.00         2    0    1  -0.102   18.849176    3.247259    7.151285
  537  N       3    2.86   0.00         2    0    1  -0.100   33.708452   17.031042    3.236781
  538  N       3    2.82   0.00         2    0    1  -0.118   16.957557    7.299190    2.524061
  539  O       1    0.98   0.00         2    0    1  -0.290   -1.728399   42.354661   15.043810
  540  O       1    0.98   0.00         2    0    1  -0.295   19.713113   28.356646   30.704398
  541  O       1    0.98   0.00         2    0    1  -0.295   22.025644   26.163956   28.120088
  542  O       1    0.99   0.00         2    0    1  -0.289    4.518545   34.196145   29.533267
  543  O       1    0.98   0.00         2    0    1  -0.290   26.633931    0.213304   32.942477
  544  O       1    0.98   0.00         2    0    1  -0.289    2.602139   21.648687   29.510282
  545  O       1    0.98   0.00         2    0    1  -0.289   35.742511   22.885196   32.788144
  546  O       1    0.98   0.00         2    0    1  -0.290   11.406696   19.566918   32.798170
  547  O       1    0.98   0.00         2    0    1  -0.289   20.501185    8.359508   11.243130
  548  O       1    0.99   0.00         2    0    1  -0.289   32.131343   13.562822   11.307962
  549  O       1    0.99   0.00         2    0    1  -0.289   -7.608750   29.629463   29.460082
  550  O       1    0.98   0.00         2    0    1  -0.295   -9.771690   39.636673   12.296883
  551  O       1    0.98   0.00         2    0    1  -0.295   40.604780    5.296233    3.012810
  552  O       1    0.98   0.00         2    0    1  -0.295   33.645304    6.097327   26.907192
  553  O       1    0.98   0.00         2    0    1  -0.295   34.342750    2.976085   24.336023
  554  O       1    0.98   0.00         2    0    1  -0.295   13.030429   10.425566   26.882429
  555  O       1    0.98   0.00         2    0    1  -0.295   10.032776   11.496439   24.292366
  556  O       1    0.98   0.00         2    0    1  -0.295   44.031968    4.414806    0.931376
  557  O       1    0.98   0.00         2    0    1  -0.295  -19.215638   38.300301   19.316587
  558  O       1    0.98   0.00         2    0    1  -0.295  -15.869439   37.353297   21.500588
  559  O       2    1.92   0.00         3    0    0  -0.571   28.555131   32.017424   29.960323
  560  O       2    1.92   0.00         3    0    0  -0.571    1.800684   14.063333   27.414074
  561  O       1    0.98   0.00         2    0    1  -0.289  -11.076208   19.886713   14.772595
  562  O       2    1.92   0.00         3    0    0  -0.571   26.302387   15.471557   11.520063
  563  O       2    1.92   0.00         3    0    0  -0.571   36.975344    7.347674    9.021488
  564  O       1    0.98   0.00         2    0    1  -0.295   -8.867649   36.510431    9.798421
  565  O       2    1.92   0.00         3    0    0  -0.571   13.035154   40.683656   28.003439
  566  O       1    0.99   0.00         2    0    1  -0.289   21.610623   21.015401   11.344112
  567  O       1    0.99   0.00         2    0    1  -0.289   27.738274   21.087060    7.033557
  568  O       1    0.98   0.00         2    0    1  -0.289    2.727768   21.824822   25.408338
  569  O       1    0.98   0.00         2    0    1  -0.290   13.010906   23.139215   14.686971
  570  O       1    0.98   0.00         2    0    1  -0.290   11.459404   19.569308   21.838791
  571  O       1    0.99   0.00         2    0    1  -0.290   -2.827375   21.459516   29.643308
  572  O       1    0.98   0.00         2    0    1  -0.289   37.813050   19.343632   32.943061
  573  O       1    0.99   0.00         2    0    1  -0.290   -4.532079   34.439630   29.655140
  574  O       1    0.98   0.00         2    0    1  -0.290   22.529970    0.213752   32.938533
  575  O       1    0.98   0.00         2    0    1  -0.290    7.148215   29.537872   29.596985
  576  O       1    0.98   0.00         2    0    1  -0.290   13.492083   23.095877   33.005450
  577  O       1    0.99   0.00         2    0    1  -0.289   27.336030   21.515506   11.083063
  578  O       1    0.98   0.00         2    0    1  -0.289  -13.148583   23.396956   14.288295
  579  O       1    0.99   0.00         2    0    1  -0.290   29.588079    8.335939   11.077107
  580  O       1    0.98   0.00         2    0    1  -0.290    2.287711   42.465003   14.211122
  581  O       1    0.99   0.00         2    0    1  -0.290   17.084067   12.947432   11.072080
  582  O       1    0.98   0.00         2    0    1  -0.290   11.003159   19.590799   14.210763
  583  O       1    0.98   0.00         2    0    1  -0.290   35.773542   22.721337   21.938142
  584  O       1    0.99   0.00         2    0    1  -0.289   -7.469697   29.110472   25.402926
  585  O       1    0.98   0.00         2    0    1  -0.290  -11.034931   19.754130    4.027484
  586  O       1    0.98   0.00         2    0    1  -0.289    4.311296   34.173106   25.430692
  587  O       1    0.98   0.00         2    0    1  -0.290   -1.871179   42.459069    3.823342
  588  O       1    0.99   0.00         2    0    1  -0.289   20.184851    8.420526    7.155752
  589  O       1    0.98   0.00         2    0    1  -0.290   13.442456   23.130373   22.320691
  590  O       1    0.98   0.00         2    0    1  -0.290    7.223440   29.650371   25.493724
  591  O       1    0.98   0.00         2    0    1  -0.290   22.402569    0.231801   22.337594
  592  O       1    0.99   0.00         2    0    1  -0.289   32.291196   13.068117    7.247611
  593  O       1    0.98   0.00         2    0    1  -0.290   26.476858    0.248673   21.844118
  594  O       1    0.98   0.00         2    0    1  -0.290   37.886008   19.236960   22.431136
  595  O       1    0.99   0.00         2    0    1  -0.290   -4.954775   34.326313   25.584987
  596  O       1    0.98   0.00         2    0    1  -0.290   11.043024   19.731045    3.770726
  597  O       1    0.99   0.00         2    0    1  -0.290   17.216542   13.363210    7.002750
  598  O       1    0.98   0.00         2    0    1  -0.290    2.231920   42.445622    3.733558
  599  O       1    0.99   0.00         2    0    1  -0.290   29.227548    8.244212    6.999978
  600  O       1    0.98   0.00         2    0    1  -0.290  -13.076425   23.299427    3.705217
  601  O       1    0.99   0.00         2    0    1  -0.289   21.927632   21.346517    7.275114
  602  O       1    0.98   0.00         2    0    1  -0.290   13.115110   23.265385    4.023075
  603  O       1    0.99   0.00         2    0    1  -0.290   -2.590777   21.168155   25.560693
  604  Zn      4    3.46   0.13         3    2    0   0.211    5.660348   38.285016   33.083845
  605  Zn      4    3.48   0.14         3    2    0   0.211  -11.427867   28.424594   33.050017
  606  Zn      4    3.46   0.13         3    2    0   0.211    5.650385   18.666559   33.117408
  607  Zn      4    3.46   0.13         3    2    0   0.212   19.190969    4.311298   14.928021
  608  Zn      4    3.47   0.14         3    2    0   0.212   30.418139   24.147125    3.439464
  609  Zn      4    3.45   0.14         3    2    0   0.211   18.844924   24.012716   14.953948
  610  Zn      4    3.46   0.15         3    2    0   0.212   13.141242   14.010204   14.675667
  611  Zn      4    3.46   0.14         3    2    0   0.212   30.648840    4.374798   14.698335
  612  Zn      4    3.49   0.15         3    2    0   0.213   30.224456   24.279476   14.647587
  613  Zn      4    3.46   0.14         3    2    0   0.211   11.356727   28.608835   33.350630
  614  Zn      4    3.45   0.14         3    2    0   0.211   -5.799039   38.328720   33.260925
  615  Zn      4    3.47   0.15         3    2    0   0.212   -5.557418   18.536445   33.259983
  616  Zn      4    3.46   0.14         3    2    0   0.211    5.654253   18.674521   21.665365
  617  Zn      4    3.46   0.14         3    2    0   0.213   36.083394   14.431230   14.910003
  618  Zn      4    3.46   0.14         3    2    0   0.213  -11.439285   28.203748   21.817315
  619  Zn      4    3.47   0.13         3    2    0   0.212   36.178244   14.271423    3.666664
  620  Zn      4    3.47   0.13         3    2    0   0.211   19.089575    4.362989    3.577835
  621  Zn      4    3.46   0.14         3    2    0   0.211   11.359568   28.604414   21.899517
  622  Zn      4    3.46   0.15         3    2    0   0.212   -6.029125   38.303233   21.946042
  623  Zn      4    3.47   0.14         3    2    0   0.211   -5.544177   18.376741   21.976877
  624  Zn      4    3.45   0.14         3    2    0   0.211   13.224417   14.186079    3.382248
  625  Zn      4    3.45   0.14         3    2    0   0.211   30.574220    4.318216    3.376520
  626  Zn      4    3.46   0.14         3    2    0   0.212   18.987501   24.161988    3.665883
  627  Zn      4    3.45   0.14         3    2    0   0.211    5.515452   38.225858   21.661588

          #atoms :   627
          #bonds :   718
          #angl  :   1247
          #tors  :   2502
          #nmol  :   6
          #optfrag :   6
           ------------------------------------------------- 
          |                   G F N - F F                   |
          |          A general generic force-field          |
          |                  Version 1.0.3                  | 
           ------------------------------------------------- 
          Number of HB bonds (bound hydrogen)     6303420
          Number of HB bonds (unbound hydrogen)   362664
          Number of XB bonds                      92775

 E+G (total)                   0 d,  0 h,  0 min, 17.685 sec
 distance/D3 list               ...        0 min,  0.004 sec (  0.024%)
 non bonded repulsion           ...        0 min,  0.071 sec (  0.402%)
 dCN                            ...        0 min,  0.283 sec (  1.602%)
 EEQ energy and q               ...        0 min,  1.066 sec (  6.026%)
                                ...        0 min,  0.000 sec (  0.000%)
 EEQ gradient                   ...        0 min,  2.805 sec ( 15.863%)
 bonds                          ...        0 min,  0.019 sec (  0.109%)
 bend and torsion               ...        0 min,  0.000 sec (  0.003%)
 bonded ATM                     ...        0 min,  0.001 sec (  0.004%)
 HB/XB (incl list setup)        ...        0 min, 13.166 sec ( 74.447%)

         :::::::::::::::::::::::::::::::::::::::::::::::::::::
         ::                     SUMMARY                     ::
         :::::::::::::::::::::::::::::::::::::::::::::::::::::
         :: total energy            -132.458731815373 Eh    ::
         :: gradient norm              0.049706959095 Eh/a0 ::
         ::.................................................::
         :: bond energy             -137.364509221060 Eh    ::
         :: angle energy               1.144026400991 Eh    ::
         :: torsion energy             0.045090967975 Eh    ::
         :: repulsion energy           8.765401789131 Eh    ::
         :: electrostat energy        -3.594973877843 Eh    ::
         :: dispersion energy         -1.278450826482 Eh    ::
         :: HB energy                 -0.204288907508 Eh    ::
         :: XB energy                 -0.004775789989 Eh    ::
         :: bonded atm energy          0.033747649410 Eh    ::
         :: external energy            0.000000000000 Eh    ::
         :: add. restraining           0.000000000000 Eh    ::
         :: total charge               0.000000000000 e     ::
         :::::::::::::::::::::::::::::::::::::::::::::::::::::


........................................................................
.............................. CYCLE    1 ..............................
........................................................................
     iter. time                 ...        0 min, 16.977 sec
          total energy        -132.458731815373227 Eh
            energy change       -0.18+309 Eh
 
          gradient norm          0.054362313545938 Eh/a0
            max. gradient        0.013340532527437 Eh/a0
 
            step length          0.000000000000000 a0
            max. step            0.000000000000000 a0
 
       unit cell volume      11435.739834589374368 A^3
 
       current lattice:  
       49.291616234599566        0.000000000000000        0.000000000000000
      -24.645808117299772       42.687791852756682        0.000000000000000
        0.000000000000000        0.000000000000000       36.676182571858433

........................................................................
.............................. CYCLE    2 ..............................
........................................................................
     iter. time                 ...        0 min, 16.831 sec
          total energy        -132.458893010148074 Eh
            energy change       -0.16E-03 Eh
 
          gradient norm          0.150161492243927 Eh/a0
            max. gradient        0.081579839780797 Eh/a0
 
            step length          0.054362313545938 a0
            max. step            0.013340532527437 a0
 
       unit cell volume      11425.138741242461037 A^3
 
       current lattice:  
       49.280209315460084       -0.005550218694783        0.000409417344914
      -24.643192079177080       42.674451320229245        0.000016780372892
        0.001415970928799       -0.000497455273009       36.664506835622383

........................................................................
.............................. CYCLE    3 ..............................
........................................................................
     iter. time                 ...        0 min, 16.764 sec
          total energy        -132.455756126746110 Eh
            energy change        0.31E-02 Eh
 
          gradient norm          0.190414494457249 Eh/a0
            max. gradient        0.104004876844681 Eh/a0
 
            step length          0.108647768722598 a0
            max. step            0.081579839780797 a0
 
       unit cell volume      11440.858251653127809 A^3
 
       current lattice:  
       49.294162020890006        0.004725798339931       -0.003019049284573
      -24.643770614406247       42.691690880686529        0.004088167378587
       -0.006120068819718        0.003699752882379       36.685322598069455

........................................................................
.............................. CYCLE    4 ..............................
........................................................................
     iter. time                 ...        0 min, 17.184 sec
          total energy        -132.460348069365693 Eh
            energy change       -0.46E-02 Eh
 
          gradient norm          0.061467176946748 Eh/a0
            max. gradient        0.031025236927877 Eh/a0
 
            step length          0.085677925343157 a0
            max. step            0.104004876844681 a0
 
       unit cell volume      11433.773492654652728 A^3
 
       current lattice:  
       49.290870344791252       -0.003363026780933        0.002926346161138
      -24.647131102354265       42.688089352559096       -0.002734921199855
        0.005236117912030       -0.002872370627043       36.671620568015918

........................................................................
.............................. CYCLE    5 ..............................
........................................................................
     iter. time                 ...        0 min, 18.231 sec
          total energy        -132.455957471107979 Eh
            energy change        0.44E-02 Eh
 
          gradient norm          0.228165544217052 Eh/a0
            max. gradient        0.146633069333682 Eh/a0
 
            step length          0.063649837269164 a0
            max. step            0.031025236927877 a0
 
       unit cell volume      11426.833965276357048 A^3
 
       current lattice:  
       49.277659533235664        0.003874160188042       -0.011125378006368
      -24.636213255178514       42.660881130534676        0.008446004195840
       -0.020152625648475        0.008000015342982       36.679463477470179

........................................................................
.............................. CYCLE    6 ..............................
........................................................................
     iter. time                 ...        0 min, 17.428 sec
          total energy        -132.460665541494080 Eh
            energy change       -0.47E-02 Eh
 
          gradient norm          0.069071384681139 Eh/a0
            max. gradient        0.039126773261263 Eh/a0
 
            step length          0.053367741456216 a0
            max. step            0.146633069333682 a0
 
       unit cell volume      11431.096194263958751 A^3
 
       current lattice:  
       49.281426202171062       -0.002976433959333       -0.000615770895950
      -24.641796206441221       42.685713883738792        0.003066881812046
       -0.000734019655956        0.005855776878253       36.671934297149065

........................................................................
.............................. CYCLE    7 ..............................
........................................................................
     iter. time                 ...        0 min, 17.418 sec
          total energy        -132.450791172225394 Eh
            energy change        0.99E-02 Eh
 
          gradient norm          0.375326081381050 Eh/a0
            max. gradient        0.232343957943737 Eh/a0
 
            step length          0.072548053834654 a0
            max. step            0.039126773261263 a0
 
       unit cell volume      11435.208563682726890 A^3
 
       current lattice:  
       49.316073911049529        0.003752346250196        0.006485125211672
      -24.655616345887122       42.668714831005701       -0.012374527356313
        0.006862659665680       -0.033978816987335       36.671075235179622

........................................................................
.............................. CYCLE    8 ..............................
........................................................................
     iter. time                 ...        0 min, 17.375 sec
          total energy        -132.461159433350019 Eh
            energy change       -0.10E-01 Eh
 
          gradient norm          0.030109639816159 Eh/a0
            max. gradient        0.016926921086188 Eh/a0
 
            step length          0.059570325133807 a0
            max. step            0.232343957943737 a0
 
       unit cell volume      11431.108068924348117 A^3
 
       current lattice:  
       49.285725447259153       -0.005510938278186       -0.000207538782698
      -24.644717178357542       42.679801868565143       -0.000108057168309
        0.000323086089563        0.000612964205158       36.674941724380211

........................................................................
.............................. CYCLE    9 ..............................
........................................................................
     iter. time                 ...        0 min, 17.221 sec
          total energy        -132.459875861452730 Eh
            energy change        0.13E-02 Eh
 
          gradient norm          0.135212712961698 Eh/a0
            max. gradient        0.081777844405861 Eh/a0
 
            step length          0.031706451374425 a0
            max. step            0.016926921086188 a0
 
       unit cell volume      11429.256978152898228 A^3
 
       current lattice:  
       49.283559906572606        0.010792113990714       -0.000446722565981
      -24.637572896058817       42.685461235327566        0.001269317998247
       -0.005293095775022        0.001886727934016       36.658751461570930

........................................................................
.............................. CYCLE   10 ..............................
........................................................................
     iter. time                 ...        0 min, 17.556 sec
          total energy        -132.461469035549328 Eh
            energy change       -0.16E-02 Eh
 
          gradient norm          0.018305358169998 Eh/a0
            max. gradient        0.006826460104253 Eh/a0
 
            step length          0.023313390804545 a0
            max. step            0.081777844405861 a0
 
       unit cell volume      11429.855857768441638 A^3
 
       current lattice:  
       49.282907613848636       -0.002015437750689       -0.000128705557605
      -24.642488446377840       42.679943853798029        0.002611949013800
       -0.000266627247153       -0.000688872208671       36.671396936822859

........................................................................
.............................. CYCLE   11 ..............................
........................................................................
     iter. time                 ...        0 min, 17.888 sec
          total energy        -132.461396617132209 Eh
            energy change        0.72E-04 Eh
 
          gradient norm          0.057885727305219 Eh/a0
            max. gradient        0.026567168827364 Eh/a0
 
            step length          0.024328943753204 a0
            max. step            0.006826460104253 a0
 
       unit cell volume      11428.786417928531591 A^3
 
       current lattice:  
       49.287591063689767       -0.008653807828697       -0.000013280506515
      -24.643648949628442       42.677098765851618       -0.003384925452317
       -0.004255471089940        0.005382229802154       36.669777367790658

........................................................................
.............................. CYCLE   12 ..............................
........................................................................
     iter. time                 ...        0 min, 17.251 sec
          total energy        -132.461923502390164 Eh
            energy change       -0.53E-03 Eh
 
          gradient norm          0.028533040850669 Eh/a0
            max. gradient        0.017487830645175 Eh/a0
 
            step length          0.033465476958072 a0
            max. step            0.026567168827364 a0
 
       unit cell volume      11427.990842784871347 A^3
 
       current lattice:  
       49.281101588893627       -0.005454003169010       -0.001184767846058
      -24.642426712581337       42.674842805701488       -0.004168413737123
       -0.000056329185965        0.002788182517661       36.672617300766738

........................................................................
.............................. CYCLE   13 ..............................
........................................................................
     iter. time                 ...        0 min, 17.702 sec
          total energy        -132.461988184999058 Eh
            energy change       -0.65E-04 Eh
 
          gradient norm          0.081460944993195 Eh/a0
            max. gradient        0.056448747186368 Eh/a0
 
            step length          0.095418181739277 a0
            max. step            0.017487830645175 a0
 
       unit cell volume      11423.705308123871873 A^3
 
       current lattice:  
       49.272106485706800       -0.006755394524724        0.001056474715891
      -24.642816591899813       42.672077336885636        0.016753959431910
       -0.001433599500804       -0.006602169430252       36.668491140968044

........................................................................
.............................. CYCLE   14 ..............................
........................................................................
     iter. time                 ...        0 min, 17.090 sec
          total energy        -132.462855397736917 Eh
            energy change       -0.87E-03 Eh
 
          gradient norm          0.063387496273467 Eh/a0
            max. gradient        0.038803451066982 Eh/a0
 
            step length          0.065842989644895 a0
            max. step            0.056448747186368 a0
 
       unit cell volume      11421.996076587591233 A^3
 
       current lattice:  
       49.270856024435460       -0.008863189652778        0.000489225227693
      -24.631414867546237       42.666565798612162        0.006480802180344
        0.000801706789351       -0.003279493551454       36.669578359120294

........................................................................
.............................. CYCLE   15 ..............................
........................................................................
     iter. time                 ...        0 min, 17.145 sec
          total energy        -132.461447468127261 Eh
            energy change        0.14E-02 Eh
 
          gradient norm          0.145655539492081 Eh/a0
            max. gradient        0.079560843438013 Eh/a0
 
            step length          0.157372277578127 a0
            max. step            0.038803451066982 a0
 
       unit cell volume      11415.143228496328447 A^3
 
       current lattice:  
       49.258457538457122       -0.005388765849601       -0.006869582122761
      -24.650581351181660       42.652906257128841       -0.022144652444055
       -0.002419836189415        0.013522248066970       36.667044339742020

........................................................................
.............................. CYCLE   16 ..............................
........................................................................
     iter. time                 ...        0 min, 17.169 sec
          total energy        -132.464143870793237 Eh
            energy change       -0.27E-02 Eh
 
          gradient norm          0.030314011759142 Eh/a0
            max. gradient        0.016539921481130 Eh/a0
 
            step length          0.033651335059433 a0
            max. step            0.079560843438013 a0
 
       unit cell volume      11415.086826050326636 A^3
 
       current lattice:  
       49.261754020162805       -0.011865847720531       -0.002281228609618
      -24.635010194549370       42.655412048251655       -0.002081193530060
       -0.002825824172406        0.003224862547612       36.665045935932689

........................................................................
.............................. CYCLE   17 ..............................
........................................................................
     iter. time                 ...        0 min, 17.574 sec
          total energy        -132.464813691576154 Eh
            energy change       -0.67E-03 Eh
 
          gradient norm          0.027952236415182 Eh/a0
            max. gradient        0.011601169884042 Eh/a0
 
            step length          0.090526347741241 a0
            max. step            0.016539921481130 a0
 
       unit cell volume      11411.255700875984985 A^3
 
       current lattice:  
       49.257834295913483       -0.014687634869268        0.000520474903281
      -24.630957144836866       42.648816968729264        0.002810771465678
       -0.003516642575891        0.003595200069437       36.662539231617586

........................................................................
.............................. CYCLE   18 ..............................
........................................................................
     iter. time                 ...        0 min, 17.665 sec
          total energy        -132.466039352956216 Eh
            energy change       -0.12E-02 Eh
 
          gradient norm          0.119778471924613 Eh/a0
            max. gradient        0.057480042831877 Eh/a0
 
            step length          0.465442379906427 a0
            max. step            0.011601169884042 a0
 
       unit cell volume      11391.023857582338678 A^3
 
       current lattice:  
       49.228732783069766       -0.037307925123666       -0.004758010239583
      -24.613075655138488       42.625851612167622        0.012763519976091
       -0.018872108847318       -0.007411794928290       36.648628993595793

........................................................................
.............................. CYCLE   19 ..............................
........................................................................
     iter. time                 ...        0 min, 17.509 sec
          total energy        -132.468024631113195 Eh
            energy change       -0.20E-02 Eh
 
          gradient norm          0.088088873244117 Eh/a0
            max. gradient        0.043902454030187 Eh/a0
 
            step length          0.281011427014913 a0
            max. step            0.057480042831877 a0
 
       unit cell volume      11379.402123752937769 A^3
 
       current lattice:  
       49.217765501191749       -0.041433958475418       -0.003041523421244
      -24.608467739790179       42.602218811752422        0.020219324682588
       -0.014774908152099        0.002090155707184       36.641496577681572

........................................................................
.............................. CYCLE   20 ..............................
........................................................................
     iter. time                 ...        0 min, 17.416 sec
          total energy        -132.470085247780617 Eh
            energy change       -0.21E-02 Eh
 
          gradient norm          0.108731286742655 Eh/a0
            max. gradient        0.083594694977926 Eh/a0
 
            step length          0.286478709698667 a0
            max. step            0.043902454030187 a0
 
       unit cell volume      11368.545748534215818 A^3
 
       current lattice:  
       49.197953087172600       -0.042495425444244        0.018454079277767
      -24.609256274747811       42.579482654557609        0.014935226250740
       -0.020863667885505        0.011125509806933       36.641306686140233

........................................................................
.............................. CYCLE   21 ..............................
........................................................................
     iter. time                 ...        0 min, 17.360 sec
          total energy        -132.472433001312140 Eh
            energy change       -0.23E-02 Eh
 
          gradient norm          0.089703113572366 Eh/a0
            max. gradient        0.045862692941786 Eh/a0
 
            step length          0.294160357380554 a0
            max. step            0.083594694977926 a0
 
       unit cell volume      11356.453352891096074 A^3
 
       current lattice:  
       49.184286699662202       -0.049682531380546        0.001363267115175
      -24.606444299760703       42.558676971493313        0.015487395632058
       -0.015427713645049        0.016608371067777       36.633517437777236

........................................................................
.............................. CYCLE   22 ..............................
........................................................................
     iter. time                 ...        0 min, 17.863 sec
          total energy        -132.473076491877805 Eh
            energy change       -0.64E-03 Eh
 
          gradient norm          0.063223415845534 Eh/a0
            max. gradient        0.032403672648282 Eh/a0
 
            step length          0.335491416743082 a0
            max. step            0.045862692941786 a0
 
       unit cell volume      11342.447540537830719 A^3
 
       current lattice:  
       49.156859645551286       -0.061225226100178        0.004120378635818
      -24.595974750267043       42.539787912052837        0.012972753612245
       -0.025118865095235        0.010481001411074       36.629991655205181

........................................................................
.............................. CYCLE   23 ..............................
........................................................................
     iter. time                 ...        0 min, 17.261 sec
          total energy        -132.473579909067269 Eh
            energy change       -0.50E-03 Eh
 
          gradient norm          0.047343811388998 Eh/a0
            max. gradient        0.015617745495348 Eh/a0
 
            step length          0.292436297164996 a0
            max. step            0.032403672648282 a0
 
       unit cell volume      11354.970514357561115 A^3
 
       current lattice:  
       49.175237566365432       -0.054358831195106       -0.005522269296316
      -24.602787617821519       42.560422057775270        0.010446658127794
       -0.019771288441612        0.008182903491439       36.635985105985675

........................................................................
.............................. CYCLE   24 ..............................
........................................................................
     iter. time                 ...        0 min, 17.137 sec
          total energy        -132.474682624348759 Eh
            energy change       -0.11E-02 Eh
 
          gradient norm          0.063443445048374 Eh/a0
            max. gradient        0.025105711651544 Eh/a0
 
            step length          0.186945153939982 a0
            max. step            0.015617745495348 a0
 
       unit cell volume      11342.721424930427020 A^3
 
       current lattice:  
       49.159196280373337       -0.062147362799553       -0.010990277587202
      -24.600366271016089       42.542375077167030        0.007780049530666
       -0.019498749121442        0.010110940729606       36.627310203139878

........................................................................
.............................. CYCLE   25 ..............................
........................................................................
     iter. time                 ...        0 min, 17.879 sec
          total energy        -132.474301567906650 Eh
            energy change        0.38E-03 Eh
 
          gradient norm          0.216566294620978 Eh/a0
            max. gradient        0.114265492184174 Eh/a0
 
            step length          0.317249127518166 a0
            max. step            0.025105711651544 a0
 
       unit cell volume      11343.126945734617038 A^3
 
       current lattice:  
       49.156492589961680       -0.062548790007799       -0.008762439875510
      -24.593020999068635       42.538647669498836        0.017793504771270
       -0.024090389729368        0.010232973769809       36.634015563740277

........................................................................
.............................. CYCLE   26 ..............................
........................................................................
     iter. time                 ...        0 min, 17.356 sec
          total energy        -132.477288844284772 Eh
            energy change       -0.30E-02 Eh
 
          gradient norm          0.064568058304249 Eh/a0
            max. gradient        0.040479301276473 Eh/a0
 
            step length          0.086368502521535 a0
            max. step            0.114265492184174 a0
 
       unit cell volume      11330.214429294999718 A^3
 
       current lattice:  
       49.138898824178398       -0.072634058712806       -0.000431768092311
      -24.587723117674027       42.524467525604564        0.015236870065139
       -0.024328645851590        0.004451570193488       36.621977200200071

........................................................................
.............................. CYCLE   27 ..............................
........................................................................
     iter. time                 ...        0 min, 18.541 sec
          total energy        -132.475456478028860 Eh
            energy change        0.18E-02 Eh
 
          gradient norm          0.217879909927023 Eh/a0
            max. gradient        0.103753526511672 Eh/a0
 
            step length          0.253517707511814 a0
            max. step            0.040479301276473 a0
 
       unit cell volume      11319.079112167848507 A^3
 
       current lattice:  
       49.125010125807954       -0.071301911166714       -0.016450700015947
      -24.576816523088230       42.487219301375184        0.025378016685290
       -0.045351836270609        0.013186308422210       36.627878638117672

........................................................................
.............................. CYCLE   28 ..............................
........................................................................
     iter. time                 ...        0 min, 17.305 sec
          total energy        -132.479909150574656 Eh
            energy change       -0.45E-02 Eh
 
          gradient norm          0.059442286373938 Eh/a0
            max. gradient        0.033367827310707 Eh/a0
 
            step length          0.136239305812460 a0
            max. step            0.103753526511672 a0
 
       unit cell volume      11312.747529152400602 A^3
 
       current lattice:  
       49.118505566868407       -0.083909940943609       -0.009756343771113
      -24.578112038927365       42.491915042352893        0.021757284128853
       -0.029158328869703        0.011155425211034       36.613624473372731

........................................................................
.............................. CYCLE   29 ..............................
........................................................................
     iter. time                 ...        0 min, 17.595 sec
          total energy        -132.479837559656715 Eh
            energy change        0.72E-04 Eh
 
          gradient norm          0.110598478186670 Eh/a0
            max. gradient        0.056504036258496 Eh/a0
 
            step length          0.130910339664277 a0
            max. step            0.033367827310707 a0
 
       unit cell volume      11314.161044062580913 A^3
 
       current lattice:  
       49.114097775792594       -0.081854451848150       -0.003769833861862
      -24.571383292394668       42.493034791862122        0.028151100867824
       -0.040620481994933        0.010200823313882       36.619625088427796

........................................................................
.............................. CYCLE   30 ..............................
........................................................................
     iter. time                 ...        0 min, 17.198 sec
          total energy        -132.482157093822821 Eh
            energy change       -0.23E-02 Eh
 
          gradient norm          0.059094658649800 Eh/a0
            max. gradient        0.032905227713411 Eh/a0
 
            step length          0.401494617884592 a0
            max. step            0.056504036258496 a0
 
       unit cell volume      11295.700457737992110 A^3
 
       current lattice:  
       49.093740812869378       -0.095686916530499       -0.008127095858178
      -24.570619550593083       42.466053457662937        0.019738409118952
       -0.035348344539361        0.005361910986476       36.604280835557446

........................................................................
.............................. CYCLE   31 ..............................
........................................................................
     iter. time                 ...        0 min, 17.163 sec
          total energy        -132.482067143585368 Eh
            energy change        0.90E-04 Eh
 
          gradient norm          0.147680475443236 Eh/a0
            max. gradient        0.099077460081249 Eh/a0
 
            step length          0.217664870097910 a0
            max. step            0.032905227713411 a0
 
       unit cell volume      11286.420691832725424 A^3
 
       current lattice:  
       49.072245342888351       -0.107458579140299       -0.012898824035135
      -24.561312922838269       42.459566372272349        0.031942139694276
       -0.036140552117801        0.025345359614092       36.600930779090469

........................................................................
.............................. CYCLE   32 ..............................
........................................................................
     iter. time                 ...        0 min, 17.082 sec
          total energy        -132.484127883384673 Eh
            energy change       -0.21E-02 Eh
 
          gradient norm          0.072306606646260 Eh/a0
            max. gradient        0.033305417066137 Eh/a0
 
            step length          0.336992633898515 a0
            max. step            0.099077460081249 a0
 
       unit cell volume      11272.323634843021864 A^3
 
       current lattice:  
       49.060749899029489       -0.114867135127286       -0.006966693950625
      -24.551868431056732       42.433637053977804        0.037138112982913
       -0.043564393874431        0.012371563905453       36.589336542258579

........................................................................
.............................. CYCLE   33 ..............................
........................................................................
     iter. time                 ...        0 min, 17.595 sec
          total energy        -132.481359833998937 Eh
            energy change        0.28E-02 Eh
 
          gradient norm          0.138859609206150 Eh/a0
            max. gradient        0.084180309662293 Eh/a0
 
            step length          0.464453866975702 a0
            max. step            0.033305417066137 a0
 
       unit cell volume      11294.251848714022344 A^3
 
       current lattice:  
       49.090569782716109       -0.109955703813473       -0.007582234133355
      -24.574703897123850       42.464793504557235        0.024043748542787
       -0.019148221194617        0.009294295054003       36.609211985382906

........................................................................
.............................. CYCLE   34 ..............................
........................................................................
     iter. time                 ...        0 min, 17.158 sec
          total energy        -132.483692611764241 Eh
            energy change       -0.23E-02 Eh
 
          gradient norm          0.107884054994381 Eh/a0
            max. gradient        0.060298172274601 Eh/a0
 
            step length          0.189558106086717 a0
            max. step            0.084180309662293 a0
 
       unit cell volume      11282.743401195515617 A^3
 
       current lattice:  
       49.071497105835263       -0.101298553048825       -0.014523215305939
      -24.568581517277348       42.453983927030578        0.014695127433886
       -0.035184630729469        0.012890393000063       36.591721735044722

........................................................................
.............................. CYCLE   35 ..............................
........................................................................
     iter. time                 ...        0 min, 17.173 sec
          total energy        -132.484405740859160 Eh
            energy change       -0.71E-03 Eh
 
          gradient norm          0.142623811465517 Eh/a0
            max. gradient        0.073028085546347 Eh/a0
 
            step length          0.596619698019310 a0
            max. step            0.060298172274601 a0
 
       unit cell volume      11259.822670447718338 A^3
 
       current lattice:  
       49.038714859450053       -0.130097229141531       -0.006610574451668
      -24.548710786526183       42.403896721076599        0.041080887222018
       -0.029586362508012        0.005191965331541       36.597459681878874

........................................................................
.............................. CYCLE   36 ..............................
........................................................................
     iter. time                 ...        0 min, 17.290 sec
          total energy        -132.484881324288239 Eh
            energy change       -0.48E-03 Eh
 
          gradient norm          0.154111631308725 Eh/a0
            max. gradient        0.112106744070924 Eh/a0
 
            step length          0.118641398531167 a0
            max. step            0.073028085546347 a0
 
       unit cell volume      11264.867246913121562 A^3
 
       current lattice:  
       49.066097259552322       -0.130308867469360       -0.000581283212599
      -24.548367512740551       42.417132258855375        0.039248845825711
       -0.043908744647490        0.012857008406164       36.582049824011868

........................................................................
.............................. CYCLE   37 ..............................
........................................................................
     iter. time                 ...        0 min, 17.211 sec
          total energy        -132.486630400081225 Eh
            energy change       -0.17E-02 Eh
 
          gradient norm          0.087792407129247 Eh/a0
            max. gradient        0.058883410410404 Eh/a0
 
            step length          0.096060403693586 a0
            max. step            0.112106744070924 a0
 
       unit cell volume      11266.300715594607027 A^3
 
       current lattice:  
       49.044065130455067       -0.109087364587235       -0.012418196710853
      -24.557402758549365       42.423053871315290        0.029616131044101
       -0.040647736799871        0.006734918073027       36.588892649036929

........................................................................
.............................. CYCLE   38 ..............................
........................................................................
     iter. time                 ...        0 min, 17.207 sec
          total energy        -132.487553691706466 Eh
            energy change       -0.92E-03 Eh
 
          gradient norm          0.072004585985372 Eh/a0
            max. gradient        0.046462047682821 Eh/a0
 
            step length          0.200120863023352 a0
            max. step            0.058883410410404 a0
 
       unit cell volume      11257.613498485250602 A^3
 
       current lattice:  
       49.035021091355830       -0.129508294001690       -0.011442941245406
      -24.549336313341289       42.404434728802848        0.020139523239557
       -0.043820915430013        0.011667754518236       36.592327059025791

........................................................................
.............................. CYCLE   39 ..............................
........................................................................
     iter. time                 ...        0 min, 16.737 sec
          total energy        -132.488870957576466 Eh
            energy change       -0.13E-02 Eh
 
          gradient norm          0.042818119578759 Eh/a0
            max. gradient        0.030008995787226 Eh/a0
 
            step length          0.120488501336693 a0
            max. step            0.046462047682821 a0
 
       unit cell volume      11255.676624324747536 A^3
 
       current lattice:  
       49.033317269958950       -0.127994307795874       -0.007648753814570
      -24.548272178133288       42.403273277818755        0.040708167691253
       -0.041600463618573        0.010468373853980       36.587652186255625

........................................................................
.............................. CYCLE   40 ..............................
........................................................................
     iter. time                 ...        0 min, 17.193 sec
          total energy        -132.489753184757660 Eh
            energy change       -0.88E-03 Eh
 
          gradient norm          0.047194451952637 Eh/a0
            max. gradient        0.031535827779206 Eh/a0
 
            step length          0.102797639474441 a0
            max. step            0.030008995787226 a0
 
       unit cell volume      11252.779200041399235 A^3
 
       current lattice:  
       49.029506905677827       -0.129934075688805       -0.009242619798138
      -24.541278796049077       42.396438595813159        0.029582904887143
       -0.042035613680290        0.013020510582045       36.587810380401116

........................................................................
.............................. CYCLE   41 ..............................
........................................................................
     iter. time                 ...        0 min, 16.837 sec
          total energy        -132.489325035705065 Eh
            energy change        0.43E-03 Eh
 
          gradient norm          0.167105317695300 Eh/a0
            max. gradient        0.112488292146208 Eh/a0
 
            step length          0.331785598440691 a0
            max. step            0.031535827779206 a0
 
       unit cell volume      11242.366991211363711 A^3
 
       current lattice:  
       49.005939788312340       -0.141696552425375        0.000519167903431
      -24.558552907844355       42.382672753607622        0.043867020029997
       -0.061347782908290        0.008997398306211       36.588587420014761

........................................................................
.............................. CYCLE   42 ..............................
........................................................................
     iter. time                 ...        0 min, 17.041 sec
          total energy        -132.492498829294505 Eh
            energy change       -0.32E-02 Eh
 
          gradient norm          0.048259913255785 Eh/a0
            max. gradient        0.037753325761413 Eh/a0
 
            step length          0.145624064477399 a0
            max. step            0.112488292146208 a0
 
       unit cell volume      11237.160824494631015 A^3
 
       current lattice:  
       49.005639912474400       -0.142267041368080       -0.011158044613921
      -24.537036584042042       42.369079229158409        0.048349275895748
       -0.044854773017648        0.010784542290116       36.583826925942859

........................................................................
.............................. CYCLE   43 ..............................
........................................................................
     iter. time                 ...        0 min, 17.126 sec
          total energy        -132.493721330846881 Eh
            energy change       -0.12E-02 Eh
 
          gradient norm          0.047753211398842 Eh/a0
            max. gradient        0.022819060888392 Eh/a0
 
            step length          0.236675060914315 a0
            max. step            0.037753325761413 a0
 
       unit cell volume      11229.982865113141088 A^3
 
       current lattice:  
       48.993732903524311       -0.146678020860782       -0.002856385563324
      -24.537299139491640       42.354454339807859        0.040702632566559
       -0.051116627825570        0.016592756201823       36.583916460502664

........................................................................
.............................. CYCLE   44 ..............................
........................................................................
     iter. time                 ...        0 min, 17.046 sec
          total energy        -132.493433736914113 Eh
            energy change        0.29E-03 Eh
 
          gradient norm          0.137187593578484 Eh/a0
            max. gradient        0.082901110312879 Eh/a0
 
            step length          0.224352994982241 a0
            max. step            0.022819060888392 a0
 
       unit cell volume      11228.731519877492246 A^3
 
       current lattice:  
       48.986152343720477       -0.156135953229422       -0.012842188793640
      -24.520665254560079       42.359444101650062        0.048045550135332
       -0.054472343089058       -0.000953555717460       36.585241253589331

........................................................................
.............................. CYCLE   45 ..............................
........................................................................
     iter. time                 ...        0 min, 17.166 sec
          total energy        -132.495543066682188 Eh
            energy change       -0.21E-02 Eh
 
          gradient norm          0.044777268579113 Eh/a0
            max. gradient        0.018196537817362 Eh/a0
 
            step length          0.134755365234172 a0
            max. step            0.082901110312879 a0
 
       unit cell volume      11222.629300555969166 A^3
 
       current lattice:  
       48.983515219463953       -0.154995371990043       -0.007853741179263
      -24.525905708157755       42.337705551154656        0.047142217853824
       -0.049043652930217        0.011191577281098       36.585667796034301

........................................................................
.............................. CYCLE   46 ..............................
........................................................................
     iter. time                 ...        0 min, 17.002 sec
          total energy        -132.496309306566474 Eh
            energy change       -0.77E-03 Eh
 
          gradient norm          0.047780055973386 Eh/a0
            max. gradient        0.019438475182811 Eh/a0
 
            step length          0.219246766025422 a0
            max. step            0.018196537817362 a0
 
       unit cell volume      11212.956698724310627 A^3
 
       current lattice:  
       48.968719881845622       -0.163996660923384       -0.008077534278925
      -24.520861981641175       42.328010255866268        0.047644462037669
       -0.051784792255788        0.009319192186495       36.577477782025319

........................................................................
.............................. CYCLE   47 ..............................
........................................................................
     iter. time                 ...        0 min, 17.114 sec
          total energy        -132.494454115847560 Eh
            energy change        0.19E-02 Eh
 
          gradient norm          0.083751592132473 Eh/a0
            max. gradient        0.031352381288712 Eh/a0
 
            step length          0.505334511654531 a0
            max. step            0.019438475182811 a0
 
       unit cell volume      11235.532849102970431 A^3
 
       current lattice:  
       48.996870531577287       -0.148203064197391        0.004743912916375
      -24.533673147296170       42.360522402794430        0.040431816034260
       -0.045776346925297        0.011345598384223       36.595036838226122

........................................................................
.............................. CYCLE   48 ..............................
........................................................................
     iter. time                 ...        0 min, 17.099 sec
          total energy        -132.496886111597121 Eh
            energy change       -0.24E-02 Eh
 
          gradient norm          0.072574777775332 Eh/a0
            max. gradient        0.033897857362702 Eh/a0
 
            step length          0.207814338530014 a0
            max. step            0.031352381288712 a0
 
       unit cell volume      11228.473687717932989 A^3
 
       current lattice:  
       48.988811289124214       -0.153258481327516       -0.002572625419155
      -24.533402245492525       42.345772584647307        0.041333009396334
       -0.047331404522887        0.016145017742396       36.593036520489584

........................................................................
.............................. CYCLE   49 ..............................
........................................................................
     iter. time                 ...        0 min, 17.280 sec
          total energy        -132.487583311690571 Eh
            energy change        0.93E-02 Eh
 
          gradient norm          0.357773455696889 Eh/a0
            max. gradient        0.199632795510289 Eh/a0
 
            step length          0.717664682986159 a0
            max. step            0.033897857362702 a0
 
       unit cell volume      11192.389413916607737 A^3
 
       current lattice:  
       48.940572071262707       -0.181569271902644        0.020980490833139
      -24.502810292513296       42.287105173950650        0.068595159860244
       -0.048940997165980       -0.005943172441667       36.574353025511023

........................................................................
.............................. CYCLE   50 ..............................
........................................................................
     iter. time                 ...        0 min, 17.023 sec
          total energy        -132.494034115701453 Eh
            energy change       -0.65E-02 Eh
 
          gradient norm          0.187967443580845 Eh/a0
            max. gradient        0.083852316363327 Eh/a0
 
            step length          0.613434829200505 a0
            max. step            0.199632795510289 a0
 
       unit cell volume      11181.836996768530298 A^3
 
       current lattice:  
       48.917667598560335       -0.191886543764391        0.016549206988857
      -24.494440561605458       42.278741332988218        0.062198859619083
       -0.054146279746414       -0.005750602157706       36.568718547850409

........................................................................
.............................. CYCLE   51 ..............................
........................................................................
     iter. time                 ...        0 min, 15.701 sec
          total energy        -132.488687208821659 Eh
            energy change        0.53E-02 Eh
 
          gradient norm          0.223246670701877 Eh/a0
            max. gradient        0.103572899701704 Eh/a0
 
            step length          1.756570265982756 a0
            max. step            0.083852316363327 a0
 
       unit cell volume      11247.168957274234344 A^3
 
       current lattice:  
       49.024859700339782       -0.144097963677876       -0.025790186181189
      -24.535070373924253       42.370118492524114        0.031999501701094
       -0.054812077559332        0.002231429429308       36.601927629378189

........................................................................
.............................. CYCLE   52 ..............................
........................................................................
     iter. time                 ...        0 min, 15.417 sec
          total energy        -132.484206917333978 Eh
            energy change        0.45E-02 Eh
 
          gradient norm          0.276327854802842 Eh/a0
            max. gradient        0.160065829229668 Eh/a0
 
            step length          0.389222827392678 a0
            max. step            0.103572899701704 a0
 
       unit cell volume      11261.800285107497984 A^3
 
       current lattice:  
       49.031816383914610       -0.115743089354010        0.011449148257748
      -24.548629613574811       42.400139023406595        0.026964860420458
       -0.020398442173815        0.040333295609924       36.606098264455873

........................................................................
.............................. CYCLE   53 ..............................
........................................................................
     iter. time                 ...        0 min, 15.235 sec
          total energy        -132.499103906038954 Eh
            energy change       -0.15E-01 Eh
 
          gradient norm          0.105993058547725 Eh/a0
            max. gradient        0.065379521282551 Eh/a0
 
            step length          0.993599299131678 a0
            max. step            0.160065829229668 a0
 
       unit cell volume      11219.290129931785486 A^3
 
       current lattice:  
       48.975947773743513       -0.153216104121179        0.006483705103663
      -24.536736279948006       42.333703681420445        0.042049206731124
       -0.055228568664364        0.017474357733336       36.583158194710634

........................................................................
.............................. CYCLE   54 ..............................
........................................................................
     iter. time                 ...        0 min, 15.498 sec
          total energy        -132.496550406429549 Eh
            energy change        0.26E-02 Eh
 
          gradient norm          0.268271171940812 Eh/a0
            max. gradient        0.190749759777570 Eh/a0
 
            step length          0.760163813651634 a0
            max. step            0.065379521282551 a0
 
       unit cell volume      11207.004094474694284 A^3
 
       current lattice:  
       48.953089909670922       -0.172791898180780        0.014511372261562
      -24.494003700841436       42.281865008250662        0.062238040681802
       -0.053022955698995        0.025276942296252       36.613491725703973

........................................................................
.............................. CYCLE   55 ..............................
........................................................................
     iter. time                 ...        0 min, 15.751 sec
          total energy        -132.494773975145250 Eh
            energy change        0.18E-02 Eh
 
          gradient norm          0.282955652798285 Eh/a0
            max. gradient        0.169881364532670 Eh/a0
 
            step length          0.274461902703261 a0
            max. step            0.190749759777570 a0
 
       unit cell volume      11189.316956799117179 A^3
 
       current lattice:  
       48.936757698657480       -0.208652079618603       -0.014052602143648
      -24.501494547742073       42.290351123732378        0.043443946177526
       -0.027804259147122        0.015228960876106       36.576158382519147

........................................................................
.............................. CYCLE   56 ..............................
........................................................................
     iter. time                 ...        0 min, 15.414 sec
          total energy        -132.499439836689220 Eh
            energy change       -0.47E-02 Eh
 
          gradient norm          0.197613919804707 Eh/a0
            max. gradient        0.108365122068467 Eh/a0
 
            step length          0.644492361397760 a0
            max. step            0.169881364532670 a0
 
       unit cell volume      11215.031102655164432 A^3
 
       current lattice:  
       48.975640764534894       -0.153165579600336        0.009146460689164
      -24.523662183005925       42.325634784726361        0.042554717111699
       -0.056877057979278       -0.005216086445323       36.576399317569461

........................................................................
.............................. CYCLE   57 ..............................
........................................................................
     iter. time                 ...        0 min, 15.455 sec
          total energy        -132.495716737251314 Eh
            energy change        0.37E-02 Eh
 
          gradient norm          0.279586601895478 Eh/a0
            max. gradient        0.150694267311292 Eh/a0
 
            step length          0.118820949438766 a0
            max. step            0.108365122068467 a0
 
       unit cell volume      11205.381477170862127 A^3
 
       current lattice:  
       48.936528203494653       -0.169055587590921       -0.000749360793402
      -24.505461337233495       42.312565571683415        0.054460006673016
       -0.080398351981782        0.039330431631305       36.592419647907768

........................................................................
.............................. CYCLE   58 ..............................
........................................................................
     iter. time                 ...        0 min, 15.509 sec
          total energy        -132.501755813107479 Eh
            energy change       -0.60E-02 Eh
 
          gradient norm          0.162441373306760 Eh/a0
            max. gradient        0.103990826715186 Eh/a0
 
            step length          0.369905748867965 a0
            max. step            0.150694267311292 a0
 
       unit cell volume      11199.453618369887408 A^3
 
       current lattice:  
       48.940774489716894       -0.187951254693261        0.006567346537812
      -24.511662523615755       42.282021527255843        0.052975007538117
       -0.052181843204611        0.021228755537114       36.604550453248251

........................................................................
.............................. CYCLE   59 ..............................
........................................................................
     iter. time                 ...        0 min, 16.649 sec
          total energy        -132.502843987801640 Eh
            energy change       -0.11E-02 Eh
 
          gradient norm          0.125236234829143 Eh/a0
            max. gradient        0.069941465765686 Eh/a0
 
            step length          0.244436070523577 a0
            max. step            0.103990826715186 a0
 
       unit cell volume      11199.106013665408682 A^3
 
       current lattice:  
       48.953637595268255       -0.180244168412070        0.005055298664507
      -24.499907429478782       42.293002691267851        0.056530372309031
       -0.054802541532402        0.020426090906408       36.580871179318621

........................................................................
.............................. CYCLE   60 ..............................
........................................................................
     iter. time                 ...        0 min, 15.684 sec
          total energy        -132.503845417640264 Eh
            energy change       -0.10E-02 Eh
 
          gradient norm          0.121013258560093 Eh/a0
            max. gradient        0.061238597292417 Eh/a0
 
            step length          0.156989707869867 a0
            max. step            0.069941465765686 a0
 
       unit cell volume      11202.968693937218632 A^3
 
       current lattice:  
       48.938780318642678       -0.167090269239695        0.003108611927040
      -24.514678390082079       42.302538793716970        0.043972615550293
       -0.056373856972486        0.005588515026154       36.590667258826514

........................................................................
.............................. CYCLE   61 ..............................
........................................................................
     iter. time                 ...        0 min, 15.674 sec
          total energy        -132.504286515669492 Eh
            energy change       -0.44E-03 Eh
 
          gradient norm          0.100874375828109 Eh/a0
            max. gradient        0.058203605696443 Eh/a0
 
            step length          0.121631465881012 a0
            max. step            0.061238597292417 a0
 
       unit cell volume      11201.948667336810104 A^3
 
       current lattice:  
       48.955175531579435       -0.187083586491745        0.015006951681418
      -24.511236985290928       42.294909745518339        0.045304388827171
       -0.063802122109130        0.016330473185483       36.590334166535840

........................................................................
.............................. CYCLE   62 ..............................
........................................................................
     iter. time                 ...        0 min, 15.540 sec
          total energy        -132.505531969437612 Eh
            energy change       -0.12E-02 Eh
 
          gradient norm          0.061120428729485 Eh/a0
            max. gradient        0.036900445513425 Eh/a0
 
            step length          0.275279193019887 a0
            max. step            0.058203605696443 a0
 
       unit cell volume      11193.904770807441309 A^3
 
       current lattice:  
       48.939054968026277       -0.183951209887147        0.006277758694216
      -24.504597670245605       42.278618494977273        0.060600976431501
       -0.055128718337371        0.019178649774479       36.588894192639025

........................................................................
.............................. CYCLE   63 ..............................
........................................................................
     iter. time                 ...        0 min, 15.743 sec
          total energy        -132.506364226584594 Eh
            energy change       -0.83E-03 Eh
 
          gradient norm          0.026984519022233 Eh/a0
            max. gradient        0.017846679994388 Eh/a0
 
            step length          0.073579286328723 a0
            max. step            0.036900445513425 a0
 
       unit cell volume      11197.182365420636415 A^3
 
       current lattice:  
       48.939318735960192       -0.182786227985023        0.008724956163108
      -24.505502768259916       42.287051644015726        0.050171481128288
       -0.058086919646896        0.014328066023215       36.591578336165313

........................................................................
.............................. CYCLE   64 ..............................
........................................................................
     iter. time                 ...        0 min, 15.566 sec
          total energy        -132.506770346018669 Eh
            energy change       -0.41E-03 Eh
 
          gradient norm          0.028559553311579 Eh/a0
            max. gradient        0.017098860911652 Eh/a0
 
            step length          0.130586941085488 a0
            max. step            0.017846679994388 a0
 
       unit cell volume      11190.805450053625464 A^3
 
       current lattice:  
       48.932137842928938       -0.185776649639040        0.008770137415744
      -24.503073726506873       42.273327841568936        0.053481078172995
       -0.059596144821775        0.016538833485847       36.589312401341161

........................................................................
.............................. CYCLE   65 ..............................
........................................................................
     iter. time                 ...        0 min, 15.495 sec
          total energy        -132.506356675941504 Eh
            energy change        0.41E-03 Eh
 
          gradient norm          0.084343956866076 Eh/a0
            max. gradient        0.046411754804902 Eh/a0
 
            step length          0.164919583130524 a0
            max. step            0.017098860911652 a0
 
       unit cell volume      11199.504265201128874 A^3
 
       current lattice:  
       48.941941191230299       -0.185337092893614        0.008346157868196
      -24.508947882102181       42.292400782722076        0.061946825497949
       -0.055152508506983        0.013368781443068       36.593684113070182

........................................................................
.............................. CYCLE   66 ..............................
........................................................................
     iter. time                 ...        0 min, 15.471 sec
          total energy        -132.507999023590827 Eh
            energy change       -0.16E-02 Eh
 
          gradient norm          0.040232195525541 Eh/a0
            max. gradient        0.023078813817717 Eh/a0
 
            step length          0.246769230443775 a0
            max. step            0.046411754804902 a0
 
       unit cell volume      11190.380606261493085 A^3
 
       current lattice:  
       48.930317198678630       -0.188119754778049        0.008218940617105
      -24.499047789581375       42.271682166696579        0.047961845337640
       -0.056450701287134        0.017582371566640       36.591720108948032

........................................................................
.............................. CYCLE   67 ..............................
........................................................................
     iter. time                 ...        0 min, 15.440 sec
          total energy        -132.506693114520573 Eh
            energy change        0.13E-02 Eh
 
          gradient norm          0.147650795155842 Eh/a0
            max. gradient        0.100698697122870 Eh/a0
 
            step length          0.574363778173870 a0
            max. step            0.023078813817717 a0
 
       unit cell volume      11178.185938341452129 A^3
 
       current lattice:  
       48.902305519688930       -0.209149653867583        0.021975772354898
      -24.493179648203785       42.256245155603608        0.055120782404978
       -0.076199314974624        0.011194418747766       36.595312666530738

........................................................................
.............................. CYCLE   68 ..............................
........................................................................
     iter. time                 ...        0 min, 15.353 sec
          total energy        -132.508859202621124 Eh
            energy change       -0.22E-02 Eh
 
          gradient norm          0.081596146041005 Eh/a0
            max. gradient        0.047927672161798 Eh/a0
 
            step length          0.239840789296191 a0
            max. step            0.100698697122870 a0
 
       unit cell volume      11176.694933393968313 A^3
 
       current lattice:  
       48.914861831236408       -0.197740071420194        0.011097416814340
      -24.492460044341996       42.243701254020110        0.064170856562721
       -0.058674208008546        0.019621405461585       36.586977830677682

........................................................................
.............................. CYCLE   69 ..............................
........................................................................
     iter. time                 ...        0 min, 15.401 sec
          total energy        -132.509465472193284 Eh
            energy change       -0.61E-03 Eh
 
          gradient norm          0.075087968278750 Eh/a0
            max. gradient        0.037908965029872 Eh/a0
 
            step length          0.070900708801480 a0
            max. step            0.047927672161798 a0
 
       unit cell volume      11179.261729931116861 A^3
 
       current lattice:  
       48.916648098965730       -0.198994108115710        0.011473760006020
      -24.486660167491529       42.245873303717175        0.055913534683799
       -0.055377103081974        0.024178630733243       36.592682848945820

........................................................................
.............................. CYCLE   70 ..............................
........................................................................
     iter. time                 ...        0 min, 15.722 sec
          total energy        -132.510249887619608 Eh
            energy change       -0.78E-03 Eh
 
          gradient norm          0.052599158589913 Eh/a0
            max. gradient        0.030751319781894 Eh/a0
 
            step length          0.209587548754342 a0
            max. step            0.037908965029872 a0
 
       unit cell volume      11172.752249347235193 A^3
 
       current lattice:  
       48.905093404135968       -0.206501246556544        0.012932766934198
      -24.492007240675672       42.239485743006448        0.056017974799511
       -0.068767306154918        0.018264838551221       36.588851156166548

........................................................................
.............................. CYCLE   71 ..............................
........................................................................
     iter. time                 ...        0 min, 15.260 sec
          total energy        -132.510612614973439 Eh
            energy change       -0.36E-03 Eh
 
          gradient norm          0.054070097660716 Eh/a0
            max. gradient        0.026105561042143 Eh/a0
 
            step length          0.115574761703521 a0
            max. step            0.030751319781894 a0
 
       unit cell volume      11169.207244641507714 A^3
 
       current lattice:  
       48.898052620105439       -0.211230228158449        0.019575532191624
      -24.479395699518200       42.235095076330047        0.061298852957903
       -0.064860357528206        0.013845290723407       36.588332040392736

........................................................................
.............................. CYCLE   72 ..............................
........................................................................
     iter. time                 ...        0 min, 15.433 sec
          total energy        -132.511532932083270 Eh
            energy change       -0.92E-03 Eh
 
          gradient norm          0.041752765375955 Eh/a0
            max. gradient        0.023409296362191 Eh/a0
 
            step length          0.082625124847649 a0
            max. step            0.026105561042143 a0
 
       unit cell volume      11169.034402341510940 A^3
 
       current lattice:  
       48.900613560146041       -0.213820683702801        0.010963766479775
      -24.482268415002011       42.230315068273718        0.057004228197799
       -0.064975716103169        0.020852030693650       36.591152786146274

........................................................................
.............................. CYCLE   73 ..............................
........................................................................
     iter. time                 ...        0 min, 15.242 sec
          total energy        -132.510928204493695 Eh
            energy change        0.60E-03 Eh
 
          gradient norm          0.114612591637315 Eh/a0
            max. gradient        0.069844265372191 Eh/a0
 
            step length          0.196243521308200 a0
            max. step            0.023409296362191 a0
 
       unit cell volume      11166.336958529409458 A^3
 
       current lattice:  
       48.895717032489095       -0.210408093359289        0.034193613138611
      -24.486560349730116       42.231111609076464        0.056644935405531
       -0.066442180449591        0.017816764845537       36.583796916305751

........................................................................
.............................. CYCLE   74 ..............................
........................................................................
     iter. time                 ...        0 min, 15.678 sec
          total energy        -132.512611738748973 Eh
            energy change       -0.17E-02 Eh
 
          gradient norm          0.052783440821084 Eh/a0
            max. gradient        0.034677368721649 Eh/a0
 
            step length          0.160014842415051 a0
            max. step            0.069844265372191 a0
 
       unit cell volume      11165.737620435009376 A^3
 
       current lattice:  
       48.893907542055111       -0.216534204763533        0.022746723739708
      -24.474660795460867       42.228452974390486        0.060499316229602
       -0.063839790183380        0.018083413861207       36.588135089683902

........................................................................
.............................. CYCLE   75 ..............................
........................................................................
     iter. time                 ...        0 min, 15.382 sec
          total energy        -132.512887798575377 Eh
            energy change       -0.28E-03 Eh
 
          gradient norm          0.089744838432816 Eh/a0
            max. gradient        0.050173657970990 Eh/a0
 
            step length          0.195686388754085 a0
            max. step            0.034677368721649 a0
 
       unit cell volume      11155.348800811618275 A^3
 
       current lattice:  
       48.885202315882538       -0.225925247241450        0.013971654411888
      -24.471050815259492       42.210290104556414        0.057968236116434
       -0.070017517144193        0.012121857470992       36.580459350790292

........................................................................
.............................. CYCLE   76 ..............................
........................................................................
     iter. time                 ...        0 min, 15.806 sec
          total energy        -132.513097246768780 Eh
            energy change       -0.21E-03 Eh
 
          gradient norm          0.068436330089039 Eh/a0
            max. gradient        0.030216313721884 Eh/a0
 
            step length          0.254664498158287 a0
            max. step            0.050173657970990 a0
 
       unit cell volume      11147.219928604077722 A^3
 
       current lattice:  
       48.873594828888145       -0.232896748296118        0.021110213276627
      -24.472063624206637       42.194371695847742        0.060898392872500
       -0.063481600785550        0.026512015965686       36.579396276488225

........................................................................
.............................. CYCLE   77 ..............................
........................................................................
     iter. time                 ...        0 min, 15.580 sec
          total energy        -132.512744564446422 Eh
            energy change        0.35E-03 Eh
 
          gradient norm          0.125073131462718 Eh/a0
            max. gradient        0.063171941896440 Eh/a0
 
            step length          0.306642380794982 a0
            max. step            0.030216313721884 a0
 
       unit cell volume      11163.259375615116369 A^3
 
       current lattice:  
       48.894188283649669       -0.216751788321825        0.023526579887593
      -24.469565451818550       42.213033470503134        0.065754252735847
       -0.073369786052907        0.016060998236159       36.593267967993931

........................................................................
.............................. CYCLE   78 ..............................
........................................................................
     iter. time                 ...        0 min, 15.347 sec
          total energy        -132.512949027632345 Eh
            energy change       -0.20E-03 Eh
 
          gradient norm          0.103297112300653 Eh/a0
            max. gradient        0.066576923939467 Eh/a0
 
            step length          0.109815267426288 a0
            max. step            0.063171941896440 a0
 
       unit cell volume      11161.608351986607886 A^3
 
       current lattice:  
       48.890190496810234       -0.230409518320488        0.010535516608352
      -24.476450112977364       42.228801859848922        0.061216105423722
       -0.061958621648446        0.016536680970141       36.583140945660936

........................................................................
.............................. CYCLE   79 ..............................
........................................................................
     iter. time                 ...        0 min, 15.714 sec
          total energy        -132.514371764794618 Eh
            energy change       -0.14E-02 Eh
 
          gradient norm          0.059598103275153 Eh/a0
            max. gradient        0.041491360115313 Eh/a0
 
            step length          0.292725666948737 a0
            max. step            0.066576923939467 a0
 
       unit cell volume      11153.380235239521426 A^3
 
       current lattice:  
       48.880923107911919       -0.231000948824907        0.021590483990626
      -24.472829424398483       42.205869124178470        0.059898696266683
       -0.058814036574964        0.017704786898076       36.583277005231260

........................................................................
.............................. CYCLE   80 ..............................
........................................................................
     iter. time                 ...        0 min, 15.293 sec
          total energy        -132.513144756163484 Eh
            energy change        0.12E-02 Eh
 
          gradient norm          0.142114073677612 Eh/a0
            max. gradient        0.084801608331885 Eh/a0
 
            step length          0.113637873549572 a0
            max. step            0.041491360115313 a0
 
       unit cell volume      11151.419007435009917 A^3
 
       current lattice:  
       48.869684433824482       -0.226041609185251        0.017266298635137
      -24.465891776867576       42.206044763032651        0.062097037268902
       -0.080238345610906        0.035945716822564       36.582967945185892

........................................................................
.............................. CYCLE   81 ..............................
........................................................................
     iter. time                 ...        0 min, 15.100 sec
          total energy        -132.514666554682009 Eh
            energy change       -0.15E-02 Eh
 
          gradient norm          0.059388882477990 Eh/a0
            max. gradient        0.038473407032123 Eh/a0
 
            step length          0.099736673526038 a0
            max. step            0.084801608331885 a0
 
       unit cell volume      11157.847219613702691 A^3
 
       current lattice:  
       48.883248453729934       -0.226248708922627        0.016713387465813
      -24.476776345145531       42.209101883173346        0.059747488982486
       -0.069206318364594        0.022369346436915       36.591328923411837

........................................................................
.............................. CYCLE   82 ..............................
........................................................................
     iter. time                 ...        0 min, 15.544 sec
          total energy        -132.514872293412793 Eh
            energy change       -0.21E-03 Eh
 
          gradient norm          0.083491170693700 Eh/a0
            max. gradient        0.058086337419445 Eh/a0
 
            step length          0.192524734615629 a0
            max. step            0.038473407032123 a0
 
       unit cell volume      11151.648805979793906 A^3
 
       current lattice:  
       48.882542358562368       -0.230534241827277        0.022640310329101
      -24.465456368569473       42.204297743151663        0.065017568109830
       -0.067800069022169        0.022152368183921       36.577520119896192

........................................................................
.............................. CYCLE   83 ..............................
........................................................................
     iter. time                 ...        0 min, 15.139 sec
          total energy        -132.515211428704163 Eh
            energy change       -0.34E-03 Eh
 
          gradient norm          0.066128536759865 Eh/a0
            max. gradient        0.045158607489276 Eh/a0
 
            step length          0.154527526223587 a0
            max. step            0.058086337419445 a0
 
       unit cell volume      11145.590033262293218 A^3
 
       current lattice:  
       48.861045353573893       -0.232992035246663        0.022905550793552
      -24.467052013628066       42.189284179361970        0.066333764425705
       -0.065447387512988        0.019792510344663       36.587900244987665

........................................................................
.............................. CYCLE   84 ..............................
........................................................................
     iter. time                 ...        0 min, 15.640 sec
          total energy        -132.515941583844210 Eh
            energy change       -0.73E-03 Eh
 
          gradient norm          0.045183367493928 Eh/a0
            max. gradient        0.022352073330687 Eh/a0
 
            step length          0.160511881057772 a0
            max. step            0.045158607489276 a0
 
       unit cell volume      11150.800198120354253 A^3
 
       current lattice:  
       48.876075246027852       -0.235044327347267        0.023118409272467
      -24.472559141959199       42.195783570619355        0.054038930536552
       -0.066907965755135        0.026580881535093       36.588984336999296

........................................................................
.............................. CYCLE   85 ..............................
........................................................................
     iter. time                 ...        0 min, 15.421 sec
          total energy        -132.516245912594911 Eh
            energy change       -0.30E-03 Eh
 
          gradient norm          0.038077340720229 Eh/a0
            max. gradient        0.024806520850229 Eh/a0
 
            step length          0.046431739937674 a0
            max. step            0.022352073330687 a0
 
       unit cell volume      11150.677469140107860 A^3
 
       current lattice:  
       48.872291716970039       -0.229394212094051        0.019094845442462
      -24.472609823360731       42.198597016854649        0.059482193492578
       -0.064994048881581        0.022464750371927       36.586517697699485

........................................................................
.............................. CYCLE   86 ..............................
........................................................................
     iter. time                 ...        0 min, 15.921 sec
          total energy        -132.516741084334427 Eh
            energy change       -0.50E-03 Eh
 
          gradient norm          0.039187064181457 Eh/a0
            max. gradient        0.019324575811099 Eh/a0
 
            step length          0.199890179110308 a0
            max. step            0.024806520850229 a0
 
       unit cell volume      11144.268894978889875 A^3
 
       current lattice:  
       48.866200606402053       -0.242287989714271        0.023222050229083
      -24.467699356935423       42.183031320452216        0.064109187125157
       -0.068914211177235        0.025321898667374       36.589188537263787

........................................................................
.............................. CYCLE   87 ..............................
........................................................................
     iter. time                 ...        0 min, 15.474 sec
          total energy        -132.517314291530312 Eh
            energy change       -0.57E-03 Eh
 
          gradient norm          0.033948756516184 Eh/a0
            max. gradient        0.015617561704457 Eh/a0
 
            step length          0.220449400628210 a0
            max. step            0.019324575811099 a0
 
       unit cell volume      11138.259951990059562 A^3
 
       current lattice:  
       48.851576110399549       -0.242878292292148        0.027367710819670
      -24.466445676909959       42.173786487206122        0.057687759766266
       -0.066836631831592        0.024514964973704       36.588724104765056

........................................................................
.............................. CYCLE   88 ..............................
........................................................................
     iter. time                 ...        0 min, 15.564 sec
          total energy        -132.517693839454580 Eh
            energy change       -0.38E-03 Eh
 
          gradient norm          0.045628839024179 Eh/a0
            max. gradient        0.021695714888358 Eh/a0
 
            step length          0.124144223145961 a0
            max. step            0.015617561704457 a0
 
       unit cell volume      11136.295238805805639 A^3
 
       current lattice:  
       48.852098665987242       -0.250634704700764        0.023871485852127
      -24.467863194139039       42.167016601703921        0.064116845076023
       -0.068851604481959        0.028610952120613       36.591168750543758

........................................................................
.............................. CYCLE   89 ..............................
........................................................................
     iter. time                 ...        0 min, 15.124 sec
          total energy        -132.518195112022511 Eh
            energy change       -0.50E-03 Eh
 
          gradient norm          0.022539604891394 Eh/a0
            max. gradient        0.012352923931410 Eh/a0
 
            step length          0.157724131651171 a0
            max. step            0.021695714888358 a0
 
       unit cell volume      11131.115730765621265 A^3
 
       current lattice:  
       48.843761560048513       -0.252644648804117        0.025927571353995
      -24.464584692928458       42.157235510947018        0.060585629275842
       -0.067909901565833        0.026639668708441       36.589778361879873

........................................................................
.............................. CYCLE   90 ..............................
........................................................................
     iter. time                 ...        0 min, 15.459 sec
          total energy        -132.518549834268612 Eh
            energy change       -0.35E-03 Eh
 
          gradient norm          0.032303998236339 Eh/a0
            max. gradient        0.014179228049826 Eh/a0
 
            step length          0.183176598385178 a0
            max. step            0.012352923931410 a0
 
       unit cell volume      11126.537082170580106 A^3
 
       current lattice:  
       48.835645131947715       -0.260145200002757        0.030460308520030
      -24.462767262930228       42.150580478863809        0.064583580194813
       -0.070964134344466        0.027286755670826       36.589877668108151

........................................................................
.............................. CYCLE   91 ..............................
........................................................................
     iter. time                 ...        0 min, 15.418 sec
          total energy        -132.518986261810596 Eh
            energy change       -0.44E-03 Eh
 
          gradient norm          0.048773920205440 Eh/a0
            max. gradient        0.025617969147098 Eh/a0
 
            step length          0.136343792159974 a0
            max. step            0.014179228049826 a0
 
       unit cell volume      11121.632389766959022 A^3
 
       current lattice:  
       48.828543925724802       -0.257572558770295        0.025472408177854
      -24.461923284557699       42.137709893878281        0.060120452629228
       -0.063640557002872        0.028947012116717       36.589174421794802

........................................................................
.............................. CYCLE   92 ..............................
........................................................................
     iter. time                 ...        0 min, 15.596 sec
          total energy        -132.519553743018008 Eh
            energy change       -0.57E-03 Eh
 
          gradient norm          0.028651764495404 Eh/a0
            max. gradient        0.012149454046500 Eh/a0
 
            step length          0.174121838554724 a0
            max. step            0.025617969147098 a0
 
       unit cell volume      11117.768727982407654 A^3
 
       current lattice:  
       48.821354482369969       -0.266461264089813        0.030863856715787
      -24.461822206923248       42.133084189035380        0.060443816701046
       -0.071346339483062        0.026593064675862       36.589759659798347

........................................................................
.............................. CYCLE   93 ..............................
........................................................................
     iter. time                 ...        0 min, 15.355 sec
          total energy        -132.519975951988329 Eh
            energy change       -0.42E-03 Eh
 
          gradient norm          0.051018963767350 Eh/a0
            max. gradient        0.036139735079763 Eh/a0
 
            step length          0.174364821909580 a0
            max. step            0.012149454046500 a0
 
       unit cell volume      11111.544830055037892 A^3
 
       current lattice:  
       48.812801131225299       -0.272122341934027        0.032719328454816
      -24.452202887973979       42.120947395733715        0.063457823054163
       -0.066762842765220        0.026435160295308       36.588704987710813

........................................................................
.............................. CYCLE   94 ..............................
........................................................................
     iter. time                 ...        0 min, 15.678 sec
          total energy        -132.520152370280925 Eh
            energy change       -0.18E-03 Eh
 
          gradient norm          0.064196917347280 Eh/a0
            max. gradient        0.039334531964630 Eh/a0
 
            step length          0.297133819259616 a0
            max. step            0.036139735079763 a0
 
       unit cell volume      11102.231669314091050 A^3
 
       current lattice:  
       48.803326248699101       -0.278349531499946        0.030519598723690
      -24.460939895879775       42.102222435196545        0.064939789876674
       -0.068572746965163        0.034712522963850       36.584255169314297

........................................................................
.............................. CYCLE   95 ..............................
........................................................................
     iter. time                 ...        0 min, 15.428 sec
          total energy        -132.520415382306538 Eh
            energy change       -0.26E-03 Eh
 
          gradient norm          0.057627686109839 Eh/a0
            max. gradient        0.033745795592761 Eh/a0
 
            step length          0.217693070269965 a0
            max. step            0.039334531964630 a0
 
       unit cell volume      11108.097177889228988 A^3
 
       current lattice:  
       48.810053496501297       -0.276740907049486        0.041577841756214
      -24.462752021771514       42.114981344788809        0.062551850066613
       -0.072668648607998        0.028410200640476       36.586674375373676

........................................................................
.............................. CYCLE   96 ..............................
........................................................................
     iter. time                 ...        0 min, 15.499 sec
          total energy        -132.519380898820799 Eh
            energy change        0.10E-02 Eh
 
          gradient norm          0.137344566069918 Eh/a0
            max. gradient        0.073747810735055 Eh/a0
 
            step length          0.240586137246950 a0
            max. step            0.033745795592761 a0
 
       unit cell volume      11106.887174341974969 A^3
 
       current lattice:  
       48.802357903592387       -0.281448777965895        0.024813770214202
      -24.445001049417641       42.108631742720718        0.056375184032384
       -0.066161469988019        0.033167139164952       36.596007031245847

........................................................................
.............................. CYCLE   97 ..............................
........................................................................
     iter. time                 ...        0 min, 15.351 sec
          total energy        -132.520539159171591 Eh
            energy change       -0.12E-02 Eh
 
          gradient norm          0.074095881612682 Eh/a0
            max. gradient        0.046666563439804 Eh/a0
 
            step length          0.171058748008906 a0
            max. step            0.073747810735055 a0
 
       unit cell volume      11094.790529052768761 A^3
 
       current lattice:  
       48.792068595770324       -0.284895134968309        0.025467873922430
      -24.452543074612084       42.088473629507810        0.062774814015578
       -0.070106740789461        0.030930563452241       36.582998265144973

........................................................................
.............................. CYCLE   98 ..............................
........................................................................
     iter. time                 ...        0 min, 15.591 sec
          total energy        -132.520549471341809 Eh
            energy change       -0.10E-04 Eh
 
          gradient norm          0.108239603874323 Eh/a0
            max. gradient        0.061014380167717 Eh/a0
 
            step length          0.178733189322341 a0
            max. step            0.046666563439804 a0
 
       unit cell volume      11103.049119605835585 A^3
 
       current lattice:  
       48.799138078314712       -0.282480520019539        0.048291111435157
      -24.456224901155316       42.103829023909896        0.064157868468738
       -0.059813592779165        0.036184682557473       36.590473761010713

........................................................................
.............................. CYCLE   99 ..............................
........................................................................
     iter. time                 ...        0 min, 15.246 sec
          total energy        -132.521013251677346 Eh
            energy change       -0.46E-03 Eh
 
          gradient norm          0.105273728421710 Eh/a0
            max. gradient        0.054163458980628 Eh/a0
 
            step length          0.166561690783456 a0
            max. step            0.061014380167717 a0
 
       unit cell volume      11107.540582882051240 A^3
 
       current lattice:  
       48.809670130453789       -0.281011096360468        0.042410512314286
      -24.454952346495922       42.104832091666879        0.054871501611837
       -0.078198825376228        0.026992570251650       36.595790921783603

........................................................................
.............................. CYCLE  100 ..............................
........................................................................
     iter. time                 ...        0 min, 15.554 sec
          total energy        -132.520395409946644 Eh
            energy change        0.62E-03 Eh
 
          gradient norm          0.166369037877630 Eh/a0
            max. gradient        0.100431148464591 Eh/a0
 
            step length          0.242286661237063 a0
            max. step            0.054163458980628 a0
 
       unit cell volume      11093.829480163472908 A^3
 
       current lattice:  
       48.785606272830037       -0.304703301209419        0.029313443276554
      -24.461831475308703       42.098805910496878        0.051068809199436
       -0.063009896118324        0.030494731949455       36.584380631671252

........................................................................
.............................. CYCLE  101 ..............................
........................................................................
     iter. time                 ...        0 min, 15.659 sec
          total energy        -132.522057161630244 Eh
            energy change       -0.17E-02 Eh
 
          gradient norm          0.069176016179456 Eh/a0
            max. gradient        0.034454579126008 Eh/a0
 
            step length          0.268885553748431 a0
            max. step            0.100431148464591 a0
 
       unit cell volume      11089.382713310546023 A^3
 
       current lattice:  
       48.781849929735465       -0.292423948434603        0.041956609006023
      -24.451544762816493       42.075393935905034        0.066124402507499
       -0.064280233959743        0.037572024476992       36.587551791918933

........................................................................
.............................. CYCLE  102 ..............................
........................................................................
     iter. time                 ...        0 min, 15.880 sec
          total energy        -132.523065251092390 Eh
            energy change       -0.10E-02 Eh
 
          gradient norm          0.047653589206102 Eh/a0
            max. gradient        0.025144060492803 Eh/a0
 
            step length          0.195633613714761 a0
            max. step            0.034454579126008 a0
 
       unit cell volume      11094.221785404790353 A^3
 
       current lattice:  
       48.788049358357945       -0.291859621732417        0.038084520326550
      -24.451943987953872       42.087152062314118        0.060769229401267
       -0.073479013493866        0.036005869423097       36.588333220216818

........................................................................
.............................. CYCLE  103 ..............................
........................................................................
     iter. time                 ...        0 min, 15.679 sec
          total energy        -132.522512550920283 Eh
            energy change        0.55E-03 Eh
 
          gradient norm          0.116063762403915 Eh/a0
            max. gradient        0.063665158728043 Eh/a0
 
            step length          0.180283417912668 a0
            max. step            0.025144060492803 a0
 
       unit cell volume      11091.189474619663088 A^3
 
       current lattice:  
       48.791027574627385       -0.304677281147544        0.042310307757432
      -24.458060153802041       42.071866115912805        0.057588403686222
       -0.060050909089094        0.023990419503066       36.595049991552933

........................................................................
.............................. CYCLE  104 ..............................
........................................................................
     iter. time                 ...        0 min, 15.575 sec
          total energy        -132.523774870766886 Eh
            energy change       -0.13E-02 Eh
 
          gradient norm          0.042820674783259 Eh/a0
            max. gradient        0.020462553117234 Eh/a0
 
            step length          0.140467401232556 a0
            max. step            0.063665158728043 a0
 
       unit cell volume      11084.114882168385520 A^3
 
       current lattice:  
       48.775485834079802       -0.308004804746239        0.044712431918515
      -24.451341072152530       42.063552821868569        0.054314810833422
       -0.069312784076365        0.038224367616948       36.592092867246471

........................................................................
.............................. CYCLE  105 ..............................
........................................................................
     iter. time                 ...        0 min, 15.544 sec
          total energy        -132.524585054812377 Eh
            energy change       -0.81E-03 Eh
 
          gradient norm          0.040092875518955 Eh/a0
            max. gradient        0.018062787233541 Eh/a0
 
            step length          0.172572060271333 a0
            max. step            0.020462553117234 a0
 
       unit cell volume      11083.237548181865350 A^3
 
       current lattice:  
       48.770215198187159       -0.305867485543151        0.041692981065377
      -24.455017417329223       42.062359696826704        0.058450660105342
       -0.067505590599311        0.035248563531851       36.593294176184969

........................................................................
.............................. CYCLE  106 ..............................
........................................................................
     iter. time                 ...        0 min, 15.512 sec
          total energy        -132.524558553805974 Eh
            energy change        0.27E-04 Eh
 
          gradient norm          0.115594255523480 Eh/a0
            max. gradient        0.066684531040378 Eh/a0
 
            step length          0.513822249559310 a0
            max. step            0.018062787233541 a0
 
       unit cell volume      11068.709275363118650 A^3
 
       current lattice:  
       48.763912844869594       -0.330794081513965        0.046987175115488
      -24.441527032010903       42.036899375745008        0.058114407045664
       -0.070060929259527        0.042877866753098       36.583130882873348

........................................................................
.............................. CYCLE  107 ..............................
........................................................................
     iter. time                 ...        0 min, 15.631 sec
          total energy        -132.525229344902300 Eh
            energy change       -0.67E-03 Eh
 
          gradient norm          0.108466004075105 Eh/a0
            max. gradient        0.079771458353172 Eh/a0
 
            step length          0.311330953366431 a0
            max. step            0.066684531040378 a0
 
       unit cell volume      11062.166950975415602 A^3
 
       current lattice:  
       48.739780752946217       -0.339743717834057        0.049648229602687
      -24.449055967073413       42.011479536317289        0.052714043287344
       -0.073103048744402        0.045763002804973       36.605869137383195

........................................................................
.............................. CYCLE  108 ..............................
........................................................................
     iter. time                 ...        0 min, 15.648 sec
          total energy        -132.526441579734637 Eh
            energy change       -0.12E-02 Eh
 
          gradient norm          0.065395703001182 Eh/a0
            max. gradient        0.039560181560355 Eh/a0
 
            step length          0.162238196958449 a0
            max. step            0.079771458353172 a0
 
       unit cell volume      11059.131423425165849 A^3
 
       current lattice:  
       48.735294496230793       -0.330632858372706        0.047962611255305
      -24.450539325223026       42.011619779119016        0.049252339280761
       -0.063991269404166        0.044750412680005       36.595100495440668

........................................................................
.............................. CYCLE  109 ..............................
........................................................................
     iter. time                 ...        0 min, 15.339 sec
          total energy        -132.526992293154564 Eh
            energy change       -0.55E-03 Eh
 
          gradient norm          0.061001092944535 Eh/a0
            max. gradient        0.031200833647312 Eh/a0
 
            step length          0.183172279714398 a0
            max. step            0.039560181560355 a0
 
       unit cell volume      11053.976652981307780 A^3
 
       current lattice:  
       48.730640663212206       -0.347613784571944        0.047823279671713
      -24.442862738870584       42.003853501948626        0.061967950427492
       -0.073083602804596        0.044410510973037       36.595749294369391

........................................................................
.............................. CYCLE  110 ..............................
........................................................................
     iter. time                 ...        0 min, 15.546 sec
          total energy        -132.527504463550912 Eh
            energy change       -0.51E-03 Eh
 
          gradient norm          0.049102198461688 Eh/a0
            max. gradient        0.026879224141772 Eh/a0
 
            step length          0.187952266217351 a0
            max. step            0.031200833647312 a0
 
       unit cell volume      11048.790292617468367 A^3
 
       current lattice:  
       48.726610296142916       -0.349087289114106        0.053547713671967
      -24.444067978711594       41.992059267834797        0.048199215402663
       -0.071177488400684        0.046883715897725       36.592575656541023

........................................................................
.............................. CYCLE  111 ..............................
........................................................................
     iter. time                 ...        0 min, 15.207 sec
          total energy        -132.528263484816506 Eh
            energy change       -0.76E-03 Eh
 
          gradient norm          0.028758288988912 Eh/a0
            max. gradient        0.014823899002121 Eh/a0
 
            step length          0.100907504701266 a0
            max. step            0.026879224141772 a0
 
       unit cell volume      11045.162880971693085 A^3
 
       current lattice:  
       48.719257581745040       -0.351364987209825        0.051590684212138
      -24.443124431357433       41.985899341048615        0.055857891291449
       -0.067652415756741        0.049000642194800       36.592508452571700

........................................................................
.............................. CYCLE  112 ..............................
........................................................................
     iter. time                 ...        0 min, 15.441 sec
          total energy        -132.528536907691716 Eh
            energy change       -0.27E-03 Eh
 
          gradient norm          0.076257447907500 Eh/a0
            max. gradient        0.040006391775314 Eh/a0
 
            step length          0.366823989097021 a0
            max. step            0.014823899002121 a0
 
       unit cell volume      11034.787374667010226 A^3
 
       current lattice:  
       48.699090029493654       -0.363414728551681        0.059878161049351
      -24.437090032757212       41.965643774983462        0.046612111848203
       -0.077181692657850        0.042790951302150       36.596281769123252

........................................................................
.............................. CYCLE  113 ..............................
........................................................................
     iter. time                 ...        0 min, 15.411 sec
          total energy        -132.529754718174104 Eh
            energy change       -0.12E-02 Eh
 
          gradient norm          0.032765550297155 Eh/a0
            max. gradient        0.021184100761127 Eh/a0
 
            step length          0.186083407996061 a0
            max. step            0.040006391775314 a0
 
       unit cell volume      11030.417684950936746 A^3
 
       current lattice:  
       48.698767776219420       -0.369438697136822        0.054481697066505
      -24.437426066291135       41.954632152495385        0.054102905922418
       -0.069795339212990        0.050031113812437       36.594362724831335

........................................................................
.............................. CYCLE  114 ..............................
........................................................................
     iter. time                 ...        0 min, 15.442 sec
          total energy        -132.530503187936148 Eh
            energy change       -0.75E-03 Eh
 
          gradient norm          0.043835201864062 Eh/a0
            max. gradient        0.022097989276770 Eh/a0
 
            step length          0.594888807220729 a0
            max. step            0.021184100761127 a0
 
       unit cell volume      11010.337998920202153 A^3
 
       current lattice:  
       48.665086934722737       -0.386138584325810        0.062818858146684
      -24.433579842455714       41.917655207625259        0.052305037486949
       -0.074187877404518        0.053189157962213       36.592845594892076

........................................................................
.............................. CYCLE  115 ..............................
........................................................................
     iter. time                 ...        0 min, 15.614 sec
          total energy        -132.530628843113419 Eh
            energy change       -0.13E-03 Eh
 
          gradient norm          0.097496179344509 Eh/a0
            max. gradient        0.065422007364012 Eh/a0
 
            step length          0.160552605191121 a0
            max. step            0.022097989276770 a0
 
       unit cell volume      11003.484363820427461 A^3
 
       current lattice:  
       48.656572212397563       -0.394302440232524        0.060007617368787
      -24.416669104687408       41.903078909447594        0.056899896819377
       -0.067605283133935        0.049220249951358       36.592764180271232

........................................................................
.............................. CYCLE  116 ..............................
........................................................................
     iter. time                 ...        0 min, 15.561 sec
          total energy        -132.531993881008731 Eh
            energy change       -0.14E-02 Eh
 
          gradient norm          0.046685062772130 Eh/a0
            max. gradient        0.024249828561588 Eh/a0
 
            step length          0.313656351009170 a0
            max. step            0.065422007364012 a0
 
       unit cell volume      10995.496966115457326 A^3
 
       current lattice:  
       48.647657706377728       -0.404745038368851        0.062365534712813
      -24.424169703866461       41.887675120525159        0.058606335514441
       -0.074469476838154        0.057470314704872       36.591111196355669

........................................................................
.............................. CYCLE  117 ..............................
........................................................................
     iter. time                 ...        0 min, 15.541 sec
          total energy        -132.533135191686540 Eh
            energy change       -0.11E-02 Eh
 
          gradient norm          0.034821179847357 Eh/a0
            max. gradient        0.019608084377149 Eh/a0
 
            step length          0.489691436604861 a0
            max. step            0.024249828561588 a0
 
       unit cell volume      10977.389556167048795 A^3
 
       current lattice:  
       48.621882769905625       -0.421949675482840        0.067144343746716
      -24.414048221603242       41.852571758138225        0.059529000223177
       -0.075159832968435        0.059514534693308       36.588634465445224

........................................................................
.............................. CYCLE  118 ..............................
........................................................................
     iter. time                 ...        0 min, 15.758 sec
          total energy        -132.534082879079449 Eh
            energy change       -0.95E-03 Eh
 
          gradient norm          0.068177690266981 Eh/a0
            max. gradient        0.043842237431165 Eh/a0
 
            step length          0.173352230853469 a0
            max. step            0.019608084377149 a0
 
       unit cell volume      10980.200391499478428 A^3
 
       current lattice:  
       48.623104868486386       -0.420856215512348        0.067446341418964
      -24.413832348602760       41.861822910781541        0.062771166556819
       -0.075152849904543        0.056925494009881       36.588464223601719

........................................................................
.............................. CYCLE  119 ..............................
........................................................................
     iter. time                 ...        0 min, 15.760 sec
          total energy        -132.534999676249242 Eh
            energy change       -0.92E-03 Eh
 
          gradient norm          0.107895214299350 Eh/a0
            max. gradient        0.074478439511154 Eh/a0
 
            step length          0.745310227687612 a0
            max. step            0.043842237431165 a0
 
       unit cell volume      10946.814336554291003 A^3
 
       current lattice:  
       48.583790009866796       -0.450200798109052        0.066265406447199
      -24.402924867147608       41.796515127759704        0.063120209856530
       -0.085594164656237        0.060398061622582       36.577091509174515

........................................................................
.............................. CYCLE  120 ..............................
........................................................................
     iter. time                 ...        0 min, 15.914 sec
          total energy        -132.534762889041758 Eh
            energy change        0.24E-03 Eh
 
          gradient norm          0.111361509845541 Eh/a0
            max. gradient        0.049146150288265 Eh/a0
 
            step length          1.080413838738702 a0
            max. step            0.074478439511154 a0
 
       unit cell volume      10920.129562190913930 A^3
 
       current lattice:  
       48.540020027805333       -0.488065726178215        0.075417081767556
      -24.377939337084442       41.741612242511998        0.060436868455048
       -0.078500185214214        0.074205910271110       36.585892868475185

........................................................................
.............................. CYCLE  121 ..............................
........................................................................
     iter. time                 ...        0 min, 15.425 sec
          total energy        -132.536223478160878 Eh
            energy change       -0.15E-02 Eh
 
          gradient norm          0.082289084520022 Eh/a0
            max. gradient        0.047287043597637 Eh/a0
 
            step length          0.878073606352745 a0
            max. step            0.049146150288265 a0
 
       unit cell volume      10945.125911643861400 A^3
 
       current lattice:  
       48.575121572211863       -0.457808239296985        0.081030780242061
      -24.397645363936533       41.798276066412463        0.075567938035697
       -0.082884832706634        0.057195424580809       36.579779436895237

........................................................................
.............................. CYCLE  122 ..............................
........................................................................
     iter. time                 ...        0 min, 15.542 sec
          total energy        -132.536638459139084 Eh
            energy change       -0.41E-03 Eh
 
          gradient norm          0.080707740288133 Eh/a0
            max. gradient        0.055239372244308 Eh/a0
 
            step length          0.083308653300223 a0
            max. step            0.047287043597637 a0
 
       unit cell volume      10943.139492799944492 A^3
 
       current lattice:  
       48.572625682714062       -0.452394196244888        0.060629676319685
      -24.393733565379168       41.790189211873297        0.066015477336949
       -0.086523248948785        0.059436483041284       36.579730078319521

........................................................................
.............................. CYCLE  123 ..............................
........................................................................
     iter. time                 ...        0 min, 15.484 sec
          total energy        -132.537177197451115 Eh
            energy change       -0.54E-03 Eh
 
          gradient norm          0.091835104099722 Eh/a0
            max. gradient        0.045449745090870 Eh/a0
 
            step length          0.485058035789525 a0
            max. step            0.055239372244308 a0
 
       unit cell volume      10924.589649429779456 A^3
 
       current lattice:  
       48.547141392995833       -0.481333777876622        0.072297955323591
      -24.394941139525297       41.759335148259510        0.060928543745536
       -0.077095809006924        0.065610727425493       36.576967137307101

........................................................................
.............................. CYCLE  124 ..............................
........................................................................
     iter. time                 ...        0 min, 15.902 sec
          total energy        -132.536890915730197 Eh
            energy change        0.29E-03 Eh
 
          gradient norm          0.137346543536072 Eh/a0
            max. gradient        0.064155857245946 Eh/a0
 
            step length          0.450072683018948 a0
            max. step            0.045449745090870 a0
 
       unit cell volume      10915.054026448024160 A^3
 
       current lattice:  
       48.537823347880412       -0.482253358331102        0.087509754791622
      -24.372332995198782       41.725973105849178        0.080511196122598
       -0.092861842745580        0.069669150013214       36.581704117761120

........................................................................
.............................. CYCLE  125 ..............................
........................................................................
     iter. time                 ...        0 min, 15.520 sec
          total energy        -132.537911650115973 Eh
            energy change       -0.10E-02 Eh
 
          gradient norm          0.103705521901188 Eh/a0
            max. gradient        0.059242569092477 Eh/a0
 
            step length          0.117559650466981 a0
            max. step            0.064155857245946 a0
 
       unit cell volume      10915.747423782248006 A^3
 
       current lattice:  
       48.528061262599998       -0.488192493449557        0.072688547881256
      -24.375382906401114       41.746305709761906        0.075420867241615
       -0.093561099237232        0.069668986200260       36.576166572231479

........................................................................
.............................. CYCLE  126 ..............................
........................................................................
     iter. time                 ...        0 min, 15.173 sec
          total energy        -132.538609652754218 Eh
            energy change       -0.70E-03 Eh
 
          gradient norm          0.094335112301350 Eh/a0
            max. gradient        0.067283170703085 Eh/a0
 
            step length          0.220736621119746 a0
            max. step            0.059242569092477 a0
 
       unit cell volume      10909.520968286848074 A^3
 
       current lattice:  
       48.527362370620736       -0.498644464506185        0.076577861014604
      -24.385691562288539       41.725117665613190        0.065273263645988
       -0.085904971227585        0.056607190683589       36.579187349185048

........................................................................
.............................. CYCLE  127 ..............................
........................................................................
     iter. time                 ...        0 min, 15.421 sec
          total energy        -132.539534851755462 Eh
            energy change       -0.93E-03 Eh
 
          gradient norm          0.059502354498360 Eh/a0
            max. gradient        0.034992516054937 Eh/a0
 
            step length          0.091125542603123 a0
            max. step            0.067283170703085 a0
 
       unit cell volume      10905.524839144174621 A^3
 
       current lattice:  
       48.520480452799355       -0.496298984980300        0.080342761478909
      -24.380056058108160       41.716482668863371        0.064146788034600
       -0.088706917426914        0.076491745772463       36.577570915686167

........................................................................
.............................. CYCLE  128 ..............................
........................................................................
     iter. time                 ...        0 min, 15.521 sec
          total energy        -132.540396442054487 Eh
            energy change       -0.86E-03 Eh
 
          gradient norm          0.025946397358109 Eh/a0
            max. gradient        0.014945956903694 Eh/a0
 
            step length          0.257954754703810 a0
            max. step            0.034992516054937 a0
 
       unit cell volume      10897.940749518884331 A^3
 
       current lattice:  
       48.508145679589347       -0.504901094631487        0.078778529594640
      -24.374219205106698       41.705241597057274        0.076030900497076
       -0.089392706296972        0.070408008578014       36.575163774076977

........................................................................
.............................. CYCLE  129 ..............................
........................................................................
     iter. time                 ...        0 min, 15.646 sec
          total energy        -132.540998941321504 Eh
            energy change       -0.60E-03 Eh
 
          gradient norm          0.032135531621986 Eh/a0
            max. gradient        0.019873739243008 Eh/a0
 
            step length          0.109832221408218 a0
            max. step            0.014945956903694 a0
 
       unit cell volume      10897.621189672012406 A^3
 
       current lattice:  
       48.509414130434202       -0.504384384724749        0.079208812777061
      -24.374949876387667       41.703883723686872        0.070067412633706
       -0.092545276663176        0.071375724098816       36.574091709312789

........................................................................
.............................. CYCLE  130 ..............................
........................................................................
     iter. time                 ...        0 min, 15.687 sec
          total energy        -132.541073917794137 Eh
            energy change       -0.75E-04 Eh
 
          gradient norm          0.094194093480618 Eh/a0
            max. gradient        0.068150314161595 Eh/a0
 
            step length          0.385023704210687 a0
            max. step            0.019873739243008 a0
 
       unit cell volume      10886.680542232932567 A^3
 
       current lattice:  
       48.485855073768711       -0.519603626691437        0.077760929349259
      -24.371638711555260       41.680027109196594        0.082968993128372
       -0.090757717802688        0.070122159541140       36.583034414727202

........................................................................
.............................. CYCLE  131 ..............................
........................................................................
     iter. time                 ...        0 min, 15.781 sec
          total energy        -132.541926349250986 Eh
            energy change       -0.85E-03 Eh
 
          gradient norm          0.062362718840815 Eh/a0
            max. gradient        0.049421401536200 Eh/a0
 
            step length          0.407162693134592 a0
            max. step            0.068150314161595 a0
 
       unit cell volume      10871.542027949777548 A^3
 
       current lattice:  
       48.473269805613363       -0.529988139669933        0.081160408719630
      -24.363385454073796       41.658727508093392        0.081745089462181
       -0.093455346960407        0.072196189306864       36.565037795290039

........................................................................
.............................. CYCLE  132 ..............................
........................................................................
     iter. time                 ...        0 min, 15.275 sec
          total energy        -132.542543411432945 Eh
            energy change       -0.62E-03 Eh
 
          gradient norm          0.047930519240616 Eh/a0
            max. gradient        0.025771296215423 Eh/a0
 
            step length          0.212148279825315 a0
            max. step            0.049421401536200 a0
 
       unit cell volume      10876.383795007955996 A^3
 
       current lattice:  
       48.480843774067068       -0.531270264451273        0.077726382580370
      -24.364648261832123       41.664870235608682        0.080624166257875
       -0.100617946304062        0.072392377650268       36.570715592954421

........................................................................
.............................. CYCLE  133 ..............................
........................................................................
     iter. time                 ...        0 min, 15.435 sec
          total energy        -132.542798133488816 Eh
            energy change       -0.25E-03 Eh
 
          gradient norm          0.070188789394845 Eh/a0
            max. gradient        0.041668088643537 Eh/a0
 
            step length          0.133391989957646 a0
            max. step            0.025771296215423 a0
 
       unit cell volume      10874.633335938895470 A^3
 
       current lattice:  
       48.471614951678688       -0.522018957908397        0.080417076712677
      -24.367646274024981       41.660853201332124        0.082052058155096
       -0.089211353624189        0.071792357307788       36.571322474225298

........................................................................
.............................. CYCLE  134 ..............................
........................................................................
     iter. time                 ...        0 min, 15.478 sec
          total energy        -132.543378450351611 Eh
            energy change       -0.58E-03 Eh
 
          gradient norm          0.040209652347016 Eh/a0
            max. gradient        0.015907054847095 Eh/a0
 
            step length          0.153009656069366 a0
            max. step            0.041668088643537 a0
 
       unit cell volume      10870.319639778070268 A^3
 
       current lattice:  
       48.467278368504140       -0.535067270777566        0.082072980284211
      -24.361852231865960       41.653694641445554        0.086537786621541
       -0.094931987286554        0.070477853283204       36.572162209157270

........................................................................
.............................. CYCLE  135 ..............................
........................................................................
     iter. time                 ...        0 min, 15.618 sec
          total energy        -132.543562943216074 Eh
            energy change       -0.18E-03 Eh
 
          gradient norm          0.045559710584456 Eh/a0
            max. gradient        0.024833046371974 Eh/a0
 
            step length          0.185448339993594 a0
            max. step            0.015907054847095 a0
 
       unit cell volume      10873.560995428575552 A^3
 
       current lattice:  
       48.476211372770756       -0.526810529335141        0.074447201352602
      -24.370554525237857       41.656997570598129        0.081351157801982
       -0.093537285369625        0.076356764881565       36.569799426829142

........................................................................
.............................. CYCLE  136 ..............................
........................................................................
     iter. time                 ...        0 min, 15.631 sec
          total energy        -132.543957215861184 Eh
            energy change       -0.39E-03 Eh
 
          gradient norm          0.027625220585712 Eh/a0
            max. gradient        0.014714781812600 Eh/a0
 
            step length          0.153650810440771 a0
            max. step            0.024833046371974 a0
 
       unit cell volume      10870.187029137296122 A^3
 
       current lattice:  
       48.467106658701482       -0.532065610250084        0.079618038347637
      -24.366192580871072       41.652538060190309        0.081785455643624
       -0.098164684494398        0.072845189410063       36.571573681452293

........................................................................
.............................. CYCLE  137 ..............................
........................................................................
     iter. time                 ...        0 min, 15.567 sec
          total energy        -132.544180368974452 Eh
            energy change       -0.22E-03 Eh
 
          gradient norm          0.044933956240537 Eh/a0
            max. gradient        0.033871918387524 Eh/a0
 
            step length          0.175176932733598 a0
            max. step            0.014714781812600 a0
 
       unit cell volume      10867.644608015811173 A^3
 
       current lattice:  
       48.469780814990898       -0.538026917038077        0.074408467845758
      -24.366057831134594       41.646444762906896        0.086027642697609
       -0.089569870249279        0.075392914106795       36.569055114353134

........................................................................
.............................. CYCLE  138 ..............................
........................................................................
     iter. time                 ...        0 min, 15.485 sec
          total energy        -132.544481114127308 Eh
            energy change       -0.30E-03 Eh
 
          gradient norm          0.040528231514781 Eh/a0
            max. gradient        0.026409296718312 Eh/a0
 
            step length          0.131294957486345 a0
            max. step            0.033871918387524 a0
 
       unit cell volume      10865.043840892800290 A^3
 
       current lattice:  
       48.462928052831209       -0.540867903877057        0.077385751744184
      -24.369697051366231       41.641566501114042        0.086417979375974
       -0.097825289393624        0.076868176304384       36.571106265220479

........................................................................
.............................. CYCLE  139 ..............................
........................................................................
     iter. time                 ...        0 min, 15.667 sec
          total energy        -132.544286068546796 Eh
            energy change        0.20E-03 Eh
 
          gradient norm          0.087734718622903 Eh/a0
            max. gradient        0.043246967636802 Eh/a0
 
            step length          0.145735743342353 a0
            max. step            0.026409296718312 a0
 
       unit cell volume      10865.020146080338236 A^3
 
       current lattice:  
       48.463942641170682       -0.536194500160299        0.075087864756088
      -24.363238582668753       41.640270901059701        0.079924796743046
       -0.091050131417075        0.072199818754556       36.569248732967914

........................................................................
.............................. CYCLE  140 ..............................
........................................................................
     iter. time                 ...        0 min, 15.576 sec
          total energy        -132.544872483607065 Eh
            energy change       -0.59E-03 Eh
 
          gradient norm          0.028915901592316 Eh/a0
            max. gradient        0.015671311849136 Eh/a0
 
            step length          0.180880159975953 a0
            max. step            0.043246967636802 a0
 
       unit cell volume      10861.187498902991138 A^3
 
       current lattice:  
       48.459749190924114       -0.545100996345854        0.075891767586713
      -24.363830354118239       41.634504156224708        0.086668895966315
       -0.094472132281928        0.074352119203622       36.568605964881947

........................................................................
.............................. CYCLE  141 ..............................
........................................................................
     iter. time                 ...        0 min, 15.298 sec
          total energy        -132.544795518312867 Eh
            energy change        0.77E-04 Eh
 
          gradient norm          0.059855960647398 Eh/a0
            max. gradient        0.027863631074152 Eh/a0
 
            step length          0.172355709784407 a0
            max. step            0.015671311849136 a0
 
       unit cell volume      10870.025120669792159 A^3
 
       current lattice:  
       48.469737851257783       -0.536331536789540        0.077031690726342
      -24.365501605221883       41.650184933100029        0.082060297945587
       -0.094220154439914        0.077164741373299       36.573021247879531

........................................................................
.............................. CYCLE  142 ..............................
........................................................................
     iter. time                 ...        0 min, 15.605 sec
          total energy        -132.545083341035792 Eh
            energy change       -0.29E-03 Eh
 
          gradient norm          0.047960614779301 Eh/a0
            max. gradient        0.022123969675486 Eh/a0
 
            step length          0.112424254312532 a0
            max. step            0.027863631074152 a0
 
       unit cell volume      10863.647956181923291 A^3
 
       current lattice:  
       48.463105990413048       -0.540176066142628        0.075442141507850
      -24.369108783137257       41.641049078958567        0.091995575773281
       -0.098604234820409        0.071297550048675       36.566410337655171

........................................................................
.............................. CYCLE  143 ..............................
........................................................................
     iter. time                 ...        0 min, 15.797 sec
          total energy        -132.545546759968062 Eh
            energy change       -0.46E-03 Eh
 
          gradient norm          0.018439363446328 Eh/a0
            max. gradient        0.007503451328381 Eh/a0
 
            step length          0.273190540451935 a0
            max. step            0.022123969675486 a0
 
       unit cell volume      10856.953115692633219 A^3
 
       current lattice:  
       48.455339028502017       -0.550807751614494        0.076632632678537
      -24.363541357884795       41.627547799988079        0.091420506144846
       -0.095730630308208        0.074719911727757       36.566388975704008

........................................................................
.............................. CYCLE  144 ..............................
........................................................................
     iter. time                 ...        0 min, 15.490 sec
          total energy        -132.545809561662082 Eh
            energy change       -0.26E-03 Eh
 
          gradient norm          0.018471401002645 Eh/a0
            max. gradient        0.010395839567426 Eh/a0
 
            step length          0.104563519763616 a0
            max. step            0.007503451328381 a0
 
       unit cell volume      10859.364709380784916 A^3
 
       current lattice:  
       48.457445415198613       -0.548146814481351        0.074613497609822
      -24.365060228075503       41.632511656453822        0.090909431666748
       -0.097767566416541        0.074898399798656       36.567351790415579

........................................................................
.............................. CYCLE  145 ..............................
........................................................................
     iter. time                 ...        0 min, 15.549 sec
          total energy        -132.546049673943003 Eh
            energy change       -0.24E-03 Eh
 
          gradient norm          0.027528201565588 Eh/a0
            max. gradient        0.016074902883747 Eh/a0
 
            step length          0.215374551238163 a0
            max. step            0.010395839567426 a0
 
       unit cell volume      10854.204682780213261 A^3
 
       current lattice:  
       48.453934629991849       -0.554264010421677        0.074051569022880
      -24.360952474303939       41.622406566632741        0.094208026098729
       -0.095364889405721        0.075826261305330       36.564267401435373

........................................................................
.............................. CYCLE  146 ..............................
........................................................................
     iter. time                 ...        0 min, 15.439 sec
          total energy        -132.546416067724920 Eh
            energy change       -0.37E-03 Eh
 
          gradient norm          0.039634374340703 Eh/a0
            max. gradient        0.022177080661631 Eh/a0
 
            step length          0.138360907760615 a0
            max. step            0.016074902883747 a0
 
       unit cell volume      10853.150764777650693 A^3
 
       current lattice:  
       48.451044648074294       -0.559832782314225        0.077572005506666
      -24.362035241226657       41.622997268980697        0.094111478583264
       -0.097704420022827        0.076210503241793       36.564870975748612

........................................................................
.............................. CYCLE  147 ..............................
........................................................................
     iter. time                 ...        0 min, 15.363 sec
          total energy        -132.546382243071605 Eh
            energy change        0.34E-04 Eh
 
          gradient norm          0.089927655231206 Eh/a0
            max. gradient        0.048834393553856 Eh/a0
 
            step length          0.269135288161516 a0
            max. step            0.022177080661631 a0
 
       unit cell volume      10849.408144740395073 A^3
 
       current lattice:  
       48.449860828563601       -0.557008333094108        0.064061627003778
      -24.355270406498693       41.610522338589760        0.099641732383648
       -0.104080238972429        0.073312110107724       36.562876310543508

........................................................................
.............................. CYCLE  148 ..............................
........................................................................
     iter. time                 ...        0 min, 15.444 sec
          total energy        -132.546971396107153 Eh
            energy change       -0.59E-03 Eh
 
          gradient norm          0.050407066222924 Eh/a0
            max. gradient        0.026808644268170 Eh/a0
 
            step length          0.255893667017448 a0
            max. step            0.048834393553856 a0
 
       unit cell volume      10840.469943951638925 A^3
 
       current lattice:  
       48.437267040201128       -0.572328015308265        0.065319863645928
      -24.352109260610749       41.602063127459850        0.101711335146779
       -0.098188346176667        0.079162170229483       36.556608843113331

........................................................................
.............................. CYCLE  149 ..............................
........................................................................
     iter. time                 ...        0 min, 15.381 sec
          total energy        -132.546589255145051 Eh
            energy change        0.38E-03 Eh
 
          gradient norm          0.106207791662522 Eh/a0
            max. gradient        0.053840975001864 Eh/a0
 
            step length          0.092221026707092 a0
            max. step            0.026808644268170 a0
 
       unit cell volume      10840.212996091602690 A^3
 
       current lattice:  
       48.444399547804622       -0.574304843676406        0.082461905649882
      -24.353732006066561       41.588640247687430        0.104035228306216
       -0.098617817464887        0.071008378494675       36.563054932139849

........................................................................
.............................. CYCLE  150 ..............................
........................................................................
     iter. time                 ...        0 min, 15.288 sec
          total energy        -132.547391997906601 Eh
            energy change       -0.80E-03 Eh
 
          gradient norm          0.042077645575597 Eh/a0
            max. gradient        0.022421127174363 Eh/a0
 
            step length          0.255071889590451 a0
            max. step            0.053840975001864 a0
 
       unit cell volume      10846.349970322762601 A^3
 
       current lattice:  
       48.445094093801444       -0.566627404064123        0.073010241028835
      -24.353578755620223       41.607567523259327        0.102628572248196
       -0.102466699163470        0.074596509243512       36.563066277261591

........................................................................
.............................. CYCLE  151 ..............................
........................................................................
     iter. time                 ...        0 min, 15.548 sec
          total energy        -132.547523607838372 Eh
            energy change       -0.13E-03 Eh
 
          gradient norm          0.049027311007605 Eh/a0
            max. gradient        0.025467600316950 Eh/a0
 
            step length          0.321248149645321 a0
            max. step            0.022421127174363 a0
 
       unit cell volume      10837.740464206641263 A^3
 
       current lattice:  
       48.437667873867802       -0.577855482874170        0.069371367913577
      -24.354719160795202       41.593182453059022        0.098920885116778
       -0.098027962490291        0.075206391199950       36.557422371210116

........................................................................
.............................. CYCLE  152 ..............................
........................................................................
     iter. time                 ...        0 min, 15.344 sec
          total energy        -132.547677405358513 Eh
            energy change       -0.15E-03 Eh
 
          gradient norm          0.050129849672261 Eh/a0
            max. gradient        0.030386419426952 Eh/a0
 
            step length          0.095116219581959 a0
            max. step            0.025467600316950 a0
 
       unit cell volume      10834.341033824128317 A^3
 
       current lattice:  
       48.432302965591255       -0.577739202528014        0.072553963232668
      -24.346716671013464       41.585562306672010        0.108084998543648
       -0.099099665240626        0.083809143281298       36.556681906230125

........................................................................
.............................. CYCLE  153 ..............................
........................................................................
     iter. time                 ...        0 min, 15.567 sec
          total energy        -132.548175190050017 Eh
            energy change       -0.50E-03 Eh
 
          gradient norm          0.014565466346827 Eh/a0
            max. gradient        0.005408154710551 Eh/a0
 
            step length          0.150002067621724 a0
            max. step            0.030386419426952 a0
 
       unit cell volume      10838.041726933384780 A^3
 
       current lattice:  
       48.435035784242103       -0.575588949028435        0.070775221585690
      -24.350076721526822       41.594851577383743        0.106570680655142
       -0.101098488133357        0.076809252277234       36.557917282971424

........................................................................
.............................. CYCLE  154 ..............................
........................................................................
     iter. time                 ...        0 min, 15.394 sec
          total energy        -132.548344875298739 Eh
            energy change       -0.17E-03 Eh
 
          gradient norm          0.029441284467938 Eh/a0
            max. gradient        0.015969816091281 Eh/a0
 
            step length          0.187351460601149 a0
            max. step            0.005408154710551 a0
 
       unit cell volume      10831.994755529591203 A^3
 
       current lattice:  
       48.430573959795872       -0.584375308270078        0.069934912152152
      -24.345736274235406       41.582045304912398        0.106739357141433
       -0.103458378797206        0.081653211756086       36.556121492629927

........................................................................
.............................. CYCLE  155 ..............................
........................................................................
     iter. time                 ...        0 min, 15.741 sec
          total energy        -132.548577260066082 Eh
            energy change       -0.23E-03 Eh
 
          gradient norm          0.048986879421553 Eh/a0
            max. gradient        0.027396202148087 Eh/a0
 
            step length          0.174444784231964 a0
            max. step            0.015969816091281 a0
 
       unit cell volume      10828.817524858990510 A^3
 
       current lattice:  
       48.421388464199389       -0.582010018728416        0.070347707296207
      -24.347393545902694       41.577906299187148        0.109961859649573
       -0.100758227431521        0.077381536536854       36.555004922569694

........................................................................
.............................. CYCLE  156 ..............................
........................................................................
     iter. time                 ...        0 min, 15.537 sec
          total energy        -132.549001334306695 Eh
            energy change       -0.42E-03 Eh
 
          gradient norm          0.022982797226840 Eh/a0
            max. gradient        0.010044323409288 Eh/a0
 
            step length          0.121698894900118 a0
            max. step            0.027396202148087 a0
 
       unit cell volume      10827.089479407432009 A^3
 
       current lattice:  
       48.424195623850643       -0.591473959197708        0.066953864781629
      -24.340465583963507       41.575205720677282        0.115645973611188
       -0.102945452354879        0.077100904145371       36.553577180181030

........................................................................
.............................. CYCLE  157 ..............................
........................................................................
     iter. time                 ...        0 min, 15.690 sec
          total energy        -132.549029302712540 Eh
            energy change       -0.28E-04 Eh
 
          gradient norm          0.061725151901381 Eh/a0
            max. gradient        0.046057901119660 Eh/a0
 
            step length          0.150164139228590 a0
            max. step            0.010044323409288 a0
 
       unit cell volume      10824.796342581583303 A^3
 
       current lattice:  
       48.423961975357415       -0.588882420768283        0.069859325924472
      -24.339339471453233       41.573569071141478        0.115368771841732
       -0.109929049329532        0.078764948240663       36.546288193305806

........................................................................
.............................. CYCLE  158 ..............................
........................................................................
     iter. time                 ...        0 min, 15.868 sec
          total energy        -132.549207062719603 Eh
            energy change       -0.18E-03 Eh
 
          gradient norm          0.052595184380623 Eh/a0
            max. gradient        0.035859787201170 Eh/a0
 
            step length          0.349957256768203 a0
            max. step            0.046057901119660 a0
 
       unit cell volume      10815.790906909354817 A^3
 
       current lattice:  
       48.408069211185300       -0.603513237273487        0.065930464366916
      -24.334117744992781       41.550157356397172        0.122125594739790
       -0.106674710269994        0.083305665346081       36.555188771234199

........................................................................
.............................. CYCLE  159 ..............................
........................................................................
     iter. time                 ...        0 min, 15.738 sec
          total energy        -132.549502866482356 Eh
            energy change       -0.30E-03 Eh
 
          gradient norm          0.032645879185171 Eh/a0
            max. gradient        0.018272525687927 Eh/a0
 
            step length          0.296409693778106 a0
            max. step            0.035859787201170 a0
 
       unit cell volume      10824.685866856087159 A^3
 
       current lattice:  
       48.422448568302165       -0.593941407112851        0.064740404825033
      -24.334765217292876       41.571070933000122        0.122897144919859
       -0.103410063750593        0.074908720368062       36.551495145776741

........................................................................
.............................. CYCLE  160 ..............................
........................................................................
     iter. time                 ...        0 min, 15.585 sec
          total energy        -132.549747874911787 Eh
            energy change       -0.25E-03 Eh
 
          gradient norm          0.020051732937704 Eh/a0
            max. gradient        0.012904591900579 Eh/a0
 
            step length          0.084046852625062 a0
            max. step            0.018272525687927 a0
 
       unit cell volume      10824.989623974337519 A^3
 
       current lattice:  
       48.422997425868168       -0.593342194855353        0.065250380384578
      -24.337820852356611       41.571285748853732        0.121769186948027
       -0.108917825920159        0.078057570932792       36.551681240098794

........................................................................
.............................. CYCLE  161 ..............................
........................................................................
     iter. time                 ...        0 min, 15.993 sec
          total energy        -132.549554020297165 Eh
            energy change        0.19E-03 Eh
 
          gradient norm          0.072771443684662 Eh/a0
            max. gradient        0.047703493792381 Eh/a0
 
            step length          0.226512687074966 a0
            max. step            0.012904591900579 a0
 
       unit cell volume      10816.982609109891200 A^3
 
       current lattice:  
       48.413167778153628       -0.601033496827980        0.064064099438299
      -24.323362816727375       41.555166442427556        0.120420425463424
       -0.105267836690816        0.075716926645041       36.549649239198160

........................................................................
.............................. CYCLE  162 ..............................
........................................................................
     iter. time                 ...        0 min, 15.477 sec
          total energy        -132.550002485984663 Eh
            energy change       -0.45E-03 Eh
 
          gradient norm          0.044089222386178 Eh/a0
            max. gradient        0.023314836050594 Eh/a0
 
            step length          0.094424302160790 a0
            max. step            0.047703493792381 a0
 
       unit cell volume      10821.747741815725021 A^3
 
       current lattice:  
       48.421263675129481       -0.598630978101037        0.062919302563289
      -24.331627477806595       41.565055672200728        0.130647814975506
       -0.107361170171953        0.078383198957803       36.549878854747789

........................................................................
.............................. CYCLE  163 ..............................
........................................................................
     iter. time                 ...        0 min, 15.864 sec
          total energy        -132.550246057336494 Eh
            energy change       -0.24E-03 Eh
 
          gradient norm          0.030239750479016 Eh/a0
            max. gradient        0.017419079917418 Eh/a0
 
            step length          0.140634345813683 a0
            max. step            0.023314836050594 a0
 
       unit cell volume      10822.904906010633567 A^3
 
       current lattice:  
       48.424148356526494       -0.597434488866618        0.059321574045097
      -24.333945077092377       41.565629155559627        0.127444494283950
       -0.107811329221692        0.077810269286355       36.550574394927509

........................................................................
.............................. CYCLE  164 ..............................
........................................................................
     iter. time                 ...        0 min, 15.222 sec
          total energy        -132.550350730666764 Eh
            energy change       -0.10E-03 Eh
 
          gradient norm          0.059496412686446 Eh/a0
            max. gradient        0.039480328478249 Eh/a0
 
            step length          0.130715095900658 a0
            max. step            0.017419079917418 a0
 
       unit cell volume      10823.233080799896925 A^3
 
       current lattice:  
       48.420575858830738       -0.599041206574888        0.065360917209110
      -24.324372728371294       41.568310849057212        0.129565799119633
       -0.112956915482189        0.074737745972446       36.552610787125715

........................................................................
.............................. CYCLE  165 ..............................
........................................................................
     iter. time                 ...        0 min, 15.569 sec
          total energy        -132.550671637365895 Eh
            energy change       -0.32E-03 Eh
 
          gradient norm          0.045013985243676 Eh/a0
            max. gradient        0.030637262352883 Eh/a0
 
            step length          0.225570821849159 a0
            max. step            0.039480328478249 a0
 
       unit cell volume      10812.736759224913840 A^3
 
       current lattice:  
       48.413446450578711       -0.609226223235974        0.059900462120871
      -24.322020461209071       41.549345694205940        0.139319763460799
       -0.113407959794953        0.075327111884524       36.543905864294871

........................................................................
.............................. CYCLE  166 ..............................
........................................................................
     iter. time                 ...        0 min, 15.440 sec
          total energy        -132.551085175116555 Eh
            energy change       -0.41E-03 Eh
 
          gradient norm          0.034920274881258 Eh/a0
            max. gradient        0.016131306682840 Eh/a0
 
            step length          0.244086288166530 a0
            max. step            0.030637262352883 a0
 
       unit cell volume      10815.270668670744271 A^3
 
       current lattice:  
       48.419545017552508       -0.609049615085040        0.054284765646396
      -24.318984777319187       41.550306942402699        0.137906928038723
       -0.109761841898550        0.077136633806398       36.546884536319887

........................................................................
.............................. CYCLE  167 ..............................
........................................................................
     iter. time                 ...        0 min, 15.556 sec
          total energy        -132.551437268012961 Eh
            energy change       -0.35E-03 Eh
 
          gradient norm          0.018967922044189 Eh/a0
            max. gradient        0.009270100770877 Eh/a0
 
            step length          0.124029562507175 a0
            max. step            0.016131306682840 a0
 
       unit cell volume      10810.370478052842373 A^3
 
       current lattice:  
       48.411927946644859       -0.615942937351993        0.058993635517094
      -24.316211067510793       41.543639050538836        0.145011966515434
       -0.114708503991868        0.075344843708095       36.545054067931844

........................................................................
.............................. CYCLE  168 ..............................
........................................................................
     iter. time                 ...        0 min, 15.269 sec
          total energy        -132.551779421073491 Eh
            energy change       -0.34E-03 Eh
 
          gradient norm          0.028484582527531 Eh/a0
            max. gradient        0.011265602163588 Eh/a0
 
            step length          0.206339380672899 a0
            max. step            0.009270100770877 a0
 
       unit cell volume      10807.206144290345037 A^3
 
       current lattice:  
       48.411865844479237       -0.618789557835131        0.053295554331779
      -24.310305406494106       41.536559738806844        0.147930398157297
       -0.113910222319950        0.076551500269838       36.541897646955171

........................................................................
.............................. CYCLE  169 ..............................
........................................................................
     iter. time                 ...        0 min, 15.683 sec
          total energy        -132.552134678157501 Eh
            energy change       -0.36E-03 Eh
 
          gradient norm          0.023505550407388 Eh/a0
            max. gradient        0.012805357949107 Eh/a0
 
            step length          0.153242894051331 a0
            max. step            0.011265602163588 a0
 
       unit cell volume      10803.399028013085626 A^3
 
       current lattice:  
       48.409154848909147       -0.624443829393481        0.054520276998082
      -24.306564699366895       41.530384016342389        0.157720309514988
       -0.117914480461910        0.075103427280480       36.539038316353988

........................................................................
.............................. CYCLE  170 ..............................
........................................................................
     iter. time                 ...        0 min, 15.630 sec
          total energy        -132.551999469765690 Eh
            energy change        0.14E-03 Eh
 
          gradient norm          0.074557748455971 Eh/a0
            max. gradient        0.043554940940638 Eh/a0
 
            step length          0.336786534139895 a0
            max. step            0.012805357949107 a0
 
       unit cell volume      10796.811610183094672 A^3
 
       current lattice:  
       48.401718878367625       -0.636134254439616        0.054518476245516
      -24.301962355309335       41.521907774490344        0.157646457243594
       -0.111414808975303        0.078929480009447       36.535099715933498

........................................................................
.............................. CYCLE  171 ..............................
........................................................................
     iter. time                 ...        0 min, 15.420 sec
          total energy        -132.552616492977052 Eh
            energy change       -0.62E-03 Eh
 
          gradient norm          0.040759039912015 Eh/a0
            max. gradient        0.021146349517623 Eh/a0
 
            step length          0.222521660833133 a0
            max. step            0.043554940940638 a0
 
       unit cell volume      10793.172224452677256 A^3
 
       current lattice:  
       48.400181674812387       -0.635609755974421        0.047134813337947
      -24.293497635149137       41.509932620780084        0.169024697239876
       -0.122222378300716        0.072965585187427       36.534232150663030

........................................................................
.............................. CYCLE  172 ..............................
........................................................................
     iter. time                 ...        0 min, 15.576 sec
          total energy        -132.553003377058417 Eh
            energy change       -0.39E-03 Eh
 
          gradient norm          0.026502412436163 Eh/a0
            max. gradient        0.012478048174608 Eh/a0
 
            step length          0.087131785003300 a0
            max. step            0.021146349517623 a0
 
       unit cell volume      10790.735583391706314 A^3
 
       current lattice:  
       48.396855455365674       -0.642309622600882        0.047781020722594
      -24.289600134644783       41.510565390293515        0.175357991558514
       -0.123597878916851        0.074298565125018       36.530904490420660

........................................................................
.............................. CYCLE  173 ..............................
........................................................................
     iter. time                 ...        0 min, 15.856 sec
          total energy        -132.552890887026678 Eh
            energy change        0.11E-03 Eh
 
          gradient norm          0.087552729176896 Eh/a0
            max. gradient        0.039510764393613 Eh/a0
 
            step length          0.266188751573890 a0
            max. step            0.012478048174608 a0
 
       unit cell volume      10786.585914677163601 A^3
 
       current lattice:  
       48.400238413821995       -0.647606305837907        0.054140193033905
      -24.284495720723918       41.492483431922665        0.180381481492205
       -0.120698834899336        0.068603149312673       36.532592172690201

........................................................................
.............................. CYCLE  174 ..............................
........................................................................
     iter. time                 ...        0 min, 15.685 sec
          total energy        -132.553654490792582 Eh
            energy change       -0.76E-03 Eh
 
          gradient norm          0.033413316146128 Eh/a0
            max. gradient        0.016368470193266 Eh/a0
 
            step length          0.106075068329087 a0
            max. step            0.039510764393613 a0
 
       unit cell volume      10783.952954046644663 A^3
 
       current lattice:  
       48.392282978464429       -0.649722541115701        0.043687580637949
      -24.279030047077530       41.494933535514178        0.183237121896120
       -0.124605447729817        0.073627963858902       36.528473000869866

........................................................................
.............................. CYCLE  175 ..............................
........................................................................
     iter. time                 ...        0 min, 15.548 sec
          total energy        -132.554097811383713 Eh
            energy change       -0.44E-03 Eh
 
          gradient norm          0.030649457509696 Eh/a0
            max. gradient        0.021487721702531 Eh/a0
 
            step length          0.204005011462510 a0
            max. step            0.016368470193266 a0
 
       unit cell volume      10778.939882408878475 A^3
 
       current lattice:  
       48.390520361476973       -0.659069270104730        0.045849966590244
      -24.274045233835263       41.485826141323848        0.192861923122553
       -0.127993252968025        0.069635016173641       36.525001835808929

........................................................................
.............................. CYCLE  176 ..............................
........................................................................
     iter. time                 ...        0 min, 15.847 sec
          total energy        -132.554298272030962 Eh
            energy change       -0.20E-03 Eh
 
          gradient norm          0.064407542719559 Eh/a0
            max. gradient        0.031892079139731 Eh/a0
 
            step length          0.294708069189448 a0
            max. step            0.021487721702531 a0
 
       unit cell volume      10775.664496086254076 A^3
 
       current lattice:  
       48.382817412083483       -0.659393330980357        0.045876714988946
      -24.261327649053516       41.478881159840675        0.204229604614970
       -0.132570797157971        0.074609028911783       36.525958808095723

........................................................................
.............................. CYCLE  177 ..............................
........................................................................
     iter. time                 ...        0 min, 15.934 sec
          total energy        -132.554752932917893 Eh
            energy change       -0.45E-03 Eh
 
          gradient norm          0.054379451799935 Eh/a0
            max. gradient        0.026787702925141 Eh/a0
 
            step length          0.259705416108309 a0
            max. step            0.031892079139731 a0
 
       unit cell volume      10769.583822961847545 A^3
 
       current lattice:  
       48.378229249561002       -0.674091851844086        0.037102896681710
      -24.260854416743729       41.471109830223355        0.205425573185045
       -0.135631952578251        0.064956170420802       36.522234795706332

........................................................................
.............................. CYCLE  178 ..............................
........................................................................
     iter. time                 ...        0 min, 15.812 sec
          total energy        -132.555325881044070 Eh
            energy change       -0.57E-03 Eh
 
          gradient norm          0.029520710914403 Eh/a0
            max. gradient        0.016760428257627 Eh/a0
 
            step length          0.234355966646580 a0
            max. step            0.026787702925141 a0
 
       unit cell volume      10763.464871772526749 A^3
 
       current lattice:  
       48.375982296171934       -0.679265143524455        0.038302297583306
      -24.249482215973639       41.457638855778612        0.217365824270828
       -0.138120374916024        0.070507450134674       36.517359892140647

........................................................................
.............................. CYCLE  179 ..............................
........................................................................
     iter. time                 ...        0 min, 15.790 sec
          total energy        -132.555793044690830 Eh
            energy change       -0.47E-03 Eh
 
          gradient norm          0.029929077174507 Eh/a0
            max. gradient        0.014642707833356 Eh/a0
 
            step length          0.196178409303186 a0
            max. step            0.016760428257627 a0
 
       unit cell volume      10761.109543848966496 A^3
 
       current lattice:  
       48.368864658434994       -0.682695343379837        0.039726801912756
      -24.246285871368542       41.454225382624593        0.223957210697130
       -0.140982389421531        0.066139289261112       36.519284596364706

........................................................................
.............................. CYCLE  180 ..............................
........................................................................
     iter. time                 ...        0 min, 15.173 sec
          total energy        -132.556129501542927 Eh
            energy change       -0.34E-03 Eh
 
          gradient norm          0.049787295378980 Eh/a0
            max. gradient        0.023068132071012 Eh/a0
 
            step length          0.201615369827876 a0
            max. step            0.014642707833356 a0
 
       unit cell volume      10758.037802068956807 A^3
 
       current lattice:  
       48.374840354664563       -0.691243831936638        0.035126031632885
      -24.237477218864715       41.448967604831829        0.231296518229485
       -0.145888834709567        0.068690682223550       36.512708583446766

........................................................................
.............................. CYCLE  181 ..............................
........................................................................
     iter. time                 ...        0 min, 16.024 sec
          total energy        -132.556512585663512 Eh
            energy change       -0.38E-03 Eh
 
          gradient norm          0.050790787950134 Eh/a0
            max. gradient        0.034342237983107 Eh/a0
 
            step length          0.393861500074880 a0
            max. step            0.023068132071012 a0
 
       unit cell volume      10748.205626955972548 A^3
 
       current lattice:  
       48.359854706756813       -0.697837287593615        0.031500478715478
      -24.229256177768491       41.431269391899910        0.246942281864832
       -0.139147495343206        0.062225941566945       36.509285101716458

........................................................................
.............................. CYCLE  182 ..............................
........................................................................
     iter. time                 ...        0 min, 15.551 sec
          total energy        -132.556770818194053 Eh
            energy change       -0.26E-03 Eh
 
          gradient norm          0.053493213027793 Eh/a0
            max. gradient        0.025117317768445 Eh/a0
 
            step length          0.173638403951847 a0
            max. step            0.034342237983107 a0
 
       unit cell volume      10744.251695389646557 A^3
 
       current lattice:  
       48.355717886597496       -0.701056369466288        0.035994809043118
      -24.228426290426675       41.424994150376662        0.243904256001544
       -0.150718174457912        0.066041907519456       36.506002791401158

........................................................................
.............................. CYCLE  183 ..............................
........................................................................
     iter. time                 ...        0 min, 15.862 sec
          total energy        -132.556830781979301 Eh
            energy change       -0.60E-04 Eh
 
          gradient norm          0.080212378510722 Eh/a0
            max. gradient        0.060828973330258 Eh/a0
 
            step length          0.188966312793253 a0
            max. step            0.025117317768445 a0
 
       unit cell volume      10740.652883673361430 A^3
 
       current lattice:  
       48.353236045954127       -0.716978856537503        0.030020313178199
      -24.219874004681603       41.412480190706518        0.255652674641524
       -0.149874465847093        0.067377637222045       36.513810128223717

........................................................................
.............................. CYCLE  184 ..............................
........................................................................
     iter. time                 ...        0 min, 15.518 sec
          total energy        -132.557122125475018 Eh
            energy change       -0.29E-03 Eh
 
          gradient norm          0.080131847662538 Eh/a0
            max. gradient        0.049320650043044 Eh/a0
 
            step length          0.080822149931077 a0
            max. step            0.060828973330258 a0
 
       unit cell volume      10739.346940977575287 A^3
 
       current lattice:  
       48.353384238462858       -0.713026741211128        0.033400927597953
      -24.210794222895707       41.418131686509192        0.257155183123801
       -0.150333960480663        0.057149333612346       36.502279507204712

........................................................................
.............................. CYCLE  185 ..............................
........................................................................
     iter. time                 ...        0 min, 15.528 sec
          total energy        -132.556957808808249 Eh
            energy change        0.16E-03 Eh
 
          gradient norm          0.100998862814188 Eh/a0
            max. gradient        0.050402183243525 Eh/a0
 
            step length          0.290959647696752 a0
            max. step            0.049320650043044 a0
 
       unit cell volume      10742.735073764402841 A^3
 
       current lattice:  
       48.361806107075992       -0.707630672430049        0.023871395099943
      -24.219025515490564       41.422783164354662        0.271778509473617
       -0.151154705798659        0.066336259242078       36.501058318417805

........................................................................
.............................. CYCLE  186 ..............................
........................................................................
     iter. time                 ...        0 min, 15.682 sec
          total energy        -132.557836297909489 Eh
            energy change       -0.88E-03 Eh
 
          gradient norm          0.061031363808006 Eh/a0
            max. gradient        0.040167070148792 Eh/a0
 
            step length          0.290068744627525 a0
            max. step            0.050402183243525 a0
 
       unit cell volume      10728.702241394397788 A^3
 
       current lattice:  
       48.342632022846367       -0.724189453281655        0.027621525037870
      -24.212738623193026       41.391729341323945        0.268584201612859
       -0.152645527143895        0.064073113572909       36.502822769954697

........................................................................
.............................. CYCLE  187 ..............................
........................................................................
     iter. time                 ...        0 min, 15.674 sec
          total energy        -132.557414705157470 Eh
            energy change        0.42E-03 Eh
 
          gradient norm          0.109987930778262 Eh/a0
            max. gradient        0.060274373247766 Eh/a0
 
            step length          0.138796785632124 a0
            max. step            0.040167070148792 a0
 
       unit cell volume      10730.916621114385634 A^3
 
       current lattice:  
       48.340568550968420       -0.726636623633296        0.033806247481307
      -24.195022859705002       41.398271203211138        0.265365213253012
       -0.159451399907875        0.063181497637277       36.506930499682504

........................................................................
.............................. CYCLE  188 ..............................
........................................................................
     iter. time                 ...        0 min, 15.584 sec
          total energy        -132.558502318826157 Eh
            energy change       -0.11E-02 Eh
 
          gradient norm          0.043040953317105 Eh/a0
            max. gradient        0.021794238973811 Eh/a0
 
            step length          0.129220253587613 a0
            max. step            0.060274373247766 a0
 
       unit cell volume      10729.082247340104004 A^3
 
       current lattice:  
       48.343532616492347       -0.725032856348468        0.024938868638596
      -24.200591475284121       41.398475883845116        0.275774512331244
       -0.155243789187573        0.061513005668581       36.497639539566379

........................................................................
.............................. CYCLE  189 ..............................
........................................................................
     iter. time                 ...        0 min, 15.600 sec
          total energy        -132.558957685090093 Eh
            energy change       -0.46E-03 Eh
 
          gradient norm          0.019845286996389 Eh/a0
            max. gradient        0.008733471236966 Eh/a0
 
            step length          0.294774189487155 a0
            max. step            0.021794238973811 a0
 
       unit cell volume      10723.140463478013771 A^3
 
       current lattice:  
       48.337187214863434       -0.733969867498648        0.027131156998161
      -24.196465698076729       41.383135191502532        0.279288933701753
       -0.157650686038904        0.060789116532815       36.499819992427668

........................................................................
.............................. CYCLE  190 ..............................
........................................................................
     iter. time                 ...        0 min, 15.468 sec
          total energy        -132.559060908589657 Eh
            energy change       -0.10E-03 Eh
 
          gradient norm          0.037564170100011 Eh/a0
            max. gradient        0.020846290588280 Eh/a0
 
            step length          0.079236901729839 a0
            max. step            0.008733471236966 a0
 
       unit cell volume      10721.542858357564910 A^3
 
       current lattice:  
       48.334302277938662       -0.734883115231382        0.028862037196089
      -24.195368888944639       41.383704135788442        0.284772580858598
       -0.161372894944885        0.060951217323720       36.496467417667603

........................................................................
.............................. CYCLE  191 ..............................
........................................................................
     iter. time                 ...        0 min, 15.646 sec
          total energy        -132.559478229080241 Eh
            energy change       -0.42E-03 Eh
 
          gradient norm          0.019231998420125 Eh/a0
            max. gradient        0.010062071632929 Eh/a0
 
            step length          0.317335021096607 a0
            max. step            0.020846290588280 a0
 
       unit cell volume      10715.486617914335511 A^3
 
       current lattice:  
       48.329692860778685       -0.743272338389791        0.024897908172162
      -24.185673940776805       41.370607626293008        0.290585832803076
       -0.159940405212781        0.060198220005092       36.494633027192933

........................................................................
.............................. CYCLE  192 ..............................
........................................................................
     iter. time                 ...        0 min, 16.140 sec
          total energy        -132.559993202260955 Eh
            energy change       -0.51E-03 Eh
 
          gradient norm          0.030338666421076 Eh/a0
            max. gradient        0.016581556795548 Eh/a0
 
            step length          0.384079977936028 a0
            max. step            0.010062071632929 a0
 
       unit cell volume      10705.527353046580174 A^3
 
       current lattice:  
       48.319091800728472       -0.756011022413661        0.024499784374007
      -24.173890195535275       41.352795055162531        0.306777479065984
       -0.169524892137522        0.057686982732043       36.490148867717274

........................................................................
.............................. CYCLE  193 ..............................
........................................................................
     iter. time                 ...        0 min, 15.622 sec
          total energy        -132.560672528305872 Eh
            energy change       -0.68E-03 Eh
 
          gradient norm          0.037456247867464 Eh/a0
            max. gradient        0.019074738107162 Eh/a0
 
            step length          0.573541674476364 a0
            max. step            0.016581556795548 a0
 
       unit cell volume      10692.296230762043706 A^3
 
       current lattice:  
       48.305035248936839       -0.777124152670934        0.021467972576028
      -24.156947332686599       41.329110359050837        0.320999022119386
       -0.170295118082026        0.058459969798407       36.486042703912972

........................................................................
.............................. CYCLE  194 ..............................
........................................................................
     iter. time                 ...        0 min, 15.809 sec
          total energy        -132.560205525442143 Eh
            energy change        0.47E-03 Eh
 
          gradient norm          0.117284180510559 Eh/a0
            max. gradient        0.064488385107033 Eh/a0
 
            step length          0.382247815979267 a0
            max. step            0.019074738107162 a0
 
       unit cell volume      10684.154601381589600 A^3
 
       current lattice:  
       48.300914437164998       -0.774918134676229        0.012192121689935
      -24.136969375495489       41.304924453546249        0.337640495766188
       -0.183021712460951        0.051264914494639       36.481667578616978

........................................................................
.............................. CYCLE  195 ..............................
........................................................................
     iter. time                 ...        0 min, 15.499 sec
          total energy        -132.561567205402270 Eh
            energy change       -0.14E-02 Eh
 
          gradient norm          0.039804135769398 Eh/a0
            max. gradient        0.020314548544545 Eh/a0
 
            step length          0.180292111821100 a0
            max. step            0.064488385107033 a0
 
       unit cell volume      10677.858024215396654 A^3
 
       current lattice:  
       48.291639339506226       -0.790615616283957        0.022934105503970
      -24.136357887780125       41.300768964574168        0.342917391903348
       -0.184019546389479        0.054714537785504       36.477927541259106

........................................................................
.............................. CYCLE  196 ..............................
........................................................................
     iter. time                 ...        0 min, 15.742 sec
          total energy        -132.562115988426001 Eh
            energy change       -0.55E-03 Eh
 
          gradient norm          0.048951579570955 Eh/a0
            max. gradient        0.023891080698406 Eh/a0
 
            step length          0.165088818839601 a0
            max. step            0.020314548544545 a0
 
       unit cell volume      10673.546988435571620 A^3
 
       current lattice:  
       48.282137354874124       -0.795475518463348        0.017548477677092
      -24.131307992950486       41.291364315878511        0.344231097827340
       -0.186512281577380        0.054843365133074       36.480943847625390

........................................................................
.............................. CYCLE  197 ..............................
........................................................................
     iter. time                 ...        0 min, 15.665 sec
          total energy        -132.562021468121117 Eh
            energy change        0.95E-04 Eh
 
          gradient norm          0.092331562343924 Eh/a0
            max. gradient        0.052546446146690 Eh/a0
 
            step length          0.182122947819803 a0
            max. step            0.023891080698406 a0
 
       unit cell volume      10672.670953568285768 A^3
 
       current lattice:  
       48.294041191410088       -0.800273221755497        0.026567318671819
      -24.125065344766345       41.290991074932542        0.350772368696884
       -0.178684206378670        0.056272771555286       36.471246906962662

........................................................................
.............................. CYCLE  198 ..............................
........................................................................
     iter. time                 ...        0 min, 15.804 sec
          total energy        -132.562701093995514 Eh
            energy change       -0.68E-03 Eh
 
          gradient norm          0.056712346893522 Eh/a0
            max. gradient        0.035986535495912 Eh/a0
 
            step length          0.424911655157766 a0
            max. step            0.052546446146690 a0
 
       unit cell volume      10659.626117506313676 A^3
 
       current lattice:  
       48.270709238339343       -0.816081263574572        0.022324409849616
      -24.113342223164302       41.270996527126002        0.360218743620946
       -0.187227452632358        0.060152991442765       36.469205568822048

........................................................................
.............................. CYCLE  199 ..............................
........................................................................
     iter. time                 ...        0 min, 15.803 sec
          total energy        -132.562757705775482 Eh
            energy change       -0.57E-04 Eh
 
          gradient norm          0.065624216061715 Eh/a0
            max. gradient        0.039709792276293 Eh/a0
 
            step length          0.395729471520429 a0
            max. step            0.035986535495912 a0
 
       unit cell volume      10650.914805761116440 A^3
 
       current lattice:  
       48.265673833812741       -0.830955857874479        0.019247473658586
      -24.105828266098001       41.251267854018913        0.371586521161568
       -0.194261946426681        0.049220118212548       36.467283785771478

........................................................................
.............................. CYCLE  200 ..............................
........................................................................
     iter. time                 ...        0 min, 15.582 sec
          total energy        -132.563299435642051 Eh
            energy change       -0.54E-03 Eh
 
          gradient norm          0.043952861045930 Eh/a0
            max. gradient        0.018517110492382 Eh/a0
 
            step length          0.133146141155670 a0
            max. step            0.039709792276293 a0
 
       unit cell volume      10651.938753054411791 A^3
 
       current lattice:  
       48.261465638388522       -0.824055580637789        0.023133923734619
      -24.099789361455773       41.253675230222946        0.377944789685618
       -0.196410471297004        0.055716675717936       36.468736549985508

........................................................................
.............................. CYCLE  201 ..............................
........................................................................
     iter. time                 ...        0 min, 15.600 sec
          total energy        -132.563736298878524 Eh
            energy change       -0.44E-03 Eh
 
          gradient norm          0.050608884365679 Eh/a0
            max. gradient        0.021725555679346 Eh/a0
 
            step length          0.178345914677467 a0
            max. step            0.018517110492382 a0
 
       unit cell volume      10655.207261222716625 A^3
 
       current lattice:  
       48.263285745871933       -0.825790653050469        0.019585459532426
      -24.103757646595568       41.267447655092170        0.371741546764753
       -0.196358336762196        0.050422557486238       36.467028982561089

........................................................................
.............................. CYCLE  202 ..............................
........................................................................
     iter. time                 ...        0 min, 15.450 sec
          total energy        -132.564401315824369 Eh
            energy change       -0.67E-03 Eh
 
          gradient norm          0.039949302924093 Eh/a0
            max. gradient        0.019898459971603 Eh/a0
 
            step length          0.406034065779191 a0
            max. step            0.021725555679346 a0
 
       unit cell volume      10645.862717096111737 A^3
 
       current lattice:  
       48.255745187652330       -0.835962439662040        0.022686465223052
      -24.088042672068067       41.241362416912068        0.385221926705406
       -0.200144539570033        0.054032570197783       36.468412553548553

........................................................................
.............................. CYCLE  203 ..............................
........................................................................
     iter. time                 ...        0 min, 15.396 sec
          total energy        -132.564781843290291 Eh
            energy change       -0.38E-03 Eh
 
          gradient norm          0.025798155103218 Eh/a0
            max. gradient        0.012648746831082 Eh/a0
 
            step length          0.091389229450388 a0
            max. step            0.019898459971603 a0
 
       unit cell volume      10647.181983705304447 A^3
 
       current lattice:  
       48.254730433615030       -0.833940626496064        0.023276781807931
      -24.090878546515786       41.249446508431134        0.386401016735113
       -0.202474392628524        0.048714229419124       36.465573927924282

........................................................................
.............................. CYCLE  204 ..............................
........................................................................
     iter. time                 ...        0 min, 15.903 sec
          total energy        -132.564973133202500 Eh
            energy change       -0.19E-03 Eh
 
          gradient norm          0.054767123372313 Eh/a0
            max. gradient        0.023467814425514 Eh/a0
 
            step length          0.161740890660819 a0
            max. step            0.012648746831082 a0
 
       unit cell volume      10643.181258729904584 A^3
 
       current lattice:  
       48.255430301076913       -0.842022445851499        0.018955449053990
      -24.082574216604044       41.240217832596109        0.386696491403292
       -0.206911297659451        0.056386649293091       36.463140169750389

........................................................................
.............................. CYCLE  205 ..............................
........................................................................
     iter. time                 ...        0 min, 15.608 sec
          total energy        -132.565235083422124 Eh
            energy change       -0.26E-03 Eh
 
          gradient norm          0.075045244208170 Eh/a0
            max. gradient        0.044813793343472 Eh/a0
 
            step length          0.208691081612589 a0
            max. step            0.023467814425514 a0
 
       unit cell volume      10641.407481617527083 A^3
 
       current lattice:  
       48.247637777802495       -0.847879955936197        0.016932821148830
      -24.078164917679487       41.238554974111203        0.402623880351350
       -0.201238910749727        0.048284856985583       36.466989501855224

........................................................................
.............................. CYCLE  206 ..............................
........................................................................
     iter. time                 ...        0 min, 15.827 sec
          total energy        -132.564969692375570 Eh
            energy change        0.27E-03 Eh
 
          gradient norm          0.107095827391440 Eh/a0
            max. gradient        0.058490201796937 Eh/a0
 
            step length          0.398928666484927 a0
            max. step            0.044813793343472 a0
 
       unit cell volume      10629.603342271433576 A^3
 
       current lattice:  
       48.234370704596977       -0.847554821935359        0.027908823778673
      -24.063601492887297       41.219461151313119        0.403077609022758
       -0.209297275521385        0.047364326694361       36.453286392153345

........................................................................
.............................. CYCLE  207 ..............................
........................................................................
     iter. time                 ...        0 min, 15.368 sec
          total energy        -132.565834389016374 Eh
            energy change       -0.86E-03 Eh
 
          gradient norm          0.058262862543401 Eh/a0
            max. gradient        0.036023096603180 Eh/a0
 
            step length          0.221408016091234 a0
            max. step            0.058490201796937 a0
 
       unit cell volume      10637.205022377069326 A^3
 
       current lattice:  
       48.247320543902795       -0.851025131919202        0.025497307721361
      -24.075983871459169       41.233844317637086        0.401864752909018
       -0.215028105062423        0.052421341852334       36.458406201112908

........................................................................
.............................. CYCLE  208 ..............................
........................................................................
     iter. time                 ...        0 min, 15.711 sec
          total energy        -132.566219708696764 Eh
            energy change       -0.39E-03 Eh
 
          gradient norm          0.051037371650197 Eh/a0
            max. gradient        0.025977009701327 Eh/a0
 
            step length          0.112915686388457 a0
            max. step            0.036023096603180 a0
 
       unit cell volume      10633.186089988812455 A^3
 
       current lattice:  
       48.240131815431845       -0.856980053148601        0.021405838745932
      -24.064590775022356       41.224761902369423        0.405296732528373
       -0.209366862435939        0.046282314529426       36.460668841838057

........................................................................
.............................. CYCLE  209 ..............................
........................................................................
     iter. time                 ...        0 min, 15.756 sec
          total energy        -132.566135304663476 Eh
            energy change        0.84E-04 Eh
 
          gradient norm          0.082495480045257 Eh/a0
            max. gradient        0.039610740332885 Eh/a0
 
            step length          0.158527454915500 a0
            max. step            0.025977009701327 a0
 
       unit cell volume      10634.001974342265385 A^3
 
       current lattice:  
       48.244100258546759       -0.853433027342907        0.016133810681255
      -24.066674687319985       41.226019307940966        0.410629196557558
       -0.205605215017870        0.057272149239943       36.457904414327018

........................................................................
.............................. CYCLE  210 ..............................
........................................................................
     iter. time                 ...        0 min, 15.837 sec
          total energy        -132.566654409039501 Eh
            energy change       -0.52E-03 Eh
 
          gradient norm          0.053027404412865 Eh/a0
            max. gradient        0.034505840841212 Eh/a0
 
            step length          0.052231245808193 a0
            max. step            0.039610740332885 a0
 
       unit cell volume      10628.729638438515394 A^3
 
       current lattice:  
       48.238260375759843       -0.860937430935682        0.021390283171897
      -24.069364742927462       41.219080279537586        0.413315847860475
       -0.209984147472143        0.050928344205403       36.453789817727916

........................................................................
.............................. CYCLE  211 ..............................
........................................................................
     iter. time                 ...        0 min, 15.904 sec
          total energy        -132.566102161717993 Eh
            energy change        0.55E-03 Eh
 
          gradient norm          0.110610500366503 Eh/a0
            max. gradient        0.058053952519935 Eh/a0
 
            step length          0.273221477084400 a0
            max. step            0.034505840841212 a0
 
       unit cell volume      10629.423267744168697 A^3
 
       current lattice:  
       48.237131849443202       -0.869397277377446        0.029139220589608
      -24.045953916169537       41.221756194989318        0.418806567502541
       -0.220256465452160        0.046609998894896       36.457957411588332

........................................................................
.............................. CYCLE  212 ..............................
........................................................................
     iter. time                 ...        0 min, 15.688 sec
          total energy        -132.567095817912502 Eh
            energy change       -0.99E-03 Eh
 
          gradient norm          0.042834906811862 Eh/a0
            max. gradient        0.022968231370665 Eh/a0
 
            step length          0.144701151378600 a0
            max. step            0.058053952519935 a0
 
       unit cell volume      10629.435545811988050 A^3
 
       current lattice:  
       48.239792414838881       -0.862221705131007        0.017539734082665
      -24.054041255933480       41.222148566724250        0.419299769675505
       -0.212336641663801        0.048109237962001       36.452617236465940

........................................................................
.............................. CYCLE  213 ..............................
........................................................................
     iter. time                 ...        0 min, 15.371 sec
          total energy        -132.567241062653778 Eh
            energy change       -0.15E-03 Eh
 
          gradient norm          0.043117663422204 Eh/a0
            max. gradient        0.023708707018173 Eh/a0
 
            step length          0.070689178550982 a0
            max. step            0.022968231370665 a0
 
       unit cell volume      10627.630845221174241 A^3
 
       current lattice:  
       48.236028663830169       -0.868184381001765        0.024308930794812
      -24.059280485115078       41.217210208280072        0.412400123913498
       -0.210604378632826        0.050222046473606       36.456446471012676

........................................................................
.............................. CYCLE  214 ..............................
........................................................................
     iter. time                 ...        0 min, 15.863 sec
          total energy        -132.567591954856141 Eh
            energy change       -0.35E-03 Eh
 
          gradient norm          0.022912521647551 Eh/a0
            max. gradient        0.014587704925675 Eh/a0
 
            step length          0.180527772952745 a0
            max. step            0.023708707018173 a0
 
       unit cell volume      10622.647879586362251 A^3
 
       current lattice:  
       48.233385987757430       -0.872763281071068        0.022138662073428
      -24.051242979875610       41.211116223080865        0.426082680857034
       -0.218024868455352        0.046458208827368       36.448706862345126

........................................................................
.............................. CYCLE  215 ..............................
........................................................................
     iter. time                 ...        0 min, 15.801 sec
          total energy        -132.567849091469981 Eh
            energy change       -0.26E-03 Eh
 
          gradient norm          0.020498422922022 Eh/a0
            max. gradient        0.008701258033707 Eh/a0
 
            step length          0.073935722971884 a0
            max. step            0.014587704925675 a0
 
       unit cell volume      10623.659036252083752 A^3
 
       current lattice:  
       48.235416887030148       -0.874829917441466        0.019696148211906
      -24.050997124239043       41.214428763296063        0.423943353268711
       -0.213175503974262        0.047745120635179       36.448605366888771

........................................................................
.............................. CYCLE  216 ..............................
........................................................................
     iter. time                 ...        0 min, 15.831 sec
          total energy        -132.568172464531074 Eh
            energy change       -0.32E-03 Eh
 
          gradient norm          0.031525791067578 Eh/a0
            max. gradient        0.016167071121422 Eh/a0
 
            step length          0.266883330771225 a0
            max. step            0.008701258033707 a0
 
       unit cell volume      10617.901264651251040 A^3
 
       current lattice:  
       48.229691802937815       -0.879919760454386        0.017478222181961
      -24.042079138421769       41.205325335653093        0.434919651111239
       -0.220218575663761        0.042622291541473       36.443440978420824

........................................................................
.............................. CYCLE  217 ..............................
........................................................................
     iter. time                 ...        0 min, 15.738 sec
          total energy        -132.568337717954591 Eh
            energy change       -0.17E-03 Eh
 
          gradient norm          0.035430124896711 Eh/a0
            max. gradient        0.018429116140607 Eh/a0
 
            step length          0.255899556662082 a0
            max. step            0.016167071121422 a0
 
       unit cell volume      10612.057497656815030 A^3
 
       current lattice:  
       48.226174868915635       -0.892082522150213        0.019464540840066
      -24.033927887789151       41.196448209446551        0.445833407058889
       -0.217021214402201        0.046977904447390       36.439340701090750

........................................................................
.............................. CYCLE  218 ..............................
........................................................................
     iter. time                 ...        0 min, 15.726 sec
          total energy        -132.568572415989649 Eh
            energy change       -0.23E-03 Eh
 
          gradient norm          0.016760522000297 Eh/a0
            max. gradient        0.009518321386691 Eh/a0
 
            step length          0.141187769201474 a0
            max. step            0.018429116140607 a0
 
       unit cell volume      10615.754826196505746 A^3
 
       current lattice:  
       48.230278178923548       -0.888249349302329        0.016238088435058
      -24.038276179147413       41.204639441743751        0.438146915738451
       -0.217776645532718        0.044114904029589       36.439913511628021

........................................................................
.............................. CYCLE  219 ..............................
........................................................................
     iter. time                 ...        0 min, 15.700 sec
          total energy        -132.568782873878376 Eh
            energy change       -0.21E-03 Eh
 
          gradient norm          0.017297587221681 Eh/a0
            max. gradient        0.008187663336437 Eh/a0
 
            step length          0.208336557324535 a0
            max. step            0.009518321386691 a0
 
       unit cell volume      10610.649874771239411 A^3
 
       current lattice:  
       48.225155809421040       -0.894715249342442        0.017229799408673
      -24.030641412897463       41.196647192896421        0.448753225853906
       -0.219023565792453        0.043502083504774       36.436197981489443

........................................................................
.............................. CYCLE  220 ..............................
........................................................................
     iter. time                 ...        0 min, 15.759 sec
          total energy        -132.568926934356483 Eh
            energy change       -0.14E-03 Eh
 
          gradient norm          0.047118197124009 Eh/a0
            max. gradient        0.026463602570811 Eh/a0
 
            step length          0.069663800211880 a0
            max. step            0.008187663336437 a0
 
       unit cell volume      10611.843958995856156 A^3
 
       current lattice:  
       48.226212977395939       -0.897874704491331        0.013967986879104
      -24.033197453904133       41.197007356574105        0.439733628330704
       -0.220692095296182        0.045483453097323       36.440644349130288

........................................................................
.............................. CYCLE  221 ..............................
........................................................................
     iter. time                 ...        0 min, 15.714 sec
          total energy        -132.569449204360666 Eh
            energy change       -0.52E-03 Eh
 
          gradient norm          0.035340252759475 Eh/a0
            max. gradient        0.020724137669722 Eh/a0
 
            step length          0.281327586898454 a0
            max. step            0.026463602570811 a0
 
       unit cell volume      10604.120013728888807 A^3
 
       current lattice:  
       48.218164245292847       -0.907721178298688        0.017811763050459
      -24.020004888366696       41.190847164309027        0.457167277256084
       -0.223316262051110        0.044302238666988       36.429925136657758

........................................................................
.............................. CYCLE  222 ..............................
........................................................................
     iter. time                 ...        0 min, 15.354 sec
          total energy        -132.569629904324671 Eh
            energy change       -0.18E-03 Eh
 
          gradient norm          0.074075869715551 Eh/a0
            max. gradient        0.047305009787575 Eh/a0
 
            step length          0.318030175425744 a0
            max. step            0.020724137669722 a0
 
       unit cell volume      10599.138540768235544 A^3
 
       current lattice:  
       48.218241344491254       -0.918577845623519        0.019009329713918
      -24.014171111961140       41.174765213372517        0.463463077841061
       -0.222117157059680        0.040762179188748       36.431832100998541

........................................................................
.............................. CYCLE  223 ..............................
........................................................................
     iter. time                 ...        0 min, 15.681 sec
          total energy        -132.570085308591047 Eh
            energy change       -0.46E-03 Eh
 
          gradient norm          0.049445576235295 Eh/a0
            max. gradient        0.025699359260082 Eh/a0
 
            step length          0.299254474890221 a0
            max. step            0.047305009787575 a0
 
       unit cell volume      10589.321239485338083 A^3
 
       current lattice:  
       48.197248739985923       -0.932890335476012        0.011282379777468
      -24.003189821541174       41.168175871306829        0.470819740551047
       -0.227672063367106        0.046847236730447       36.426310482287199

........................................................................
.............................. CYCLE  224 ..............................
........................................................................
     iter. time                 ...        0 min, 15.717 sec
          total energy        -132.570457957872037 Eh
            energy change       -0.37E-03 Eh
 
          gradient norm          0.045687422500439 Eh/a0
            max. gradient        0.023548873236486 Eh/a0
 
            step length          0.120546065239709 a0
            max. step            0.025699359260082 a0
 
       unit cell volume      10590.656866432944298 A^3
 
       current lattice:  
       48.205279614223748       -0.935068811498370        0.017018294054614
      -24.005658359120666       41.172719039657110        0.467035820948130
       -0.227225588045675        0.043622947274317       36.421649048938228

........................................................................
.............................. CYCLE  225 ..............................
........................................................................
     iter. time                 ...        0 min, 15.442 sec
          total energy        -132.570724022991413 Eh
            energy change       -0.27E-03 Eh
 
          gradient norm          0.039051325545699 Eh/a0
            max. gradient        0.017817457466495 Eh/a0
 
            step length          0.075091991973558 a0
            max. step            0.023548873236486 a0
 
       unit cell volume      10589.913612199303316 A^3
 
       current lattice:  
       48.201302705687432       -0.930623653462298        0.017949637944452
      -24.003697625781502       41.167706395031644        0.472690395029808
       -0.223972070695317        0.048307947275009       36.424661793286035

........................................................................
.............................. CYCLE  226 ..............................
........................................................................
     iter. time                 ...        0 min, 15.892 sec
          total energy        -132.571158165737643 Eh
            energy change       -0.43E-03 Eh
 
          gradient norm          0.029360093907449 Eh/a0
            max. gradient        0.015567436296951 Eh/a0
 
            step length          0.197043043236924 a0
            max. step            0.017817457466495 a0
 
       unit cell volume      10585.845460904292850 A^3
 
       current lattice:  
       48.197749105291670       -0.941517929939809        0.016213405015233
      -24.001606362339309       41.166130266028489        0.475119899714066
       -0.223193944159785        0.042638597489738       36.419554857798005

........................................................................
.............................. CYCLE  227 ..............................
........................................................................
     iter. time                 ...        0 min, 15.717 sec
          total energy        -132.571255962705720 Eh
            energy change       -0.98E-04 Eh
 
          gradient norm          0.058579274440698 Eh/a0
            max. gradient        0.030908608739728 Eh/a0
 
            step length          0.516870590173291 a0
            max. step            0.015567436296951 a0
 
       unit cell volume      10570.008018011913009 A^3
 
       current lattice:  
       48.184747309614252       -0.961442440322210        0.012314818395649
      -23.979026836493524       41.138590598696034        0.488796115931188
       -0.230232931637007        0.050633369246461       36.408228523000368

........................................................................
.............................. CYCLE  228 ..............................
........................................................................
     iter. time                 ...        0 min, 15.620 sec
          total energy        -132.571575409133686 Eh
            energy change       -0.32E-03 Eh
 
          gradient norm          0.057778185210216 Eh/a0
            max. gradient        0.031923720394565 Eh/a0
 
            step length          0.351508115348143 a0
            max. step            0.030908608739728 a0
 
       unit cell volume      10579.602692827462306 A^3
 
       current lattice:  
       48.189848402719377       -0.956222901972630        0.014707694554583
      -23.996178807198962       41.158143644061894        0.482841694814306
       -0.225782271397447        0.040513142675781       36.417703586392093

........................................................................
.............................. CYCLE  229 ..............................
........................................................................
     iter. time                 ...        0 min, 15.738 sec
          total energy        -132.571378850521143 Eh
            energy change        0.20E-03 Eh
 
          gradient norm          0.091483923099818 Eh/a0
            max. gradient        0.045672433868724 Eh/a0
 
            step length          0.105034463848627 a0
            max. step            0.031923720394565 a0
 
       unit cell volume      10577.380767744945842 A^3
 
       current lattice:  
       48.186416213793628       -0.948755238651061        0.020418104280776
      -23.996837360995535       41.158537116787507        0.471838302803171
       -0.221471732738985        0.044836290602457       36.409030673394298

........................................................................
.............................. CYCLE  230 ..............................
........................................................................
     iter. time                 ...        0 min, 15.906 sec
          total energy        -132.572207907099539 Eh
            energy change       -0.83E-03 Eh
 
          gradient norm          0.034917097638394 Eh/a0
            max. gradient        0.013955330909865 Eh/a0
 
            step length          0.472767415696296 a0
            max. step            0.045672433868724 a0
 
       unit cell volume      10565.167941213407175 A^3
 
       current lattice:  
       48.179575897308681       -0.973425710290016        0.013615420658407
      -23.976754425631441       41.137406812712285        0.498843165507273
       -0.228104443868706        0.045452901842689       36.401809309427676

........................................................................
.............................. CYCLE  231 ..............................
........................................................................
     iter. time                 ...        0 min, 15.843 sec
          total energy        -132.572210888703097 Eh
            energy change       -0.30E-05 Eh
 
          gradient norm          0.068743356512796 Eh/a0
            max. gradient        0.032005274905058 Eh/a0
 
            step length          0.141035702442826 a0
            max. step            0.013955330909865 a0
 
       unit cell volume      10565.462437598547695 A^3
 
       current lattice:  
       48.174755816171604       -0.974692891816828        0.015837838635838
      -23.974706075397641       41.137799754181508        0.487545258919606
       -0.228033116366725        0.038402481316550       36.406578648400902

........................................................................
.............................. CYCLE  232 ..............................
........................................................................
     iter. time                 ...        0 min, 15.783 sec
          total energy        -132.572565043738223 Eh
            energy change       -0.35E-03 Eh
 
          gradient norm          0.047136005367655 Eh/a0
            max. gradient        0.031079637703246 Eh/a0
 
            step length          0.091356874103588 a0
            max. step            0.032005274905058 a0
 
       unit cell volume      10567.898799720916941 A^3
 
       current lattice:  
       48.179735671406867       -0.975336114289546        0.015049055948690
      -23.983316903121047       41.144986945865703        0.492104924302777
       -0.232248935648389        0.044909468132405       36.405256336780475

........................................................................
.............................. CYCLE  233 ..............................
........................................................................
     iter. time                 ...        0 min, 15.594 sec
          total energy        -132.573065998278850 Eh
            energy change       -0.50E-03 Eh
 
          gradient norm          0.034960469266499 Eh/a0
            max. gradient        0.013866135574433 Eh/a0
 
            step length          0.274390874136079 a0
            max. step            0.031079637703246 a0
 
       unit cell volume      10558.602253196710080 A^3
 
       current lattice:  
       48.172191694539272       -0.988926337596177        0.012178274834140
      -23.973162647671231       41.131749169902271        0.501951663901256
       -0.227097994881830        0.044900030751278       36.396739265365618

........................................................................
.............................. CYCLE  234 ..............................
........................................................................
     iter. time                 ...        0 min, 15.840 sec
          total energy        -132.572411017899356 Eh
            energy change        0.65E-03 Eh
 
          gradient norm          0.120900313890586 Eh/a0
            max. gradient        0.064317225268702 Eh/a0
 
            step length          0.156533025837425 a0
            max. step            0.013866135574433 a0
 
       unit cell volume      10562.501625974327908 A^3
 
       current lattice:  
       48.176158134234377       -0.987564170217648        0.012394445883431
      -23.957598640794735       41.140541730480614        0.502412410718888
       -0.233622788950085        0.040251686306216       36.398317027533075

........................................................................
.............................. CYCLE  235 ..............................
........................................................................
     iter. time                 ...        0 min, 16.109 sec
          total energy        -132.573440316373052 Eh
            energy change       -0.10E-02 Eh
 
          gradient norm          0.046609336958856 Eh/a0
            max. gradient        0.033073305480881 Eh/a0
 
            step length          0.219735478504244 a0
            max. step            0.064317225268702 a0
 
       unit cell volume      10551.685158992233482 A^3
 
       current lattice:  
       48.164176602594878       -1.002312872250314        0.016438966037204
      -23.961608598907343       41.121665215237257        0.508233406066035
       -0.238538653089045        0.039749885750855       36.393718700113681

........................................................................
.............................. CYCLE  236 ..............................
........................................................................
     iter. time                 ...        0 min, 16.008 sec
          total energy        -132.573836825032970 Eh
            energy change       -0.40E-03 Eh
 
          gradient norm          0.028517361915434 Eh/a0
            max. gradient        0.012972448517045 Eh/a0
 
            step length          0.085936652940460 a0
            max. step            0.033073305480881 a0
 
       unit cell volume      10550.497662563764607 A^3
 
       current lattice:  
       48.166232108371261       -1.003600840744508        0.010783862984798
      -23.961640643258427       41.121451038149623        0.511965795478257
       -0.230989916720979        0.039786918155940       36.388850261254518

........................................................................
.............................. CYCLE  237 ..............................
........................................................................
     iter. time                 ...        0 min, 16.002 sec
          total energy        -132.574032145514849 Eh
            energy change       -0.20E-03 Eh
 
          gradient norm          0.045642833368670 Eh/a0
            max. gradient        0.023113059436887 Eh/a0
 
            step length          0.296390950617755 a0
            max. step            0.012972448517045 a0
 
       unit cell volume      10542.696241128538531 A^3
 
       current lattice:  
       48.154735930754882       -1.023005690425885        0.014621136098844
      -23.952155807627719       41.110750895044674        0.514089493738541
       -0.231361692121938        0.046310786066326       36.388852317374344

........................................................................
.............................. CYCLE  238 ..............................
........................................................................
     iter. time                 ...        0 min, 15.630 sec
          total energy        -132.574447135965016 Eh
            energy change       -0.41E-03 Eh
 
          gradient norm          0.031564094797266 Eh/a0
            max. gradient        0.014235457621182 Eh/a0
 
            step length          0.225898457888267 a0
            max. step            0.023113059436887 a0
 
       unit cell volume      10536.681939410485938 A^3
 
       current lattice:  
       48.150967129831919       -1.028097190345166        0.012875852996303
      -23.945698316678737       41.102797460728212        0.524265741072818
       -0.237350618695924        0.038841592772006       36.380164927385771

........................................................................
.............................. CYCLE  239 ..............................
........................................................................
     iter. time                 ...        0 min, 15.549 sec
          total energy        -132.574757328326200 Eh
            energy change       -0.31E-03 Eh
 
          gradient norm          0.016482000131490 Eh/a0
            max. gradient        0.007351694400929 Eh/a0
 
            step length          0.113533332121109 a0
            max. step            0.014235457621182 a0
 
       unit cell volume      10539.414156621269285 A^3
 
       current lattice:  
       48.153095329675402       -1.027344936641601        0.012736368088644
      -23.951595864758779       41.106483190504569        0.518278375448044
       -0.232774738301195        0.041430800259519       36.384475241908497

........................................................................
.............................. CYCLE  240 ..............................
........................................................................
     iter. time                 ...        0 min, 15.683 sec
          total energy        -132.575077201591768 Eh
            energy change       -0.32E-03 Eh
 
          gradient norm          0.028696268268478 Eh/a0
            max. gradient        0.014484650729732 Eh/a0
 
            step length          0.419331540179818 a0
            max. step            0.007351694400929 a0
 
       unit cell volume      10526.733988295753079 A^3
 
       current lattice:  
       48.139731589597368       -1.044412022072570        0.012550391499235
      -23.934528654197610       41.087982540113089        0.531862447441216
       -0.238614395339543        0.040701606247800       36.374769329251521

........................................................................
.............................. CYCLE  241 ..............................
........................................................................
     iter. time                 ...        0 min, 16.039 sec
          total energy        -132.575550374093780 Eh
            energy change       -0.47E-03 Eh
 
          gradient norm          0.017822606782555 Eh/a0
            max. gradient        0.007138446899351 Eh/a0
 
            step length          0.169717630215610 a0
            max. step            0.014484650729732 a0
 
       unit cell volume      10530.400062604996492 A^3
 
       current lattice:  
       48.144024583697870       -1.045044948628845        0.011887383785282
      -23.942671768212595       41.094063724124247        0.522884064947777
       -0.233410179212952        0.040994973779299       36.379140208208135

........................................................................
.............................. CYCLE  242 ..............................
........................................................................
     iter. time                 ...        0 min, 16.092 sec
          total energy        -132.575955349655970 Eh
            energy change       -0.40E-03 Eh
 
          gradient norm          0.024486115971032 Eh/a0
            max. gradient        0.010389830562327 Eh/a0
 
            step length          0.432076518210149 a0
            max. step            0.007138446899351 a0
 
       unit cell volume      10517.918374266275350 A^3
 
       current lattice:  
       48.130680136218132       -1.062179229872873        0.012312091237804
      -23.925900164008528       41.076010765162209        0.536896842472554
       -0.238220252010917        0.039700232102166       36.369703894478029

........................................................................
.............................. CYCLE  243 ..............................
........................................................................
     iter. time                 ...        0 min, 16.002 sec
          total energy        -132.576373809107992 Eh
            energy change       -0.42E-03 Eh
 
          gradient norm          0.020133083046654 Eh/a0
            max. gradient        0.009635451787174 Eh/a0
 
            step length          0.131054742380270 a0
            max. step            0.010389830562327 a0
 
       unit cell volume      10517.239149540908329 A^3
 
       current lattice:  
       48.130158779081611       -1.069998209110394        0.011551829197072
      -23.928333145672028       41.076586673684410        0.530847059083701
       -0.236038006712187        0.039396654553668       36.370767644029698

........................................................................
.............................. CYCLE  244 ..............................
........................................................................
     iter. time                 ...        0 min, 15.608 sec
          total energy        -132.576688462192834 Eh
            energy change       -0.31E-03 Eh
 
          gradient norm          0.026284933920409 Eh/a0
            max. gradient        0.013734470122478 Eh/a0
 
            step length          0.285025252528834 a0
            max. step            0.009635451787174 a0
 
       unit cell volume      10509.704807356563833 A^3
 
       current lattice:  
       48.123049058805876       -1.079543898139297        0.013316912509282
      -23.917138197321147       41.065529946363931        0.542707728121578
       -0.238207909840968        0.037657887808269       36.364077715765575

........................................................................
.............................. CYCLE  245 ..............................
........................................................................
     iter. time                 ...        0 min, 15.543 sec
          total energy        -132.577006485382100 Eh
            energy change       -0.32E-03 Eh
 
          gradient norm          0.038109304413506 Eh/a0
            max. gradient        0.019091179558179 Eh/a0
 
            step length          0.230912741601834 a0
            max. step            0.013734470122478 a0
 
       unit cell volume      10503.560822352159448 A^3
 
       current lattice:  
       48.113203383567942       -1.094169706616166        0.008226224410386
      -23.913511978147692       41.059551339207452        0.539837999465374
       -0.240243001781831        0.038731150175207       36.362201249503173

........................................................................
.............................. CYCLE  246 ..............................
........................................................................
     iter. time                 ...        0 min, 15.627 sec
          total energy        -132.577371581055559 Eh
            energy change       -0.37E-03 Eh
 
          gradient norm          0.055047146687884 Eh/a0
            max. gradient        0.041143812849598 Eh/a0
 
            step length          0.331286273814012 a0
            max. step            0.019091179558179 a0
 
       unit cell volume      10496.314291229513401 A^3
 
       current lattice:  
       48.114567977045112       -1.111004814422894        0.014960803473248
      -23.902361332494710       41.046635289104699        0.548833949913552
       -0.241708313621490        0.034770370884009       36.354857033128603

........................................................................
.............................. CYCLE  247 ..............................
........................................................................
     iter. time                 ...        0 min, 16.084 sec
          total energy        -132.577450205269741 Eh
            energy change       -0.79E-04 Eh
 
          gradient norm          0.073194442978365 Eh/a0
            max. gradient        0.038665892262871 Eh/a0
 
            step length          0.192566028359364 a0
            max. step            0.041143812849598 a0
 
       unit cell volume      10496.996980360547241 A^3
 
       current lattice:  
       48.101204059329639       -1.108984313673089        0.018582577185534
      -23.908603625515237       41.052417425006865        0.548975647998215
       -0.235411185052441        0.038547063029994       36.361535751934611

........................................................................
.............................. CYCLE  248 ..............................
........................................................................
     iter. time                 ...        0 min, 15.659 sec
          total energy        -132.577826176684198 Eh
            energy change       -0.38E-03 Eh
 
          gradient norm          0.052781922940566 Eh/a0
            max. gradient        0.033688037949512 Eh/a0
 
            step length          0.736004773301683 a0
            max. step            0.038665892262871 a0
 
       unit cell volume      10476.588007837292025 A^3
 
       current lattice:  
       48.085486620667460       -1.138448785857273        0.004837671910898
      -23.881037357168868       41.021332661730490        0.569912918469151
       -0.248230166399024        0.031119909235497       36.343283830540166

........................................................................
.............................. CYCLE  249 ..............................
........................................................................
     iter. time                 ...        0 min, 15.942 sec
          total energy        -132.578010405737501 Eh
            energy change       -0.18E-03 Eh
 
          gradient norm          0.066821005711024 Eh/a0
            max. gradient        0.036649738915271 Eh/a0
 
            step length          0.497942922363960 a0
            max. step            0.033688037949512 a0
 
       unit cell volume      10488.415634520742969 A^3
 
       current lattice:  
       48.101841610436743       -1.125876347531314        0.012176176105970
      -23.895723962186459       41.039294375053892        0.548787723686621
       -0.245032812000268        0.039245742204380       36.350396882303912

........................................................................
.............................. CYCLE  250 ..............................
........................................................................
     iter. time                 ...        0 min, 15.871 sec
          total energy        -132.577881314455169 Eh
            energy change        0.13E-03 Eh
 
          gradient norm          0.101719875088505 Eh/a0
            max. gradient        0.078859013750263 Eh/a0
 
            step length          0.267443305544006 a0
            max. step            0.036649738915271 a0
 
       unit cell volume      10485.758717258384422 A^3
 
       current lattice:  
       48.093548570042280       -1.133562740408099        0.012954977892836
      -23.894000871582303       41.028008960916011        0.559857228742659
       -0.238673946887246        0.028245514941378       36.360927722526050

........................................................................
.............................. CYCLE  251 ..............................
........................................................................
     iter. time                 ...        0 min, 15.776 sec
          total energy        -132.578274701448464 Eh
            energy change       -0.39E-03 Eh
 
          gradient norm          0.089270272800236 Eh/a0
            max. gradient        0.039766430425421 Eh/a0
 
            step length          0.408984993052503 a0
            max. step            0.078859013750263 a0
 
       unit cell volume      10473.390118190578505 A^3
 
       current lattice:  
       48.076620007038599       -1.144488154764577        0.017800934140851
      -23.881968504127087       41.022717641264158        0.570157253536083
       -0.243121659027042        0.028693848509437       36.340360942707008

........................................................................
.............................. CYCLE  252 ..............................
........................................................................
     iter. time                 ...        0 min, 15.764 sec
          total energy        -132.578653259749274 Eh
            energy change       -0.38E-03 Eh
 
          gradient norm          0.085706959943401 Eh/a0
            max. gradient        0.035513222732634 Eh/a0
 
            step length          0.184061352799176 a0
            max. step            0.039766430425421 a0
 
       unit cell volume      10466.503064332449867 A^3
 
       current lattice:  
       48.074623335667233       -1.159481764557989        0.006515376551272
      -23.866963791023853       41.001796309474948        0.579570604630968
       -0.250256477987920        0.039547177611936       36.343366860699952

........................................................................
.............................. CYCLE  253 ..............................
........................................................................
     iter. time                 ...        0 min, 15.863 sec
          total energy        -132.579371067957908 Eh
            energy change       -0.72E-03 Eh
 
          gradient norm          0.045953072078957 Eh/a0
            max. gradient        0.025957147235853 Eh/a0
 
            step length          0.205801917261573 a0
            max. step            0.035513222732634 a0
 
       unit cell volume      10472.890553573883153 A^3
 
       current lattice:  
       48.083277300819766       -1.155429168468555        0.011980280128040
      -23.877518971556910       41.013039255831771        0.563263626461799
       -0.244829083216844        0.033063582182278       36.347091511887655

........................................................................
.............................. CYCLE  254 ..............................
........................................................................
     iter. time                 ...        0 min, 15.898 sec
          total energy        -132.579512536454502 Eh
            energy change       -0.14E-03 Eh
 
          gradient norm          0.068350382325067 Eh/a0
            max. gradient        0.028473190988458 Eh/a0
 
            step length          0.268210016715764 a0
            max. step            0.025957147235853 a0
 
       unit cell volume      10468.561769677640768 A^3
 
       current lattice:  
       48.075281037289407       -1.160054636597619        0.009712167310933
      -23.876550226274048       41.010704119004032        0.577026720698185
       -0.250375338638691        0.035435622159503       36.342389885136711

........................................................................
.............................. CYCLE  255 ..............................
........................................................................
     iter. time                 ...        0 min, 15.677 sec
          total energy        -132.579984162309415 Eh
            energy change       -0.47E-03 Eh
 
          gradient norm          0.060956894471609 Eh/a0
            max. gradient        0.026549612631407 Eh/a0
 
            step length          0.293437966532495 a0
            max. step            0.028473190988458 a0
 
       unit cell volume      10458.212693883948305 A^3
 
       current lattice:  
       48.062754647506196       -1.171181975508842        0.013006650728427
      -23.858661791551850       40.992826129097438        0.579916561349252
       -0.246551471896112        0.026694270672624       36.336562751737226

........................................................................
.............................. CYCLE  256 ..............................
........................................................................
     iter. time                 ...        0 min, 15.693 sec
          total energy        -132.580649390802620 Eh
            energy change       -0.67E-03 Eh
 
          gradient norm          0.027495070776287 Eh/a0
            max. gradient        0.018290635199783 Eh/a0
 
            step length          0.203882848630817 a0
            max. step            0.026549612631407 a0
 
       unit cell volume      10453.993668266562963 A^3
 
       current lattice:  
       48.062208346398499       -1.188475958273167        0.013198451749952
      -23.858233485832056       40.987819018505014        0.583159203700958
       -0.249494653597209        0.030923551591682       36.334593448632724

........................................................................
.............................. CYCLE  257 ..............................
........................................................................
     iter. time                 ...        0 min, 16.005 sec
          total energy        -132.580946512749250 Eh
            energy change       -0.30E-03 Eh
 
          gradient norm          0.048007375269769 Eh/a0
            max. gradient        0.027074458189833 Eh/a0
 
            step length          0.153102510518195 a0
            max. step            0.018290635199783 a0
 
       unit cell volume      10458.172742891343660 A^3
 
       current lattice:  
       48.062954200847820       -1.176839892704116        0.011878729800632
      -23.856275048604907       40.993619492271812        0.576971747960666
       -0.249800777812600        0.029230635140818       36.338068687960039

........................................................................
.............................. CYCLE  258 ..............................
........................................................................
     iter. time                 ...        0 min, 15.366 sec
          total energy        -132.580911411823109 Eh
            energy change        0.35E-04 Eh
 
          gradient norm          0.094490026741812 Eh/a0
            max. gradient        0.054103802027290 Eh/a0
 
            step length          0.468401705982037 a0
            max. step            0.027074458189833 a0
 
       unit cell volume      10441.798653575757271 A^3
 
       current lattice:  
       48.049811736924184       -1.202299773521105        0.008734375658638
      -23.855527873991246       40.968789153771503        0.595277218331675
       -0.250822367462819        0.025171505626350       36.324872327367707

........................................................................
.............................. CYCLE  259 ..............................
........................................................................
     iter. time                 ...        0 min, 15.643 sec
          total energy        -132.581374208480241 Eh
            energy change       -0.46E-03 Eh
 
          gradient norm          0.065673679696567 Eh/a0
            max. gradient        0.030014361266578 Eh/a0
 
            step length          0.372059484073006 a0
            max. step            0.054103802027290 a0
 
       unit cell volume      10436.540451256018059 A^3
 
       current lattice:  
       48.043934068725676       -1.225032126582649        0.014055193489085
      -23.830901833757967       40.964692615020404        0.602766592971939
       -0.252069086409686        0.025153539328656       36.324338361062743

........................................................................
.............................. CYCLE  260 ..............................
........................................................................
     iter. time                 ...        0 min, 16.062 sec
          total energy        -132.581647193151355 Eh
            energy change       -0.27E-03 Eh
 
          gradient norm          0.067117461411544 Eh/a0
            max. gradient        0.041129352220046 Eh/a0
 
            step length          0.369072267591935 a0
            max. step            0.030014361266578 a0
 
       unit cell volume      10446.837948233327552 A^3
 
       current lattice:  
       48.056482505091921       -1.202514274280633        0.012956300397612
      -23.847353055369428       40.972662723080482        0.579181767227014
       -0.256634229957645        0.031676416085783       36.333771315950095

........................................................................
.............................. CYCLE  261 ..............................
........................................................................
     iter. time                 ...        0 min, 15.464 sec
          total energy        -132.582173127503097 Eh
            energy change       -0.53E-03 Eh
 
          gradient norm          0.026002656524497 Eh/a0
            max. gradient        0.015121464427276 Eh/a0
 
            step length          0.194076473078068 a0
            max. step            0.041129352220046 a0
 
       unit cell volume      10450.841240222142005 A^3
 
       current lattice:  
       48.057186487112631       -1.193270374809127        0.008531877393429
      -23.852559319406538       40.983797483056698        0.583297969417074
       -0.250393943120615        0.026599326052696       36.333077941159587

........................................................................
.............................. CYCLE  262 ..............................
........................................................................
     iter. time                 ...        0 min, 15.712 sec
          total energy        -132.582445440351847 Eh
            energy change       -0.27E-03 Eh
 
          gradient norm          0.020341415798527 Eh/a0
            max. gradient        0.008923949012131 Eh/a0
 
            step length          0.324945270181998 a0
            max. step            0.015121464427276 a0
 
       unit cell volume      10442.217682621689164 A^3
 
       current lattice:  
       48.051369309241792       -1.209421910084982        0.013369587591724
      -23.842790205356707       40.968673072531189        0.591960294863178
       -0.254643763796974        0.026566159350727       36.328125753912815

........................................................................
.............................. CYCLE  263 ..............................
........................................................................
     iter. time                 ...        0 min, 15.726 sec
          total energy        -132.582636775281571 Eh
            energy change       -0.19E-03 Eh
 
          gradient norm          0.019654267386852 Eh/a0
            max. gradient        0.013693859357927 Eh/a0
 
            step length          0.134888532240683 a0
            max. step            0.008923949012131 a0
 
       unit cell volume      10445.889965899765230 A^3
 
       current lattice:  
       48.053474875807815       -1.204441159436716        0.008351635638035
      -23.845861630346072       40.975898825077444        0.587145419103693
       -0.251693546588222        0.026980267216661       36.330658583478247

........................................................................
.............................. CYCLE  264 ..............................
........................................................................
     iter. time                 ...        0 min, 15.731 sec
          total energy        -132.582947159607642 Eh
            energy change       -0.31E-03 Eh
 
          gradient norm          0.023435509795488 Eh/a0
            max. gradient        0.015019973273333 Eh/a0
 
            step length          0.206102755081180 a0
            max. step            0.013693859357927 a0
 
       unit cell volume      10440.862573818259989 A^3
 
       current lattice:  
       48.048858815203786       -1.213926058191005        0.013733169179679
      -23.839094278921284       40.967352717092623        0.593067060838553
       -0.258272155489609        0.024544021713659       36.328418916300869

........................................................................
.............................. CYCLE  265 ..............................
........................................................................
     iter. time                 ...        0 min, 15.692 sec
          total energy        -132.583229956125706 Eh
            energy change       -0.28E-03 Eh
 
          gradient norm          0.043277335389164 Eh/a0
            max. gradient        0.027026265615068 Eh/a0
 
            step length          0.211333256525037 a0
            max. step            0.015019973273333 a0
 
       unit cell volume      10437.477140589846385 A^3
 
       current lattice:  
       48.043170360184327       -1.217169618290454        0.007503108723568
      -23.834106163394665       40.962484707731143        0.593977101689647
       -0.251508209687663        0.028135852175565       36.326808434551062

........................................................................
.............................. CYCLE  266 ..............................
........................................................................
     iter. time                 ...        0 min, 15.830 sec
          total energy        -132.583583814919848 Eh
            energy change       -0.35E-03 Eh
 
          gradient norm          0.020491679115839 Eh/a0
            max. gradient        0.010655208157953 Eh/a0
 
            step length          0.140867880561807 a0
            max. step            0.027026265615068 a0
 
       unit cell volume      10439.446281236892901 A^3
 
       current lattice:  
       48.047219074236466       -1.220866072116086        0.009325012066237
      -23.835028084918367       40.966196729598167        0.591878851161302
       -0.257384362738258        0.024791910458555       36.328821412768043

........................................................................
.............................. CYCLE  267 ..............................
........................................................................
     iter. time                 ...        0 min, 16.272 sec
          total energy        -132.583743687926898 Eh
            energy change       -0.16E-03 Eh
 
          gradient norm          0.020487191294311 Eh/a0
            max. gradient        0.010457569907356 Eh/a0
 
            step length          0.280461213825094 a0
            max. step            0.010655208157953 a0
 
       unit cell volume      10431.709667956338308 A^3
 
       current lattice:  
       48.036589078931492       -1.229393208205040        0.010244598672631
      -23.825872898754696       40.954232083399397        0.599081036986863
       -0.259896268500778        0.024646458591330       36.324411666097355

........................................................................
.............................. CYCLE  268 ..............................
........................................................................
     iter. time                 ...        0 min, 15.767 sec
          total energy        -132.583897749692937 Eh
            energy change       -0.15E-03 Eh
 
          gradient norm          0.027735684269402 Eh/a0
            max. gradient        0.016118507214751 Eh/a0
 
            step length          0.176680203037770 a0
            max. step            0.010457569907356 a0
 
       unit cell volume      10436.859751262301870 A^3
 
       current lattice:  
       48.045284369712242       -1.222527828028048        0.010263788502374
      -23.830293873105958       40.961358813863612        0.596180233624985
       -0.257293019973967        0.024123351629871       36.326279926746885

........................................................................
.............................. CYCLE  269 ..............................
........................................................................
     iter. time                 ...        0 min, 15.750 sec
          total energy        -132.584177448662047 Eh
            energy change       -0.28E-03 Eh
 
          gradient norm          0.043077971977644 Eh/a0
            max. gradient        0.029403377024884 Eh/a0
 
            step length          0.249918648940390 a0
            max. step            0.016118507214751 a0
 
       unit cell volume      10429.200937733436149 A^3
 
       current lattice:  
       48.029994239429705       -1.237342251008971        0.009244658353716
      -23.825034885722715       40.951799657636535        0.596714825349051
       -0.261429483410921        0.027458549380684       36.326503531370008

........................................................................
.............................. CYCLE  270 ..............................
........................................................................
     iter. time                 ...        0 min, 16.022 sec
          total energy        -132.584519237527189 Eh
            energy change       -0.34E-03 Eh
 
          gradient norm          0.030157482969923 Eh/a0
            max. gradient        0.017979237489630 Eh/a0
 
            step length          0.239260320999980 a0
            max. step            0.029403377024884 a0
 
       unit cell volume      10424.423225217453364 A^3
 
       current lattice:  
       48.028314807045511       -1.243987630165044        0.004655411696647
      -23.815295178421071       40.945719070003911        0.605091238030864
       -0.263754669882063        0.021975039071240       36.319310765334926

........................................................................
.............................. CYCLE  271 ..............................
........................................................................
     iter. time                 ...        0 min, 16.021 sec
          total energy        -132.584675365170398 Eh
            energy change       -0.16E-03 Eh
 
          gradient norm          0.045896081171580 Eh/a0
            max. gradient        0.027370454556289 Eh/a0
 
            step length          0.164133615213643 a0
            max. step            0.017979237489630 a0
 
       unit cell volume      10428.719410927524223 A^3
 
       current lattice:  
       48.029824845245628       -1.235240592579510        0.014120291935021
      -23.822587293841039       40.949129765104558        0.602014918901468
       -0.260784557170921        0.026202644363761       36.326324292004877

........................................................................
.............................. CYCLE  272 ..............................
........................................................................
     iter. time                 ...        0 min, 15.914 sec
          total energy        -132.584906627656153 Eh
            energy change       -0.23E-03 Eh
 
          gradient norm          0.040677203175855 Eh/a0
            max. gradient        0.028299069026723 Eh/a0
 
            step length          0.075751486420316 a0
            max. step            0.027370454556289 a0
 
       unit cell volume      10427.099820554771213 A^3
 
       current lattice:  
       48.028994438849175       -1.240279917810756        0.009467209478066
      -23.819841188903599       40.952132782675214        0.599707824414433
       -0.263465669993524        0.027792416154380       36.320847974368029

........................................................................
.............................. CYCLE  273 ..............................
........................................................................
     iter. time                 ...        0 min, 15.560 sec
          total energy        -132.584324404819938 Eh
            energy change        0.58E-03 Eh
 
          gradient norm          0.116192526761895 Eh/a0
            max. gradient        0.087612175905203 Eh/a0
 
            step length          0.359443834756324 a0
            max. step            0.028299069026723 a0
 
       unit cell volume      10420.316071029255909 A^3
 
       current lattice:  
       48.022328267029820       -1.259654492605299       -0.001146826020639
      -23.812890435749647       40.931442467419238        0.608327148467243
       -0.260988480737419        0.023030662432904       36.329446970504470

........................................................................
.............................. CYCLE  274 ..............................
........................................................................
     iter. time                 ...        0 min, 15.873 sec
          total energy        -132.585090238926625 Eh
            energy change       -0.77E-03 Eh
 
          gradient norm          0.052543443375533 Eh/a0
            max. gradient        0.027237504017483 Eh/a0
 
            step length          0.118859824270887 a0
            max. step            0.087612175905203 a0
 
       unit cell volume      10423.073816990910927 A^3
 
       current lattice:  
       48.022796540401728       -1.246317806163185        0.007781445699376
      -23.818159737695900       40.943435206698631        0.603966251803160
       -0.259880355841976        0.022625277804602       36.322005473394455

........................................................................
.............................. CYCLE  275 ..............................
........................................................................
     iter. time                 ...        0 min, 15.859 sec
          total energy        -132.585068160448685 Eh
            energy change        0.22E-04 Eh
 
          gradient norm          0.068000420741806 Eh/a0
            max. gradient        0.044644717858604 Eh/a0
 
            step length          0.220161408387707 a0
            max. step            0.027237504017483 a0
 
       unit cell volume      10427.679126227898450 A^3
 
       current lattice:  
       48.028521861713863       -1.238242539578670        0.005388615210061
      -23.816508952446149       40.948771159769841        0.609506621797459
       -0.265279127026384        0.030759330224233       36.325339394533103

........................................................................
.............................. CYCLE  276 ..............................
........................................................................
     iter. time                 ...        0 min, 15.965 sec
          total energy        -132.585442237468953 Eh
            energy change       -0.37E-03 Eh
 
          gradient norm          0.054656698557118 Eh/a0
            max. gradient        0.027396348034410 Eh/a0
 
            step length          0.111869542376187 a0
            max. step            0.044644717858604 a0
 
       unit cell volume      10424.782080760474855 A^3
 
       current lattice:  
       48.028434585361452       -1.248044045983846        0.006119140864847
      -23.813754946754599       40.945606745391444        0.601037819272106
       -0.260570616271060        0.024105033102390       36.322369697685644

........................................................................
.............................. CYCLE  277 ..............................
........................................................................
     iter. time                 ...        0 min, 15.606 sec
          total energy        -132.585529945089036 Eh
            energy change       -0.88E-04 Eh
 
          gradient norm          0.078304181645612 Eh/a0
            max. gradient        0.039573657883197 Eh/a0
 
            step length          0.375724004318591 a0
            max. step            0.027396348034410 a0
 
       unit cell volume      10419.826493004487929 A^3
 
       current lattice:  
       48.021310726247862       -1.263330423323781       -0.000328506569245
      -23.813403345557145       40.943475764698540        0.610847686050693
       -0.265637001911752        0.027928353498410       36.319402378462271

........................................................................
.............................. CYCLE  278 ..............................
........................................................................
     iter. time                 ...        0 min, 15.934 sec
          total energy        -132.586121686014792 Eh
            energy change       -0.59E-03 Eh
 
          gradient norm          0.037380668077741 Eh/a0
            max. gradient        0.021464640586463 Eh/a0
 
            step length          0.079451897313579 a0
            max. step            0.039573657883197 a0
 
       unit cell volume      10417.540173767096348 A^3
 
       current lattice:  
       48.013812979942145       -1.257270548901286        0.003400045353159
      -23.806603674699478       40.936237804820998        0.609739899152902
       -0.267523368729609        0.026455882596624       36.320801209261873

........................................................................
.............................. CYCLE  279 ..............................
........................................................................
     iter. time                 ...        0 min, 15.856 sec
          total energy        -132.586421590668579 Eh
            energy change       -0.30E-03 Eh
 
          gradient norm          0.029337346556498 Eh/a0
            max. gradient        0.018677194246747 Eh/a0
 
            step length          0.136585519889054 a0
            max. step            0.021464640586463 a0
 
       unit cell volume      10420.317598257872305 A^3
 
       current lattice:  
       48.021171539808961       -1.257018297154004        0.002999321236610
      -23.809826187774831       40.942338005007549        0.611731555401260
       -0.263199469730230        0.024678995466576       36.319277032120588

........................................................................
.............................. CYCLE  280 ..............................
........................................................................
     iter. time                 ...        0 min, 15.889 sec
          total energy        -132.586573380532371 Eh
            energy change       -0.15E-03 Eh
 
          gradient norm          0.032780857056135 Eh/a0
            max. gradient        0.018289965695391 Eh/a0
 
            step length          0.259134122144462 a0
            max. step            0.018677194246747 a0
 
       unit cell volume      10414.171494239262756 A^3
 
       current lattice:  
       48.012458146132410       -1.267091746797816        0.002802296662743
      -23.797055684923762       40.933262366595613        0.612121033551160
       -0.266881347588475        0.027925534452136       36.316963537274809

........................................................................
.............................. CYCLE  281 ..............................
........................................................................
     iter. time                 ...        0 min, 15.617 sec
          total energy        -132.586326009994963 Eh
            energy change        0.25E-03 Eh
 
          gradient norm          0.089305942409542 Eh/a0
            max. gradient        0.049093188785552 Eh/a0
 
            step length          0.239835486197415 a0
            max. step            0.018289965695391 a0
 
       unit cell volume      10415.900988978464738 A^3
 
       current lattice:  
       48.015368429103368       -1.257250401593798       -0.003749643184850
      -23.813618385653783       40.934187421329220        0.608673755334048
       -0.268995207616402        0.026225692531729       36.315928866856048

........................................................................
.............................. CYCLE  282 ..............................
........................................................................
     iter. time                 ...        0 min, 15.893 sec
          total energy        -132.587025219030011 Eh
            energy change       -0.70E-03 Eh
 
          gradient norm          0.034384888290055 Eh/a0
            max. gradient        0.020621229480041 Eh/a0
 
            step length          0.145518068792199 a0
            max. step            0.049093188785552 a0
 
       unit cell volume      10416.329980893749962 A^3
 
       current lattice:  
       48.013018713317535       -1.264280544583553       -0.001552232767735
      -23.802249518798469       40.939026154569618        0.615758433256346
       -0.265327342829930        0.022959118456709       36.317684181402704

........................................................................
.............................. CYCLE  283 ..............................
........................................................................
     iter. time                 ...        0 min, 15.892 sec
          total energy        -132.587317240066938 Eh
            energy change       -0.29E-03 Eh
 
          gradient norm          0.044860506868391 Eh/a0
            max. gradient        0.018778066772368 Eh/a0
 
            step length          0.452802299943739 a0
            max. step            0.020621229480041 a0
 
       unit cell volume      10404.502511168100682 A^3
 
       current lattice:  
       48.003280998965124       -1.283321162476027       -0.002851273965754
      -23.788478564774952       40.920118924930527        0.625002623903559
       -0.265952738151386        0.030574410527760       36.309248375350464

........................................................................
.............................. CYCLE  284 ..............................
........................................................................
     iter. time                 ...        0 min, 15.864 sec
          total energy        -132.587285356255990 Eh
            energy change        0.32E-04 Eh
 
          gradient norm          0.070107806732897 Eh/a0
            max. gradient        0.040871788364316 Eh/a0
 
            step length          0.265091076266068 a0
            max. step            0.018778066772368 a0
 
       unit cell volume      10414.021509388119739 A^3
 
       current lattice:  
       48.010526691028524       -1.272879583149790       -0.005380121643878
      -23.791767983986755       40.937105006280348        0.608728165072127
       -0.274820251171192        0.026372431241572       36.316935993184323

........................................................................
.............................. CYCLE  285 ..............................
........................................................................
     iter. time                 ...        0 min, 15.788 sec
          total energy        -132.587629892019692 Eh
            energy change       -0.34E-03 Eh
 
          gradient norm          0.048450938128932 Eh/a0
            max. gradient        0.034425756061185 Eh/a0
 
            step length          0.284486281500485 a0
            max. step            0.040871788364316 a0
 
       unit cell volume      10404.014881713390423 A^3
 
       current lattice:  
       47.993555599825413       -1.283914137637016       -0.004175942494813
      -23.784192018477231       40.924153570940796        0.622746929177395
       -0.274374492864999        0.023892577432518       36.311444809855985

........................................................................
.............................. CYCLE  286 ..............................
........................................................................
     iter. time                 ...        0 min, 15.823 sec
          total energy        -132.587994429393319 Eh
            energy change       -0.36E-03 Eh
 
          gradient norm          0.031419140083060 Eh/a0
            max. gradient        0.019508978278255 Eh/a0
 
            step length          0.082246541402548 a0
            max. step            0.034425756061185 a0
 
       unit cell volume      10406.049488237971673 A^3
 
       current lattice:  
       48.004383531380192       -1.283691586822960       -0.004672278907046
      -23.785183442949450       40.924610094147297        0.623088336980285
       -0.269963903078098        0.030514425241528       36.309843877320141

........................................................................
.............................. CYCLE  287 ..............................
........................................................................
     iter. time                 ...        0 min, 15.751 sec
          total energy        -132.588151335955189 Eh
            energy change       -0.16E-03 Eh
 
          gradient norm          0.022192249881473 Eh/a0
            max. gradient        0.012244760163612 Eh/a0
 
            step length          0.048829588206123 a0
            max. step            0.019508978278255 a0
 
       unit cell volume      10405.820602050673187 A^3
 
       current lattice:  
       48.000122418753243       -1.282247148844619       -0.009350244964039
      -23.783179660246986       40.925819384592899        0.620637835231565
       -0.268191267420469        0.030473201386851       36.310559557482001

........................................................................
.............................. CYCLE  288 ..............................
........................................................................
     iter. time                 ...        0 min, 15.798 sec
          total energy        -132.588442256988486 Eh
            energy change       -0.29E-03 Eh
 
          gradient norm          0.020512199492306 Eh/a0
            max. gradient        0.008870529836727 Eh/a0
 
            step length          0.203723368512376 a0
            max. step            0.012244760163612 a0
 
       unit cell volume      10401.798464411731402 A^3
 
       current lattice:  
       47.996414209471766       -1.291031156475185       -0.006076394373482
      -23.777626685165785       40.919979834872223        0.625286246883404
       -0.273796101796604        0.032328630756096       36.308435021680843

........................................................................
.............................. CYCLE  289 ..............................
........................................................................
     iter. time                 ...        0 min, 15.853 sec
          total energy        -132.588621184512562 Eh
            energy change       -0.18E-03 Eh
 
          gradient norm          0.020283467969363 Eh/a0
            max. gradient        0.010411838003964 Eh/a0
 
            step length          0.091055798262526 a0
            max. step            0.008870529836727 a0
 
       unit cell volume      10404.416088667405347 A^3
 
       current lattice:  
       47.998584677290609       -1.285029856748345       -0.009365952992900
      -23.778889163010135       40.925433137263674        0.623664839335707
       -0.269795678722788        0.030158127754822       36.308323609382306

........................................................................
.............................. CYCLE  290 ..............................
........................................................................
     iter. time                 ...        0 min, 15.836 sec
          total energy        -132.588840466991513 Eh
            energy change       -0.22E-03 Eh
 
          gradient norm          0.015532890488207 Eh/a0
            max. gradient        0.007584805935378 Eh/a0
 
            step length          0.207790759299836 a0
            max. step            0.010411838003964 a0
 
       unit cell volume      10400.487358409833178 A^3
 
       current lattice:  
       47.993538195968902       -1.294239303027776       -0.009029621269352
      -23.773618204282400       40.921232781680253        0.625733598206684
       -0.273831170675094        0.033651511866999       36.306310743796274

........................................................................
.............................. CYCLE  291 ..............................
........................................................................
     iter. time                 ...        0 min, 15.873 sec
          total energy        -132.589027263585848 Eh
            energy change       -0.19E-03 Eh
 
          gradient norm          0.020574897139963 Eh/a0
            max. gradient        0.011108042962337 Eh/a0
 
            step length          0.063090512495083 a0
            max. step            0.007584805935378 a0
 
       unit cell volume      10399.750074864783528 A^3
 
       current lattice:  
       47.991805097974677       -1.292894157955760       -0.009884808578354
      -23.770498693929003       40.920295212395139        0.627989980907512
       -0.272644017990044        0.030680028089174       36.305198102050547

........................................................................
.............................. CYCLE  292 ..............................
........................................................................
     iter. time                 ...        0 min, 15.591 sec
          total energy        -132.589252421307719 Eh
            energy change       -0.23E-03 Eh
 
          gradient norm          0.029441858166138 Eh/a0
            max. gradient        0.019174592527597 Eh/a0
 
            step length          0.200073023341093 a0
            max. step            0.011108042962337 a0
 
       unit cell volume      10397.919053698480639 A^3
 
       current lattice:  
       47.989415479681739       -1.300547881971234       -0.012139500314939
      -23.769146046475942       40.920677742708449        0.627481528641400
       -0.274315214037756        0.036487009770296       36.303781916986736

........................................................................
.............................. CYCLE  293 ..............................
........................................................................
     iter. time                 ...        0 min, 15.615 sec
          total energy        -132.589599758621432 Eh
            energy change       -0.35E-03 Eh
 
          gradient norm          0.024517022190209 Eh/a0
            max. gradient        0.011864841275550 Eh/a0
 
            step length          0.320788888450930 a0
            max. step            0.019174592527597 a0
 
       unit cell volume      10391.454506042238791 A^3
 
       current lattice:  
       47.980071674782884       -1.306649901560518       -0.009359370479746
      -23.757838365410180       40.909497822270474        0.634332810901052
       -0.276944535271981        0.034159703619049       36.300865924940162

........................................................................
.............................. CYCLE  294 ..............................
........................................................................
     iter. time                 ...        0 min, 15.828 sec
          total energy        -132.589863718415614 Eh
            energy change       -0.26E-03 Eh
 
          gradient norm          0.027638831008425 Eh/a0
            max. gradient        0.015784999470966 Eh/a0
 
            step length          0.131282326667832 a0
            max. step            0.011864841275550 a0
 
       unit cell volume      10391.206953356586382 A^3
 
       current lattice:  
       47.978474602219499       -1.309547172498561       -0.015639173365096
      -23.756733315883302       40.913896718825143        0.634569362609806
       -0.276613818145080        0.035499121690930       36.298584266043875

........................................................................
.............................. CYCLE  295 ..............................
........................................................................
     iter. time                 ...        0 min, 15.928 sec
          total energy        -132.590136858020372 Eh
            energy change       -0.27E-03 Eh
 
          gradient norm          0.027203329155761 Eh/a0
            max. gradient        0.014805836132005 Eh/a0
 
            step length          0.220615586311926 a0
            max. step            0.015784999470966 a0
 
       unit cell volume      10389.208809638155799 A^3
 
       current lattice:  
       47.975703255734672       -1.313343651788498       -0.011781668810866
      -23.754583481086765       40.907542988591999        0.635076245614889
       -0.277404321723750        0.037870012777853       36.301120552502724

........................................................................
.............................. CYCLE  296 ..............................
........................................................................
     iter. time                 ...        0 min, 15.781 sec
          total energy        -132.590157842288392 Eh
            energy change       -0.21E-04 Eh
 
          gradient norm          0.068719599087228 Eh/a0
            max. gradient        0.044134488999277 Eh/a0
 
            step length          0.137191544826461 a0
            max. step            0.014805836132005 a0
 
       unit cell volume      10387.386823140859633 A^3
 
       current lattice:  
       47.969032496764967       -1.311446268632861       -0.009142678000802
      -23.749714108086057       40.913435177357364        0.634933789532182
       -0.280028711193237        0.040524627626677       36.293630723719531

........................................................................
.............................. CYCLE  297 ..............................
........................................................................
     iter. time                 ...        0 min, 15.654 sec
          total energy        -132.590579524045523 Eh
            energy change       -0.42E-03 Eh
 
          gradient norm          0.042317559478905 Eh/a0
            max. gradient        0.019498158420007 Eh/a0
 
            step length          0.287474700461023 a0
            max. step            0.044134488999277 a0
 
       unit cell volume      10382.693618519784650 A^3
 
       current lattice:  
       47.963251266578844       -1.320422746261436       -0.019225292001738
      -23.739505011155021       40.900358033685535        0.642617401448493
       -0.282588285027523        0.041287901702743       36.297290468186326

........................................................................
.............................. CYCLE  298 ..............................
........................................................................
     iter. time                 ...        0 min, 15.656 sec
          total energy        -132.590509992829965 Eh
            energy change        0.70E-04 Eh
 
          gradient norm          0.063338945489091 Eh/a0
            max. gradient        0.030230637464972 Eh/a0
 
            step length          0.183156474275491 a0
            max. step            0.019498158420007 a0
 
       unit cell volume      10387.845998925969980 A^3
 
       current lattice:  
       47.970108778815849       -1.319046788417745       -0.016962322681966
      -23.750362183799353       40.910441220627824        0.628075419756210
       -0.271777656946845        0.036613283183762       36.300492008036912

........................................................................
.............................. CYCLE  299 ..............................
........................................................................
     iter. time                 ...        0 min, 16.088 sec
          total energy        -132.590840701344973 Eh
            energy change       -0.33E-03 Eh
 
          gradient norm          0.049514894005127 Eh/a0
            max. gradient        0.028043988822774 Eh/a0
 
            step length          0.059063388722191 a0
            max. step            0.030230637464972 a0
 
       unit cell volume      10389.485580970285810 A^3
 
       current lattice:  
       47.969345804191789       -1.312905297561012       -0.014289958206085
      -23.752184225914018       40.912495572043163        0.635129509755379
       -0.277373264330030        0.044415967282901       36.302371203818645

........................................................................
.............................. CYCLE  300 ..............................
........................................................................
     iter. time                 ...        0 min, 15.667 sec
          total energy        -132.590646675955981 Eh
            energy change        0.19E-03 Eh
 
          gradient norm          0.085050377232384 Eh/a0
            max. gradient        0.045715683357581 Eh/a0
 
            step length          0.199981725550986 a0
            max. step            0.028043988822774 a0
 
       unit cell volume      10381.269453827531834 A^3
 
       current lattice:  
       47.964260969097488       -1.323853124296204       -0.009914927634952
      -23.734339915710891       40.897755267779480        0.635711611958354
       -0.282711997711567        0.043867088187099       36.295268473555240

........................................................................
.............................. CYCLE  301 ..............................
........................................................................
     iter. time                 ...        0 min, 16.210 sec
          total energy        -132.591251710601540 Eh
            energy change       -0.61E-03 Eh
 
          gradient norm          0.028879785803608 Eh/a0
            max. gradient        0.012478935321417 Eh/a0
 
            step length          0.267719919689074 a0
            max. step            0.045715683357581 a0
 
       unit cell volume      10376.138016297749346 A^3
 
       current lattice:  
       47.954816306608073       -1.334668902464727       -0.019110289118245
      -23.730774348474029       40.894772216058421        0.643076004060102
       -0.282805747940015        0.040915536949746       36.292026615391094

........................................................................
.............................. CYCLE  302 ..............................
........................................................................
     iter. time                 ...        0 min, 15.813 sec
          total energy        -132.591441319973683 Eh
            energy change       -0.19E-03 Eh
 
          gradient norm          0.019206951140893 Eh/a0
            max. gradient        0.009365195803020 Eh/a0
 
            step length          0.305844935924174 a0
            max. step            0.012478935321417 a0
 
       unit cell volume      10385.784633912589925 A^3
 
       current lattice:  
       47.966235981359056       -1.319249771379556       -0.015988323828258
      -23.741166723251528       40.906102618986985        0.634280718071733
       -0.278511038349933        0.045026967864594       36.300170740487331

........................................................................
.............................. CYCLE  303 ..............................
........................................................................
     iter. time                 ...        0 min, 15.996 sec
          total energy        -132.591549986414321 Eh
            energy change       -0.11E-03 Eh
 
          gradient norm          0.033256879565020 Eh/a0
            max. gradient        0.016619215799987 Eh/a0
 
            step length          0.272423499942234 a0
            max. step            0.009365195803020 a0
 
       unit cell volume      10378.197853216144722 A^3
 
       current lattice:  
       47.957973710629147       -1.329825762601256       -0.018176817632832
      -23.735709106377072       40.896542152946196        0.642983724983711
       -0.283611320841445        0.042240781442983       36.293183260310087

........................................................................
.............................. CYCLE  304 ..............................
........................................................................
     iter. time                 ...        0 min, 15.755 sec
          total energy        -132.591690119568682 Eh
            energy change       -0.14E-03 Eh
 
          gradient norm          0.054252370502401 Eh/a0
            max. gradient        0.026541946988222 Eh/a0
 
            step length          0.201531954373375 a0
            max. step            0.016619215799987 a0
 
       unit cell volume      10378.251010683838103 A^3
 
       current lattice:  
       47.954455636382093       -1.337363201911760       -0.016422334271860
      -23.723816411517546       40.899156684086698        0.644969726084356
       -0.281710318638590        0.045039427319580       36.296818790814825

........................................................................
.............................. CYCLE  305 ..............................
........................................................................
     iter. time                 ...        0 min, 15.750 sec
          total energy        -132.592070287530049 Eh
            energy change       -0.38E-03 Eh
 
          gradient norm          0.031438558911569 Eh/a0
            max. gradient        0.015233077545229 Eh/a0
 
            step length          0.143513315826972 a0
            max. step            0.026541946988222 a0
 
       unit cell volume      10375.768258878135384 A^3
 
       current lattice:  
       47.949724156356723       -1.333442037289132       -0.022195661452558
      -23.726225437214833       40.893955634540823        0.641189043687057
       -0.280276916109537        0.050243561190430       36.294886878784062

........................................................................
.............................. CYCLE  306 ..............................
........................................................................
     iter. time                 ...        0 min, 15.810 sec
          total energy        -132.592239108612318 Eh
            energy change       -0.17E-03 Eh
 
          gradient norm          0.035357415374162 Eh/a0
            max. gradient        0.027191813586762 Eh/a0
 
            step length          0.135996661451570 a0
            max. step            0.015233077545229 a0
 
       unit cell volume      10376.235411110958012 A^3
 
       current lattice:  
       47.954991403017551       -1.337838908608959       -0.021445446635924
      -23.723496225084066       40.896196705596296        0.645249257588059
       -0.284344109032753        0.047417059952287       36.292296379750219

........................................................................
.............................. CYCLE  307 ..............................
........................................................................
     iter. time                 ...        0 min, 15.814 sec
          total energy        -132.592124952335865 Eh
            energy change        0.11E-03 Eh
 
          gradient norm          0.062764643272642 Eh/a0
            max. gradient        0.035112575919379 Eh/a0
 
            step length          0.054044180931574 a0
            max. step            0.027191813586762 a0
 
       unit cell volume      10374.069288975433665 A^3
 
       current lattice:  
       47.945994866088569       -1.338269579712535       -0.018415150121512
      -23.724539737988803       40.893360948190605        0.652366127648746
       -0.279665755671123        0.046213798706542       36.294388592372542

........................................................................
.............................. CYCLE  308 ..............................
........................................................................
     iter. time                 ...        0 min, 15.745 sec
          total energy        -132.592490765733743 Eh
            energy change       -0.37E-03 Eh
 
          gradient norm          0.027465205681761 Eh/a0
            max. gradient        0.018281836414359 Eh/a0
 
            step length          0.137107194252608 a0
            max. step            0.035112575919379 a0
 
       unit cell volume      10373.146155249649382 A^3
 
       current lattice:  
       47.944087952036860       -1.339748301135146       -0.022193215554914
      -23.719100589367688       40.892122754336420        0.645578514211776
       -0.284735419295664        0.049659983657596       36.294334316234398

........................................................................
.............................. CYCLE  309 ..............................
........................................................................
     iter. time                 ...        0 min, 15.998 sec
          total energy        -132.592451439893466 Eh
            energy change        0.39E-04 Eh
 
          gradient norm          0.049198510444617 Eh/a0
            max. gradient        0.034014937097130 Eh/a0
 
            step length          0.090821998438775 a0
            max. step            0.018281836414359 a0
 
       unit cell volume      10371.766361274269002 A^3
 
       current lattice:  
       47.948892547998526       -1.341214586969235       -0.024573335517601
      -23.714831342274351       40.888980242123033        0.651500408936420
       -0.276786437394233        0.053177346857722       36.289266139115426

........................................................................
.............................. CYCLE  310 ..............................
........................................................................
     iter. time                 ...        0 min, 15.944 sec
          total energy        -132.592776822872764 Eh
            energy change       -0.33E-03 Eh
 
          gradient norm          0.016668835751956 Eh/a0
            max. gradient        0.009193802597395 Eh/a0
 
            step length          0.164526028441257 a0
            max. step            0.034014937097130 a0
 
       unit cell volume      10375.961426033307362 A^3
 
       current lattice:  
       47.951636398824348       -1.336255934024657       -0.022670249024561
      -23.720994291560835       40.896326785435825        0.646409060736976
       -0.282066587004508        0.050473955276146       36.293088466000405

........................................................................
.............................. CYCLE  311 ..............................
........................................................................
     iter. time                 ...        0 min, 16.073 sec
          total energy        -132.592863221815691 Eh
            energy change       -0.86E-04 Eh
 
          gradient norm          0.022820298549961 Eh/a0
            max. gradient        0.013751876441862 Eh/a0
 
            step length          0.282684121692363 a0
            max. step            0.009193802597395 a0
 
       unit cell volume      10369.567993352760823 A^3
 
       current lattice:  
       47.942136136262903       -1.343712581180888       -0.024257277805519
      -23.711805510038417       40.886509970558770        0.653093522291353
       -0.282662799200520        0.050208986597777       36.289991657450223

........................................................................
.............................. CYCLE  312 ..............................
........................................................................
     iter. time                 ...        0 min, 15.788 sec
          total energy        -132.593038122603133 Eh
            energy change       -0.17E-03 Eh
 
          gradient norm          0.007807365093893 Eh/a0
            max. gradient        0.001679244409194 Eh/a0
 
            step length          0.246216205520720 a0
            max. step            0.013751876441862 a0
 
       unit cell volume      10375.591204190946883 A^3
 
       current lattice:  
       47.948711896288813       -1.335010356679452       -0.023330175829661
      -23.720197905272560       40.895259005588265        0.645632463540177
       -0.282684107061127        0.051465989133754       36.294449204084685

........................................................................
.............................. CYCLE  313 ..............................
........................................................................
     iter. time                 ...        0 min, 15.934 sec
          total energy        -132.593183217639847 Eh
            energy change       -0.15E-03 Eh
 
          gradient norm          0.011769119766122 Eh/a0
            max. gradient        0.005493576784988 Eh/a0
 
            step length          0.258797619240954 a0
            max. step            0.001679244409194 a0
 
       unit cell volume      10370.353500429378983 A^3
 
       current lattice:  
       47.941859554254364       -1.342991564631899       -0.023852761987594
      -23.712147760139771       40.888189090812183        0.651715853702693
       -0.284868556848409        0.052513913288335       36.291158538346295

........................................................................
.............................. CYCLE  314 ..............................
........................................................................
     iter. time                 ...        0 min, 15.684 sec
          total energy        -132.593331002388936 Eh
            energy change       -0.15E-03 Eh
 
          gradient norm          0.022160265246382 Eh/a0
            max. gradient        0.014641147080197 Eh/a0
 
            step length          0.291093660018317 a0
            max. step            0.005493576784988 a0
 
       unit cell volume      10378.159889370370365 A^3
 
       current lattice:  
       47.949383925020499       -1.326746295403734       -0.023134381025119
      -23.720558667671263       40.898461575827476        0.643077154999397
       -0.283638445271202        0.052055358764943       36.296355477770490

........................................................................
.............................. CYCLE  315 ..............................
........................................................................
     iter. time                 ...        0 min, 16.088 sec
          total energy        -132.593432941048803 Eh
            energy change       -0.10E-03 Eh
 
          gradient norm          0.037598516574072 Eh/a0
            max. gradient        0.023003305787019 Eh/a0
 
            step length          0.256221490405796 a0
            max. step            0.014641147080197 a0
 
       unit cell volume      10372.478688420223989 A^3
 
       current lattice:  
       47.941581149799724       -1.339558515796827       -0.027285344132560
      -23.715823883185699       40.891814400930798        0.647159223387331
       -0.284766402414644        0.059342585143490       36.294220556671732

........................................................................
.............................. CYCLE  316 ..............................
........................................................................
     iter. time                 ...        0 min, 16.088 sec
          total energy        -132.593687668054685 Eh
            energy change       -0.25E-03 Eh
 
          gradient norm          0.012214688007685 Eh/a0
            max. gradient        0.003784990481334 Eh/a0
 
            step length          0.122926957657972 a0
            max. step            0.023003305787019 a0
 
       unit cell volume      10372.724844374404711 A^3
 
       current lattice:  
       47.940142385277568       -1.336175262179747       -0.025578521035026
      -23.711157262529127       40.891962313467694        0.648858851145664
       -0.286388239617575        0.055910739118550       36.294367589561880

........................................................................
.............................. CYCLE  317 ..............................
........................................................................
     iter. time                 ...        0 min, 16.022 sec
          total energy        -132.593860627737570 Eh
            energy change       -0.17E-03 Eh
 
          gradient norm          0.017892176690039 Eh/a0
            max. gradient        0.011942643987506 Eh/a0
 
            step length          0.148386429915449 a0
            max. step            0.003784990481334 a0
 
       unit cell volume      10376.478331877762685 A^3
 
       current lattice:  
       47.943783092669413       -1.328821900813222       -0.026125320099682
      -23.718759019611802       40.896170310370110        0.643561478830297
       -0.284799589199527        0.059123905683699       36.297858381659573

........................................................................
.............................. CYCLE  318 ..............................
........................................................................
     iter. time                 ...        0 min, 15.754 sec
          total energy        -132.593946536670472 Eh
            energy change       -0.86E-04 Eh
 
          gradient norm          0.033468268444744 Eh/a0
            max. gradient        0.017546255906002 Eh/a0
 
            step length          0.166607407815979 a0
            max. step            0.011942643987506 a0
 
       unit cell volume      10374.510428665907966 A^3
 
       current lattice:  
       47.938039214078856       -1.331184839069978       -0.026438381360461
      -23.709382773797369       40.897090666278558        0.646339809902604
       -0.286010719657990        0.058715898177234       36.295382185947034

........................................................................
.............................. CYCLE  319 ..............................
........................................................................
     iter. time                 ...        0 min, 15.963 sec
          total energy        -132.594034948600125 Eh
            energy change       -0.88E-04 Eh
 
          gradient norm          0.054427163479340 Eh/a0
            max. gradient        0.034777659768559 Eh/a0
 
            step length          0.125079033230708 a0
            max. step            0.017546255906002 a0
 
       unit cell volume      10376.129309680236474 A^3
 
       current lattice:  
       47.940775445791402       -1.330291127339196       -0.029517109982566
      -23.712107271380823       40.891920709233922        0.646306672099729
       -0.286577707846255        0.058600068613902       36.303288495580205

........................................................................
.............................. CYCLE  320 ..............................
........................................................................
     iter. time                 ...        0 min, 16.021 sec
          total energy        -132.594229812574298 Eh
            energy change       -0.19E-03 Eh
 
          gradient norm          0.042037124498385 Eh/a0
            max. gradient        0.021729128613945 Eh/a0
 
            step length          0.127247367465977 a0
            max. step            0.034777659768559 a0
 
       unit cell volume      10378.831316373936716 A^3
 
       current lattice:  
       47.940945182915584       -1.323378999963675       -0.021831488034768
      -23.718338989276820       40.899156417712980        0.637325348571652
       -0.283064259732295        0.062701832267548       36.303164786791740

........................................................................
.............................. CYCLE  321 ..............................
........................................................................
     iter. time                 ...        0 min, 15.939 sec
          total energy        -132.594347970608851 Eh
            energy change       -0.12E-03 Eh
 
          gradient norm          0.047710257199859 Eh/a0
            max. gradient        0.023560511735848 Eh/a0
 
            step length          0.068286814669974 a0
            max. step            0.021729128613945 a0
 
       unit cell volume      10378.476713315274537 A^3
 
       current lattice:  
       47.938226173666436       -1.319967256714149       -0.026302409450839
      -23.714501080326823       40.899799007840031        0.645063126615839
       -0.289542733971046        0.067119464964172       36.301923714434587

........................................................................
.............................. CYCLE  322 ..............................
........................................................................
     iter. time                 ...        0 min, 16.149 sec
          total energy        -132.594478616964381 Eh
            energy change       -0.13E-03 Eh
 
          gradient norm          0.052825564799539 Eh/a0
            max. gradient        0.031909768494840 Eh/a0
 
            step length          0.095436289339733 a0
            max. step            0.023560511735848 a0
 
       unit cell volume      10375.315765715584348 A^3
 
       current lattice:  
       47.936681188167924       -1.325889783288956       -0.028467630275817
      -23.706806667185049       40.893679953572558        0.640388732884518
       -0.284428643148040        0.063799375589418       36.299977402251336

........................................................................
.............................. CYCLE  323 ..............................
........................................................................
     iter. time                 ...        0 min, 16.117 sec
          total energy        -132.594534096254506 Eh
            energy change       -0.55E-04 Eh
 
          gradient norm          0.053090432462186 Eh/a0
            max. gradient        0.030416044352565 Eh/a0
 
            step length          0.208035586970959 a0
            max. step            0.031909768494840 a0
 
       unit cell volume      10375.266026438132030 A^3
 
       current lattice:  
       47.933719589573840       -1.330387987805956       -0.030516121845631
      -23.706591954597677       40.896446787487172        0.646958803891932
       -0.285744979565080        0.060338476910964       36.301553570506343

........................................................................
.............................. CYCLE  324 ..............................
........................................................................
     iter. time                 ...        0 min, 15.889 sec
          total energy        -132.594759395736105 Eh
            energy change       -0.23E-03 Eh
 
          gradient norm          0.036262768370560 Eh/a0
            max. gradient        0.016085807843891 Eh/a0
 
            step length          0.057874511957576 a0
            max. step            0.030416044352565 a0
 
       unit cell volume      10372.873561011774655 A^3
 
       current lattice:  
       47.933347760195758       -1.329517767153656       -0.024399653231014
      -23.707464926443215       40.888257784913201        0.647324915096900
       -0.290305546947870        0.067355177409689       36.300569316898901

........................................................................
.............................. CYCLE  325 ..............................
........................................................................
     iter. time                 ...        0 min, 15.734 sec
          total energy        -132.594959158510193 Eh
            energy change       -0.20E-03 Eh
 
          gradient norm          0.011759738259422 Eh/a0
            max. gradient        0.004071108961732 Eh/a0
 
            step length          0.136631483421526 a0
            max. step            0.016085807843891 a0
 
       unit cell volume      10375.685899884550963 A^3
 
       current lattice:  
       47.934640742095098       -1.324859057244864       -0.026626595442091
      -23.709435939563470       40.894351095817107        0.643203405696624
       -0.287624981664027        0.066938108579731       36.301886796148644

........................................................................
.............................. CYCLE  326 ..............................
........................................................................
     iter. time                 ...        0 min, 15.924 sec
          total energy        -132.595020316498847 Eh
            energy change       -0.61E-04 Eh
 
          gradient norm          0.020455236218892 Eh/a0
            max. gradient        0.011192442470461 Eh/a0
 
            step length          0.274180309373549 a0
            max. step            0.004071108961732 a0
 
       unit cell volume      10370.291111209935480 A^3
 
       current lattice:  
       47.928159540610118       -1.330430006576717       -0.028954684920310
      -23.701491749487083       40.886195071865181        0.649211519075920
       -0.289326176096277        0.066778582983842       36.297661068382816

........................................................................
.............................. CYCLE  327 ..............................
........................................................................
     iter. time                 ...        0 min, 15.797 sec
          total energy        -132.595007666048247 Eh
            energy change        0.13E-04 Eh
 
          gradient norm          0.046581644571214 Eh/a0
            max. gradient        0.029572424973482 Eh/a0
 
            step length          0.210889212409285 a0
            max. step            0.011192442470461 a0
 
       unit cell volume      10376.946926026213987 A^3
 
       current lattice:  
       47.934635237116339       -1.325526033675687       -0.024548055097110
      -23.703957434971642       40.894607237370479        0.642636521485268
       -0.286714738304946        0.070139275109044       36.306271004330227

........................................................................
.............................. CYCLE  328 ..............................
........................................................................
     iter. time                 ...        0 min, 16.188 sec
          total energy        -132.595209448536593 Eh
            energy change       -0.20E-03 Eh
 
          gradient norm          0.020491962892108 Eh/a0
            max. gradient        0.010612257463484 Eh/a0
 
            step length          0.078320577522466 a0
            max. step            0.029572424973482 a0
 
       unit cell volume      10376.385918265497821 A^3
 
       current lattice:  
       47.935031131801900       -1.322240885747598       -0.029603417849551
      -23.710412762803337       40.895207260618825        0.642819440605902
       -0.287280866942925        0.067330344552612       36.302140507594380

........................................................................
.............................. CYCLE  329 ..............................
........................................................................
     iter. time                 ...        0 min, 15.726 sec
          total energy        -132.595383433128831 Eh
            energy change       -0.17E-03 Eh
 
          gradient norm          0.019162107047777 Eh/a0
            max. gradient        0.010687857576719 Eh/a0
 
            step length          0.229588821828730 a0
            max. step            0.010612257463484 a0
 
       unit cell volume      10372.653517188269689 A^3
 
       current lattice:  
       47.928382952290647       -1.325314020844526       -0.027968035434236
      -23.701935716131981       40.889269923003226        0.647653317866606
       -0.286737150259113        0.069398992814851       36.300744986044755

........................................................................
.............................. CYCLE  330 ..............................
........................................................................
     iter. time                 ...        0 min, 15.786 sec
          total energy        -132.595296558246758 Eh
            energy change        0.87E-04 Eh
 
          gradient norm          0.054505135803735 Eh/a0
            max. gradient        0.031283490357720 Eh/a0
 
            step length          0.082408638783782 a0
            max. step            0.010687857576719 a0
 
       unit cell volume      10373.622047666194703 A^3
 
       current lattice:  
       47.932999485603105       -1.327180352434225       -0.032545078680452
      -23.700719367065041       40.890354746848026        0.642549726997160
       -0.291655432434285        0.072854777036091       36.300475498096674

........................................................................
.............................. CYCLE  331 ..............................
........................................................................
     iter. time                 ...        0 min, 15.681 sec
          total energy        -132.595537065231127 Eh
            energy change       -0.24E-03 Eh
 
          gradient norm          0.029432051507507 Eh/a0
            max. gradient        0.016016998793652 Eh/a0
 
            step length          0.063822354537989 a0
            max. step            0.031283490357720 a0
 
       unit cell volume      10373.480675510114452 A^3
 
       current lattice:  
       47.927263722006899       -1.326792272478707       -0.027764621867429
      -23.703055789607962       40.890534832917801        0.645499213014197
       -0.290823192349131        0.070347280023421       36.304058495152475

........................................................................
.............................. CYCLE  332 ..............................
........................................................................
     iter. time                 ...        0 min, 15.882 sec
          total energy        -132.595632382935406 Eh
            energy change       -0.95E-04 Eh
 
          gradient norm          0.029875525581513 Eh/a0
            max. gradient        0.014849151163519 Eh/a0
 
            step length          0.117142018967372 a0
            max. step            0.016016998793652 a0
 
       unit cell volume      10372.494108565346323 A^3
 
       current lattice:  
       47.929432573943927       -1.324623867125023       -0.030162624577217
      -23.699613655398299       40.888207718407919        0.650148950688005
       -0.285645386961178        0.073460937851734       36.300051048731682

........................................................................
.............................. CYCLE  333 ..............................
........................................................................
     iter. time                 ...        0 min, 15.715 sec
          total energy        -132.595755010751191 Eh
            energy change       -0.12E-03 Eh
 
          gradient norm          0.025690190578512 Eh/a0
            max. gradient        0.012267785070068 Eh/a0
 
            step length          0.114994077819679 a0
            max. step            0.014849151163519 a0
 
       unit cell volume      10369.986087270681310 A^3
 
       current lattice:  
       47.921562482975446       -1.324932246495581       -0.030787891313281
      -23.694620921613829       40.884853240765118        0.647132619556013
       -0.288976008359168        0.075312285453419       36.300398750530405

........................................................................
.............................. CYCLE  334 ..............................
........................................................................
     iter. time                 ...        0 min, 16.042 sec
          total energy        -132.595873248835773 Eh
            energy change       -0.12E-03 Eh
 
          gradient norm          0.019721185332737 Eh/a0
            max. gradient        0.009950787485236 Eh/a0
 
            step length          0.090029831852640 a0
            max. step            0.012267785070068 a0
 
       unit cell volume      10369.480224140008431 A^3
 
       current lattice:  
       47.922615042425562       -1.329505401645970       -0.029085075135719
      -23.693132346172831       40.885341945157450        0.650599961646017
       -0.291607551237816        0.074043015857143       36.299356683525474

........................................................................
.............................. CYCLE  335 ..............................
........................................................................
     iter. time                 ...        0 min, 15.750 sec
          total energy        -132.595991472786409 Eh
            energy change       -0.12E-03 Eh
 
          gradient norm          0.016161325825261 Eh/a0
            max. gradient        0.007860458172491 Eh/a0
 
            step length          0.063980625772345 a0
            max. step            0.009950787485236 a0
 
       unit cell volume      10369.999050936605272 A^3
 
       current lattice:  
       47.921537594586646       -1.326857511903150       -0.029833051880032
      -23.696290369564590       40.884691107077138        0.649439812903159
       -0.289980569076291        0.076292494949272       36.301524642664653

........................................................................
.............................. CYCLE  336 ..............................
........................................................................
     iter. time                 ...        0 min, 15.721 sec
          total energy        -132.596034002775554 Eh
            energy change       -0.43E-04 Eh
 
          gradient norm          0.030601085502578 Eh/a0
            max. gradient        0.012890926370491 Eh/a0
 
            step length          0.136436924911859 a0
            max. step            0.007860458172491 a0
 
       unit cell volume      10368.222344066614824 A^3
 
       current lattice:  
       47.919597513189665       -1.326537340345533       -0.027257256138582
      -23.688534536484962       40.883001204844120        0.652160319665781
       -0.291646084540721        0.074077073364211       36.297943114423539

........................................................................
.............................. CYCLE  337 ..............................
........................................................................
     iter. time                 ...        0 min, 16.093 sec
          total energy        -132.596194113000962 Eh
            energy change       -0.16E-03 Eh
 
          gradient norm          0.012958947264727 Eh/a0
            max. gradient        0.005822605514989 Eh/a0
 
            step length          0.121896991231447 a0
            max. step            0.012890926370491 a0
 
       unit cell volume      10365.640856859261476 A^3
 
       current lattice:  
       47.914597679304372       -1.330390010618944       -0.029069008137360
      -23.687428413644664       40.879218919032944        0.653555215394133
       -0.291368977752898        0.078628191474012       36.297941777470456

........................................................................
.............................. CYCLE  338 ..............................
........................................................................
     iter. time                 ...        0 min, 16.113 sec
          total energy        -132.596323424094294 Eh
            energy change       -0.13E-03 Eh
 
          gradient norm          0.019372185750118 Eh/a0
            max. gradient        0.008872160212613 Eh/a0
 
            step length          0.122683572466982 a0
            max. step            0.005822605514989 a0
 
       unit cell volume      10368.429402869414844 A^3
 
       current lattice:  
       47.917884490036570       -1.324612778363760       -0.029200554647540
      -23.688753519230225       40.882440820750141        0.653087757563158
       -0.290310281786377        0.077756693599402       36.299709491473351

........................................................................
.............................. CYCLE  339 ..............................
........................................................................
     iter. time                 ...        0 min, 16.024 sec
          total energy        -132.596445274930772 Eh
            energy change       -0.12E-03 Eh
 
          gradient norm          0.011208348492203 Eh/a0
            max. gradient        0.004403977477441 Eh/a0
 
            step length          0.209535331810367 a0
            max. step            0.008872160212613 a0
 
       unit cell volume      10363.676277099815707 A^3
 
       current lattice:  
       47.910180430643308       -1.331332466915042       -0.029219875295184
      -23.683616855248086       40.875713458619551        0.655221312639301
       -0.292056128003512        0.081226872842945       36.297996689032651

........................................................................
.............................. CYCLE  340 ..............................
........................................................................
     iter. time                 ...        0 min, 15.874 sec
          total energy        -132.596571248447248 Eh
            energy change       -0.13E-03 Eh
 
          gradient norm          0.012144699703877 Eh/a0
            max. gradient        0.005022088997714 Eh/a0
 
            step length          0.084832079224311 a0
            max. step            0.004403977477441 a0
 
       unit cell volume      10364.614986278320430 A^3
 
       current lattice:  
       47.910836839353060       -1.328347707600823       -0.029817397662282
      -23.683228313913940       40.877012925462971        0.655853939963438
       -0.292187582020735        0.081857868605392       36.298279282731144

........................................................................
.............................. CYCLE  341 ..............................
........................................................................
     iter. time                 ...        0 min, 15.664 sec
          total energy        -132.596612154109891 Eh
            energy change       -0.41E-04 Eh
 
          gradient norm          0.033405755930031 Eh/a0
            max. gradient        0.022442962602164 Eh/a0
 
            step length          0.220097113359039 a0
            max. step            0.005022088997714 a0
 
       unit cell volume      10360.326510352650075 A^3
 
       current lattice:  
       47.904175341106708       -1.334425653517830       -0.031547590389616
      -23.677198971101205       40.867045878925197        0.658306235672527
       -0.293885353159788        0.083834340773518       36.299989450914936

........................................................................
.............................. CYCLE  342 ..............................
........................................................................
     iter. time                 ...        0 min, 15.645 sec
          total energy        -132.596730568731971 Eh
            energy change       -0.12E-03 Eh
 
          gradient norm          0.047328663370454 Eh/a0
            max. gradient        0.027370349140216 Eh/a0
 
            step length          0.130122138818785 a0
            max. step            0.022442962602164 a0
 
       unit cell volume      10361.160435897681964 A^3
 
       current lattice:  
       47.903084172022957       -1.331260513487500       -0.028174148619140
      -23.679144055147436       40.874864919342933        0.655126897438985
       -0.292454288561939        0.088177403886332       36.295375834672264

........................................................................
.............................. CYCLE  343 ..............................
........................................................................
     iter. time                 ...        0 min, 15.969 sec
          total energy        -132.596895734255128 Eh
            energy change       -0.17E-03 Eh
 
          gradient norm          0.032825318255338 Eh/a0
            max. gradient        0.017432100321115 Eh/a0
 
            step length          0.156332656670582 a0
            max. step            0.027370349140216 a0
 
       unit cell volume      10359.092914263634157 A^3
 
       current lattice:  
       47.899025959184989       -1.331980489993281       -0.032562321647393
      -23.671641980855316       40.869614142229267        0.664005548605235
       -0.297452955077295        0.090121187517797       36.296202609172980

........................................................................
.............................. CYCLE  344 ..............................
........................................................................
     iter. time                 ...        0 min, 15.814 sec
          total energy        -132.597016186796537 Eh
            energy change       -0.12E-03 Eh
 
          gradient norm          0.039202555798634 Eh/a0
            max. gradient        0.021321943435294 Eh/a0
 
            step length          0.147168718391623 a0
            max. step            0.017432100321115 a0
 
       unit cell volume      10360.158518417738378 A^3
 
       current lattice:  
       47.901260002761724       -1.329068213111716       -0.032806784449599
      -23.673526904879022       40.867589274688655        0.655843788301065
       -0.292578437861986        0.088847319488217       36.298754902615755

........................................................................
.............................. CYCLE  345 ..............................
........................................................................
     iter. time                 ...        0 min, 15.658 sec
          total energy        -132.596894098896882 Eh
            energy change        0.12E-03 Eh
 
          gradient norm          0.075103447239718 Eh/a0
            max. gradient        0.045421902441612 Eh/a0
 
            step length          0.277234755718096 a0
            max. step            0.021321943435294 a0
 
       unit cell volume      10361.315298090414217 A^3
 
       current lattice:  
       47.897911777183083       -1.328294291077657       -0.033144213212347
      -23.673645216795258       40.869325648232554        0.659646637143512
       -0.292587800946377        0.088388087289889       36.303478844764349

........................................................................
.............................. CYCLE  346 ..............................
........................................................................
     iter. time                 ...        0 min, 15.790 sec
          total energy        -132.597163778325012 Eh
            energy change       -0.27E-03 Eh
 
          gradient norm          0.046288689272180 Eh/a0
            max. gradient        0.025724639442787 Eh/a0
 
            step length          0.085655742174109 a0
            max. step            0.045421902441612 a0
 
       unit cell volume      10356.742033900787646 A^3
 
       current lattice:  
       47.892950121680144       -1.330242221881786       -0.027046304883722
      -23.669477336524242       40.861818635177187        0.662163729507104
       -0.298901995926582        0.098784259146922       36.298959559472912

........................................................................
.............................. CYCLE  347 ..............................
........................................................................
     iter. time                 ...        0 min, 16.119 sec
          total energy        -132.597378928779960 Eh
            energy change       -0.22E-03 Eh
 
          gradient norm          0.034923025851909 Eh/a0
            max. gradient        0.019265466057466 Eh/a0
 
            step length          0.039442959461495 a0
            max. step            0.025724639442787 a0
 
       unit cell volume      10355.692046545338599 A^3
 
       current lattice:  
       47.891692789840818       -1.332921382884036       -0.035063562761508
      -23.663778381252243       40.864543288916643        0.663900307885069
       -0.295422926562413        0.095096727505501       36.294825036665209

........................................................................
.............................. CYCLE  348 ..............................
........................................................................
     iter. time                 ...        0 min, 16.243 sec
          total energy        -132.597506130442952 Eh
            energy change       -0.13E-03 Eh
 
          gradient norm          0.021524828518697 Eh/a0
            max. gradient        0.011286977204964 Eh/a0
 
            step length          0.208094753748264 a0
            max. step            0.019265466057466 a0
 
       unit cell volume      10360.264170304859363 A^3
 
       current lattice:  
       47.897284482867668       -1.322248305420153       -0.031114093962177
      -23.673386210437354       40.867135413955808        0.659819338338951
       -0.294939528346039        0.091124113563653       36.299587289353859

........................................................................
.............................. CYCLE  349 ..............................
........................................................................
     iter. time                 ...        0 min, 16.019 sec
          total energy        -132.597619455890310 Eh
            energy change       -0.11E-03 Eh
 
          gradient norm          0.027340060891896 Eh/a0
            max. gradient        0.017169164009942 Eh/a0
 
            step length          0.199420649898755 a0
            max. step            0.011286977204964 a0
 
       unit cell volume      10358.352792505775142 A^3
 
       current lattice:  
       47.892512412590605       -1.328073577815103       -0.031149837134313
      -23.665884661749534       40.864513398800050        0.660741192833171
       -0.295002305214168        0.096886984601149       36.301437978990712

........................................................................
.............................. CYCLE  350 ..............................
........................................................................
     iter. time                 ...        0 min, 15.996 sec
          total energy        -132.597728124222982 Eh
            energy change       -0.11E-03 Eh
 
          gradient norm          0.030494187171951 Eh/a0
            max. gradient        0.015343912815327 Eh/a0
 
            step length          0.364197654548114 a0
            max. step            0.017169164009942 a0
 
       unit cell volume      10351.830716903728899 A^3
 
       current lattice:  
       47.884781843030325       -1.331115472652750       -0.034860654341032
      -23.659849395895208       40.854368549788383        0.669157666583018
       -0.298619818376881        0.096991502955061       36.294937078577028

........................................................................
.............................. CYCLE  351 ..............................
........................................................................
     iter. time                 ...        0 min, 15.954 sec
          total energy        -132.597912787896661 Eh
            energy change       -0.18E-03 Eh
 
          gradient norm          0.011802325331234 Eh/a0
            max. gradient        0.004693859811258 Eh/a0
 
            step length          0.250120205033343 a0
            max. step            0.015343912815327 a0
 
       unit cell volume      10357.744578002890194 A^3
 
       current lattice:  
       47.889774852564841       -1.321766300801519       -0.031542167671299
      -23.664645389032621       40.862576617678904        0.662759579575958
       -0.295843550053305        0.097829020955909       36.300341457559789

........................................................................
.............................. CYCLE  352 ..............................
........................................................................
     iter. time                 ...        0 min, 15.801 sec
          total energy        -132.598042680103447 Eh
            energy change       -0.13E-03 Eh
 
          gradient norm          0.009297222017941 Eh/a0
            max. gradient        0.004102420658852 Eh/a0
 
            step length          0.225014788109003 a0
            max. step            0.004693859811258 a0
 
       unit cell volume      10354.448627994501294 A^3
 
       current lattice:  
       47.884371190317239       -1.325685524881747       -0.034170023317091
      -23.660105095501738       40.857814738383411        0.666018773641879
       -0.298012658305252        0.100313170167939       36.298946980978748

........................................................................
.............................. CYCLE  353 ..............................
........................................................................
     iter. time                 ...        0 min, 16.270 sec
          total energy        -132.598082925993594 Eh
            energy change       -0.40E-04 Eh
 
          gradient norm          0.035917075619633 Eh/a0
            max. gradient        0.020490602178988 Eh/a0
 
            step length          0.184968069649994 a0
            max. step            0.004102420658852 a0
 
       unit cell volume      10356.520749354212967 A^3
 
       current lattice:  
       47.885109525157240       -1.318140185730985       -0.029096276598520
      -23.657632391102492       40.858042968084661        0.667983016456615
       -0.295497814752397        0.100545572267559       36.301990700651565

........................................................................
.............................. CYCLE  354 ..............................
........................................................................
     iter. time                 ...        0 min, 15.704 sec
          total energy        -132.598238328317848 Eh
            energy change       -0.16E-03 Eh
 
          gradient norm          0.028423053864986 Eh/a0
            max. gradient        0.015765445205255 Eh/a0
 
            step length          0.140280312615594 a0
            max. step            0.020490602178988 a0
 
       unit cell volume      10355.899946070590886 A^3
 
       current lattice:  
       47.881997960279030       -1.316213189400504       -0.034534785855852
      -23.656654113027582       40.857230466065047        0.663157114237490
       -0.300253103040006        0.104900261632199       36.302149231129306

........................................................................
.............................. CYCLE  355 ..............................
........................................................................
     iter. time                 ...        0 min, 16.077 sec
          total energy        -132.598364016657257 Eh
            energy change       -0.13E-03 Eh
 
          gradient norm          0.027168310834285 Eh/a0
            max. gradient        0.022829171393927 Eh/a0
 
            step length          0.241041709587452 a0
            max. step            0.015765445205255 a0
 
       unit cell volume      10352.082031319356247 A^3
 
       current lattice:  
       47.871952422207173       -1.320358957435340       -0.034604509888315
      -23.651977092513796       40.852251893448255        0.669542996911589
       -0.299186485801215        0.106491485659353       36.302773314114589

........................................................................
.............................. CYCLE  356 ..............................
........................................................................
     iter. time                 ...        0 min, 15.940 sec
          total energy        -132.598356194013149 Eh
            energy change        0.78E-05 Eh
 
          gradient norm          0.047163024964408 Eh/a0
            max. gradient        0.036676742864041 Eh/a0
 
            step length          0.079898982785760 a0
            max. step            0.022829171393927 a0
 
       unit cell volume      10354.062642213435538 A^3
 
       current lattice:  
       47.881479328833251       -1.321994997545833       -0.034651841032280
      -23.652614219068429       40.852154520265429        0.668712527716311
       -0.299260060502008        0.108299146557228       36.303238234341805

........................................................................
.............................. CYCLE  357 ..............................
........................................................................
     iter. time                 ...        0 min, 15.871 sec
          total energy        -132.598567000640628 Eh
            energy change       -0.21E-03 Eh
 
          gradient norm          0.024507436631132 Eh/a0
            max. gradient        0.014750454109762 Eh/a0
 
            step length          0.079448487681604 a0
            max. step            0.036676742864041 a0
 
       unit cell volume      10353.930310349018328 A^3
 
       current lattice:  
       47.875536633991487       -1.313455833869023       -0.033872421542822
      -23.649332084736681       40.851473530591981        0.668068378168967
       -0.299685554708389        0.108149479414135       36.304070244400492

........................................................................
.............................. CYCLE  358 ..............................
........................................................................
     iter. time                 ...        0 min, 15.826 sec
          total energy        -132.598658548236614 Eh
            energy change       -0.92E-04 Eh
 
          gradient norm          0.019776882183473 Eh/a0
            max. gradient        0.008877053138639 Eh/a0
 
            step length          0.073271905189290 a0
            max. step            0.014750454109762 a0
 
       unit cell volume      10354.746347132844676 A^3
 
       current lattice:  
       47.874483148683048       -1.315057112334123       -0.035540441092792
      -23.654760319401152       40.854389183671707        0.667091761745270
       -0.300753026082015        0.108211421764604       36.305966239401862

........................................................................
.............................. CYCLE  359 ..............................
........................................................................
     iter. time                 ...        0 min, 15.794 sec
          total energy        -132.598841853913939 Eh
            energy change       -0.18E-03 Eh
 
          gradient norm          0.009754201338098 Eh/a0
            max. gradient        0.005751891199618 Eh/a0
 
            step length          0.273347075690363 a0
            max. step            0.008877053138639 a0
 
       unit cell volume      10351.192727744524746 A^3
 
       current lattice:  
       47.867809375911854       -1.317494989993836       -0.036196247242195
      -23.646116623432583       40.847360047075007        0.670914460247683
       -0.301208245275635        0.111467602670844       36.305934893490871

........................................................................
.............................. CYCLE  360 ..............................
........................................................................
     iter. time                 ...        0 min, 15.556 sec
          total energy        -132.598947554902338 Eh
            energy change       -0.11E-03 Eh
 
          gradient norm          0.020455890667330 Eh/a0
            max. gradient        0.010590879247551 Eh/a0
 
            step length          0.142809300286284 a0
            max. step            0.005751891199618 a0
 
       unit cell volume      10350.472204339086602 A^3
 
       current lattice:  
       47.864947075318184       -1.315616184750234       -0.036116788325208
      -23.646192877440726       40.846537590391854        0.670989353462380
       -0.303630302997698        0.112431195568174       36.305536625785173

........................................................................
.............................. CYCLE  361 ..............................
........................................................................
     iter. time                 ...        0 min, 15.762 sec
          total energy        -132.599067327497067 Eh
            energy change       -0.12E-03 Eh
 
          gradient norm          0.019918824305916 Eh/a0
            max. gradient        0.012106038114780 Eh/a0
 
            step length          0.236342682060280 a0
            max. step            0.010590879247551 a0
 
       unit cell volume      10348.203680649692615 A^3
 
       current lattice:  
       47.858588076591317       -1.315315747939220       -0.037455460901346
      -23.639257251807223       40.840373891309682        0.673969214889924
       -0.301061676752294        0.117950701717710       36.307845359774561

........................................................................
.............................. CYCLE  362 ..............................
........................................................................
     iter. time                 ...        0 min, 15.726 sec
          total energy        -132.599183054899299 Eh
            energy change       -0.12E-03 Eh
 
          gradient norm          0.019276953675091 Eh/a0
            max. gradient        0.009920828003098 Eh/a0
 
            step length          0.257123632350158 a0
            max. step            0.012106038114780 a0
 
       unit cell volume      10344.138454804577123 A^3
 
       current lattice:  
       47.851443949814374       -1.321366262658517       -0.037101908564726
      -23.631745245198267       40.835369083746883        0.677829228296702
       -0.307678260048428        0.116627421759942       36.306111107904115

........................................................................
.............................. CYCLE  363 ..............................
........................................................................
     iter. time                 ...        0 min, 15.921 sec
          total energy        -132.599345875924371 Eh
            energy change       -0.16E-03 Eh
 
          gradient norm          0.011257882637059 Eh/a0
            max. gradient        0.004165766221366 Eh/a0
 
            step length          0.114223876222658 a0
            max. step            0.009920828003098 a0
 
       unit cell volume      10345.817254449202665 A^3
 
       current lattice:  
       47.851954763783056       -1.315891392848383       -0.037605562767894
      -23.635313024059386       40.835866400591819        0.675411066335736
       -0.304696181530161        0.119303992957929       36.308844746718052

........................................................................
.............................. CYCLE  364 ..............................
........................................................................
     iter. time                 ...        0 min, 16.088 sec
          total energy        -132.599443505173639 Eh
            energy change       -0.98E-04 Eh
 
          gradient norm          0.018832009916568 Eh/a0
            max. gradient        0.010456014239790 Eh/a0
 
            step length          0.237277454550087 a0
            max. step            0.004165766221366 a0
 
       unit cell volume      10342.596806951904000 A^3
 
       current lattice:  
       47.846468171049793       -1.320358541512994       -0.038131752748871
      -23.627951501790925       40.832469654343818        0.680962821592605
       -0.307212351727388        0.120856300512080       36.306695440529801

........................................................................
.............................. CYCLE  365 ..............................
........................................................................
     iter. time                 ...        0 min, 16.077 sec
          total energy        -132.599450730688062 Eh
            energy change       -0.72E-05 Eh
 
          gradient norm          0.047427835243201 Eh/a0
            max. gradient        0.027804557327340 Eh/a0
 
            step length          0.157164133972713 a0
            max. step            0.010456014239790 a0
 
       unit cell volume      10344.959466774889734 A^3
 
       current lattice:  
       47.846456438858581       -1.315659989515584       -0.037725834117972
      -23.628579397135464       40.828592224925742        0.676053309870967
       -0.306796753435115        0.119386560846286       36.316381426422467

........................................................................
.............................. CYCLE  366 ..............................
........................................................................
     iter. time                 ...        0 min, 15.636 sec
          total energy        -132.599666797259914 Eh
            energy change       -0.22E-03 Eh
 
          gradient norm          0.023264003127766 Eh/a0
            max. gradient        0.014034839136517 Eh/a0
 
            step length          0.062259705816651 a0
            max. step            0.027804557327340 a0
 
       unit cell volume      10345.654541096197136 A^3
 
       current lattice:  
       47.846509588814975       -1.313877972107965       -0.035525171645601
      -23.632416842863510       40.832673772682618        0.673291146802844
       -0.304414817725904        0.120043382249630       36.314382741341412

........................................................................
.............................. CYCLE  367 ..............................
........................................................................
     iter. time                 ...        0 min, 15.897 sec
          total energy        -132.599741614777628 Eh
            energy change       -0.75E-04 Eh
 
          gradient norm          0.039772279569065 Eh/a0
            max. gradient        0.022033957586197 Eh/a0
 
            step length          0.126136013362376 a0
            max. step            0.014034839136517 a0
 
       unit cell volume      10346.747116776592520 A^3
 
       current lattice:  
       47.845638973101480       -1.310061807228909       -0.039040539183539
      -23.632694999483771       40.832634583724044        0.680181615723339
       -0.308910064043243        0.121371049191836       36.317288407839243

........................................................................
.............................. CYCLE  368 ..............................
........................................................................
     iter. time                 ...        0 min, 15.915 sec
          total energy        -132.599669676428675 Eh
            energy change        0.72E-04 Eh
 
          gradient norm          0.072218554166421 Eh/a0
            max. gradient        0.049719651334607 Eh/a0
 
            step length          0.304490189397231 a0
            max. step            0.022033957586197 a0
 
       unit cell volume      10338.315671789136104 A^3
 
       current lattice:  
       47.834837867871116       -1.320851079875154       -0.038159316827728
      -23.617811972429948       40.821000661735681        0.680643569906377
       -0.309254672979509        0.125911134034771       36.311048789761635

........................................................................
.............................. CYCLE  369 ..............................
........................................................................
     iter. time                 ...        0 min, 16.216 sec
          total energy        -132.599860296040021 Eh
            energy change       -0.19E-03 Eh
 
          gradient norm          0.050762593725721 Eh/a0
            max. gradient        0.030134910968201 Eh/a0
 
            step length          0.163013503510973 a0
            max. step            0.049719651334607 a0
 
       unit cell volume      10341.518022977186774 A^3
 
       current lattice:  
       47.833447763919075       -1.319631341562378       -0.037524272295388
      -23.618593242148677       40.822010527774118        0.678866276184979
       -0.308756711117490        0.118015136028713       36.321791873996553

........................................................................
.............................. CYCLE  370 ..............................
........................................................................
     iter. time                 ...        0 min, 16.327 sec
          total energy        -132.600088069595699 Eh
            energy change       -0.23E-03 Eh
 
          gradient norm          0.033948639258645 Eh/a0
            max. gradient        0.026987821380794 Eh/a0
 
            step length          0.290201386305519 a0
            max. step            0.030134910968201 a0
 
       unit cell volume      10346.443738919557291 A^3
 
       current lattice:  
       47.839486960561601       -1.310020372495680       -0.034380369929700
      -23.627888627264735       40.828414447998540        0.675520000597822
       -0.308834240997715        0.120950153718978       36.324602270887674

........................................................................
.............................. CYCLE  371 ..............................
........................................................................
     iter. time                 ...        0 min, 15.990 sec
          total energy        -132.600099484726229 Eh
            energy change       -0.11E-04 Eh
 
          gradient norm          0.040647729898168 Eh/a0
            max. gradient        0.019451493488022 Eh/a0
 
            step length          0.268305982447729 a0
            max. step            0.026987821380794 a0
 
       unit cell volume      10339.750032296446079 A^3
 
       current lattice:  
       47.834626141747329       -1.317713747999691       -0.042955369315552
      -23.619999638104915       40.819745506913314        0.682084287348791
       -0.309058803516564        0.118923457599217       36.315952083425863

........................................................................
.............................. CYCLE  372 ..............................
........................................................................
     iter. time                 ...        0 min, 15.798 sec
          total energy        -132.600251478676540 Eh
            energy change       -0.15E-03 Eh
 
          gradient norm          0.029706284739472 Eh/a0
            max. gradient        0.014679304227258 Eh/a0
 
            step length          0.082177081337652 a0
            max. step            0.019451493488022 a0
 
       unit cell volume      10339.921853223935614 A^3
 
       current lattice:  
       47.831085175209935       -1.319428232262391       -0.039697451735207
      -23.615538458569546       40.821978126152452        0.680867528811691
       -0.311078583556664        0.123591471795041       36.317980579484640

........................................................................
.............................. CYCLE  373 ..............................
........................................................................
     iter. time                 ...        0 min, 15.416 sec
          total energy        -132.600324147884407 Eh
            energy change       -0.73E-04 Eh
 
          gradient norm          0.034576342836616 Eh/a0
            max. gradient        0.021638586032825 Eh/a0
 
            step length          0.107758986432524 a0
            max. step            0.014679304227258 a0
 
       unit cell volume      10339.045835531002012 A^3
 
       current lattice:  
       47.829532446260316       -1.315794770524557       -0.035652322152103
      -23.617137022754097       40.814452304348016        0.683294431536366
       -0.312491535349227        0.123827322510873       36.321315187431196

........................................................................
.............................. CYCLE  374 ..............................
........................................................................
     iter. time                 ...        0 min, 15.878 sec
          total energy        -132.600518378339075 Eh
            energy change       -0.19E-03 Eh
 
          gradient norm          0.015268398999579 Eh/a0
            max. gradient        0.008742771719567 Eh/a0
 
            step length          0.187818689307328 a0
            max. step            0.021638586032825 a0
 
       unit cell volume      10343.562069953901300 A^3
 
       current lattice:  
       47.833567662633442       -1.309732486687483       -0.037875761253888
      -23.620233026296788       40.821684445193746        0.677960559934772
       -0.309046665322934        0.122383823653119       36.324865950507451

........................................................................
.............................. CYCLE  375 ..............................
........................................................................
     iter. time                 ...        0 min, 15.756 sec
          total energy        -132.600592328613033 Eh
            energy change       -0.74E-04 Eh
 
          gradient norm          0.019411064506983 Eh/a0
            max. gradient        0.010089832325097 Eh/a0
 
            step length          0.308660038207245 a0
            max. step            0.008742771719567 a0
 
       unit cell volume      10338.232746945450344 A^3
 
       current lattice:  
       47.825124432289854       -1.317450737386234       -0.037475028540742
      -23.612464186513666       40.814579152424422        0.681678487195504
       -0.314188004764724        0.124789277294063       36.322389729918150

........................................................................
.............................. CYCLE  376 ..............................
........................................................................
     iter. time                 ...        0 min, 15.873 sec
          total energy        -132.600674731703663 Eh
            energy change       -0.82E-04 Eh
 
          gradient norm          0.019429676058506 Eh/a0
            max. gradient        0.009076266980532 Eh/a0
 
            step length          0.105754415608276 a0
            max. step            0.010089832325097 a0
 
       unit cell volume      10340.351992145664553 A^3
 
       current lattice:  
       47.826633625043328       -1.314736937584234       -0.036299797116864
      -23.613777746353975       40.817727257682250        0.682136233255582
       -0.310946984161721        0.122356273783665       36.324598276791967

........................................................................
.............................. CYCLE  377 ..............................
........................................................................
     iter. time                 ...        0 min, 15.689 sec
          total energy        -132.600735798537698 Eh
            energy change       -0.61E-04 Eh
 
          gradient norm          0.036605391685976 Eh/a0
            max. gradient        0.020198666264482 Eh/a0
 
            step length          0.233564118653601 a0
            max. step            0.009076266980532 a0
 
       unit cell volume      10339.231461307976133 A^3
 
       current lattice:  
       47.823846860726093       -1.311087760343088       -0.038420957086447
      -23.607419762411759       40.812089527898486        0.680059285773480
       -0.314512613016713        0.124871732586684       36.326172046215035

........................................................................
.............................. CYCLE  378 ..............................
........................................................................
     iter. time                 ...        0 min, 15.675 sec
          total energy        -132.600862988120895 Eh
            energy change       -0.13E-03 Eh
 
          gradient norm          0.017802647921110 Eh/a0
            max. gradient        0.009714899260928 Eh/a0
 
            step length          0.053949206982936 a0
            max. step            0.020198666264482 a0
 
       unit cell volume      10339.198112093245072 A^3
 
       current lattice:  
       47.819969985913808       -1.311680354715472       -0.037968201676877
      -23.609577694593405       40.813616672442699        0.680263752306310
       -0.313794313726740        0.124373104907208       36.327973826312437

........................................................................
.............................. CYCLE  379 ..............................
........................................................................
     iter. time                 ...        0 min, 15.663 sec
          total energy        -132.600788302987354 Eh
            energy change        0.75E-04 Eh
 
          gradient norm          0.048219266418269 Eh/a0
            max. gradient        0.034461584125627 Eh/a0
 
            step length          0.116304808574767 a0
            max. step            0.009714899260928 a0
 
       unit cell volume      10339.399517265332179 A^3
 
       current lattice:  
       47.824799254955323       -1.316571560627395       -0.038102645796622
      -23.608992011590505       40.810512965767167        0.681367981804295
       -0.311726403308455        0.128451025241363       36.330000701390823

........................................................................
.............................. CYCLE  380 ..............................
........................................................................
     iter. time                 ...        0 min, 15.857 sec
          total energy        -132.601021733425682 Eh
            energy change       -0.23E-03 Eh
 
          gradient norm          0.021399578372932 Eh/a0
            max. gradient        0.011028888862649 Eh/a0
 
            step length          0.036626960955840 a0
            max. step            0.034461584125627 a0
 
       unit cell volume      10338.337068745233410 A^3
 
       current lattice:  
       47.819690463181516       -1.313525790716166       -0.035599756882710
      -23.604252793157098       40.811335589451026        0.684065194383693
       -0.312186653863688        0.125100292161907       36.327929443571747

........................................................................
.............................. CYCLE  381 ..............................
........................................................................
     iter. time                 ...        0 min, 15.700 sec
          total energy        -132.601064040233979 Eh
            energy change       -0.42E-04 Eh
 
          gradient norm          0.027790410032238 Eh/a0
            max. gradient        0.016499246423176 Eh/a0
 
            step length          0.108427715062020 a0
            max. step            0.011028888862649 a0
 
       unit cell volume      10337.363513282458371 A^3
 
       current lattice:  
       47.815444636847744       -1.313703147990712       -0.040767748187576
      -23.605702933472443       40.808434885006662        0.681875202210596
       -0.314356631498940        0.127313630105618       36.330582466976075

........................................................................
.............................. CYCLE  382 ..............................
........................................................................
     iter. time                 ...        0 min, 16.198 sec
          total energy        -132.601189740796400 Eh
            energy change       -0.13E-03 Eh
 
          gradient norm          0.009671498564942 Eh/a0
            max. gradient        0.004981558139329 Eh/a0
 
            step length          0.094341806490028 a0
            max. step            0.016499246423176 a0
 
       unit cell volume      10338.892198819292389 A^3
 
       current lattice:  
       47.818023348088730       -1.312930418308501       -0.036102587833744
      -23.606241926213066       40.811316663587320        0.681207956585795
       -0.313210850693623        0.126012743048570       36.330977357775332

........................................................................
.............................. CYCLE  383 ..............................
........................................................................
     iter. time                 ...        0 min, 15.910 sec
          total energy        -132.601183762758325 Eh
            energy change        0.60E-05 Eh
 
          gradient norm          0.020151326694360 Eh/a0
            max. gradient        0.008486330496510 Eh/a0
 
            step length          0.275674640077872 a0
            max. step            0.004981558139329 a0
 
       unit cell volume      10334.583293657033209 A^3
 
       current lattice:  
       47.810302182277340       -1.316524886011642       -0.039713820470101
      -23.598151532006931       40.804000975562012        0.687361365414012
       -0.313198276653135        0.128367403694965       36.329892386717461

........................................................................
.............................. CYCLE  384 ..............................
........................................................................
     iter. time                 ...        0 min, 16.130 sec
          total energy        -132.601308872126083 Eh
            energy change       -0.13E-03 Eh
 
          gradient norm          0.017455012093676 Eh/a0
            max. gradient        0.011219896506299 Eh/a0
 
            step length          0.146507639985113 a0
            max. step            0.008486330496510 a0
 
       unit cell volume      10337.221458381925913 A^3
 
       current lattice:  
       47.813562480370379       -1.313497247839312       -0.037381065836446
      -23.602307406069844       40.808047100709466        0.683788330656022
       -0.315932461395181        0.124794774804148       36.331657982971322

........................................................................
.............................. CYCLE  385 ..............................
........................................................................
     iter. time                 ...        0 min, 16.065 sec
          total energy        -132.601412044958380 Eh
            energy change       -0.10E-03 Eh
 
          gradient norm          0.013046546857052 Eh/a0
            max. gradient        0.008392507889480 Eh/a0
 
            step length          0.091835474543159 a0
            max. step            0.011219896506299 a0
 
       unit cell volume      10336.250476777535368 A^3
 
       current lattice:  
       47.810916412768393       -1.314909908479424       -0.035889452639832
      -23.599737491018058       40.805865740903400        0.683045209563329
       -0.312762499902082        0.126878187785342       36.332852459573388

........................................................................
.............................. CYCLE  386 ..............................
........................................................................
     iter. time                 ...        0 min, 15.841 sec
          total energy        -132.601482543159818 Eh
            energy change       -0.70E-04 Eh
 
          gradient norm          0.014239835190749 Eh/a0
            max. gradient        0.007850237928310 Eh/a0
 
            step length          0.067053982847005 a0
            max. step            0.008392507889480 a0
 
       unit cell volume      10336.703206168678662 A^3
 
       current lattice:  
       47.809878215467336       -1.313759099953816       -0.036660695331322
      -23.598995940135286       40.806172030981216        0.684834930017694
       -0.315881526677804        0.125461091321918       36.334422669151415

........................................................................
.............................. CYCLE  387 ..............................
........................................................................
     iter. time                 ...        0 min, 15.869 sec
          total energy        -132.601566290234928 Eh
            energy change       -0.84E-04 Eh
 
          gradient norm          0.007690706619498 Eh/a0
            max. gradient        0.003090710835172 Eh/a0
 
            step length          0.079138906239371 a0
            max. step            0.007850237928310 a0
 
       unit cell volume      10336.255040282714617 A^3
 
       current lattice:  
       47.807864154978461       -1.313729429478893       -0.035058883186946
      -23.597176218137445       40.804764042135588        0.682951807593518
       -0.314121855203714        0.126823052478613       36.335626497638131

........................................................................
.............................. CYCLE  388 ..............................
........................................................................
     iter. time                 ...        0 min, 15.504 sec
          total energy        -132.601627936982936 Eh
            energy change       -0.62E-04 Eh
 
          gradient norm          0.013512324286615 Eh/a0
            max. gradient        0.008640455386166 Eh/a0
 
            step length          0.057582836276796 a0
            max. step            0.003090710835172 a0
 
       unit cell volume      10336.345038764025958 A^3
 
       current lattice:  
       47.807060586481136       -1.313676339212666       -0.035516017992139
      -23.596301663816135       40.804227783534706        0.684132202586281
       -0.316302260867552        0.125613935807005       36.336989605044181

........................................................................
.............................. CYCLE  389 ..............................
........................................................................
     iter. time                 ...        0 min, 13.802 sec
          total energy        -132.601697672912479 Eh
            energy change       -0.70E-04 Eh
 
          gradient norm          0.016903254618562 Eh/a0
            max. gradient        0.009809148852768 Eh/a0
 
            step length          0.115560276792173 a0
            max. step            0.008640455386166 a0
 
       unit cell volume      10335.937650130941620 A^3
 
       current lattice:  
       47.804409298577291       -1.313455565038634       -0.033799828961777
      -23.594588721634519       40.803923184510246        0.683440384553805
       -0.313931781622975        0.127986729096402       36.337767531014080

........................................................................
.............................. CYCLE  390 ..............................
........................................................................
     iter. time                 ...        0 min, 14.121 sec
          total energy        -132.601696173855998 Eh
            energy change        0.15E-05 Eh
 
          gradient norm          0.036675303968301 Eh/a0
            max. gradient        0.025938508026670 Eh/a0
 
            step length          0.105016497859882 a0
            max. step            0.009809148852768 a0
 
       unit cell volume      10333.755529836756978 A^3
 
       current lattice:  
       47.801136900026357       -1.314924255976655       -0.034947889032723
      -23.589344233691577       40.796622769706943        0.681606177782412
       -0.316631324696480        0.127781900529926       36.339753235011656

........................................................................
.............................. CYCLE  391 ..............................
........................................................................
     iter. time                 ...        0 min, 13.976 sec
          total energy        -132.601823072203587 Eh
            energy change       -0.13E-03 Eh
 
          gradient norm          0.018109457707904 Eh/a0
            max. gradient        0.011527138598119 Eh/a0
 
            step length          0.057815034207271 a0
            max. step            0.025938508026670 a0
 
       unit cell volume      10335.185096880562924 A^3
 
       current lattice:  
       47.800858527198443       -1.314674332395998       -0.033567670236271
      -23.590240534215688       40.799961154200723        0.683924255982120
       -0.316430446026760        0.126230514522306       36.341857934186251

........................................................................
.............................. CYCLE  392 ..............................
........................................................................
     iter. time                 ...        0 min, 14.064 sec
          total energy        -132.601777533954618 Eh
            energy change        0.46E-04 Eh
 
          gradient norm          0.044369471430389 Eh/a0
            max. gradient        0.034494233594722 Eh/a0
 
            step length          0.093710663991462 a0
            max. step            0.011527138598119 a0
 
       unit cell volume      10332.685987149627181 A^3
 
       current lattice:  
       47.799008089408723       -1.314163125113418       -0.034601432021484
      -23.589895063479709       40.797676078710566        0.685943135410100
       -0.318495342556595        0.130194684395974       36.336408928977910

........................................................................
.............................. CYCLE  393 ..............................
........................................................................
     iter. time                 ...        0 min, 13.881 sec
          total energy        -132.601949827054767 Eh
            energy change       -0.17E-03 Eh
 
          gradient norm          0.017254213238631 Eh/a0
            max. gradient        0.012343265654361 Eh/a0
 
            step length          0.119537406370064 a0
            max. step            0.034494233594722 a0
 
       unit cell volume      10332.157510311433725 A^3
 
       current lattice:  
       47.794977477149025       -1.316459283798716       -0.033291643835811
      -23.584045332730259       40.794776606007566        0.685883255579191
       -0.315064174413448        0.131872843073032       36.341188433007844

........................................................................
.............................. CYCLE  394 ..............................
........................................................................
     iter. time                 ...        0 min, 13.978 sec
          total energy        -132.601881989189337 Eh
            energy change        0.68E-04 Eh
 
          gradient norm          0.039969754381522 Eh/a0
            max. gradient        0.024019308274028 Eh/a0
 
            step length          0.088203764016563 a0
            max. step            0.012343265654361 a0
 
       unit cell volume      10333.918844842422914 A^3
 
       current lattice:  
       47.797669283207199       -1.313047154673056       -0.032649100582728
      -23.590408719459983       40.797447971280093        0.681118091922162
       -0.316341755748740        0.124660047536064       36.341382446314277

........................................................................
.............................. CYCLE  395 ..............................
........................................................................
     iter. time                 ...        0 min, 13.927 sec
          total energy        -132.601987321710510 Eh
            energy change       -0.11E-03 Eh
 
          gradient norm          0.023394119821980 Eh/a0
            max. gradient        0.019094960694158 Eh/a0
 
            step length          0.030898886850539 a0
            max. step            0.024019308274028 a0
 
       unit cell volume      10334.947892587193564 A^3
 
       current lattice:  
       47.797382010143359       -1.313054377549916       -0.031600234125772
      -23.588653145316073       40.799319592512539        0.682932845286884
       -0.318890250953008        0.128819967801141       36.343557886126881

........................................................................
.............................. CYCLE  396 ..............................
........................................................................
     iter. time                 ...        0 min, 14.022 sec
          total energy        -132.602047109173014 Eh
            energy change       -0.60E-04 Eh
 
          gradient norm          0.027682074407731 Eh/a0
            max. gradient        0.014013406312098 Eh/a0
 
            step length          0.292367378985672 a0
            max. step            0.019094960694158 a0
 
       unit cell volume      10329.785368361521250 A^3
 
       current lattice:  
       47.790043324540925       -1.316997452665588       -0.032658707839590
      -23.582263870172063       40.789173662006895        0.689582041463269
       -0.315319040085538        0.130263999430499       36.341906392261123

........................................................................
.............................. CYCLE  397 ..............................
........................................................................
     iter. time                 ...        0 min, 14.043 sec
          total energy        -132.602058977737300 Eh
            energy change       -0.12E-04 Eh
 
          gradient norm          0.031500397050865 Eh/a0
            max. gradient        0.013850630936196 Eh/a0
 
            step length          0.053977800442799 a0
            max. step            0.014013406312098 a0
 
       unit cell volume      10330.566752388283930 A^3
 
       current lattice:  
       47.789226401542813       -1.318463416274309       -0.034805824387200
      -23.577801860079965       40.792874501206803        0.684713680052669
       -0.314933663374349        0.131166880169900       36.342490298497317

........................................................................
.............................. CYCLE  398 ..............................
........................................................................
     iter. time                 ...        0 min, 13.816 sec
          total energy        -132.602170177891139 Eh
            energy change       -0.11E-03 Eh
 
          gradient norm          0.015371493874279 Eh/a0
            max. gradient        0.007908019036015 Eh/a0
 
            step length          0.118678219011291 a0
            max. step            0.013850630936196 a0
 
       unit cell volume      10332.876664337973125 A^3
 
       current lattice:  
       47.790830789832754       -1.312135995834483       -0.029492362338120
      -23.583145600795540       40.792861806734692        0.683091014926230
       -0.315615864198561        0.131438453884681       36.346667151655403

........................................................................
.............................. CYCLE  399 ..............................
........................................................................
     iter. time                 ...        0 min, 13.965 sec
          total energy        -132.602232210445464 Eh
            energy change       -0.62E-04 Eh
 
          gradient norm          0.018134509029957 Eh/a0
            max. gradient        0.009672518835541 Eh/a0
 
            step length          0.123243058253754 a0
            max. step            0.007908019036015 a0
 
       unit cell volume      10330.804912689784032 A^3
 
       current lattice:  
       47.786217121575916       -1.316325265356457       -0.030749056001113
      -23.581584591169495       40.791106588141517        0.686849291994356
       -0.316545872015202        0.131030740095381       36.346377711767289

........................................................................
.............................. CYCLE  400 ..............................
........................................................................
     iter. time                 ...        0 min, 14.121 sec
          total energy        -132.602239508948401 Eh
            energy change       -0.73E-05 Eh
 
          gradient norm          0.035934377249847 Eh/a0
            max. gradient        0.024550297526077 Eh/a0
 
            step length          0.063382639190227 a0
            max. step            0.009672518835541 a0
 
       unit cell volume      10331.854176254464619 A^3
 
       current lattice:  
       47.790400450331397       -1.312304492329991       -0.029394671256286
      -23.577507168555123       40.789375341847972        0.686960093263975
       -0.317267937777686        0.130934756400190       36.346497992323975

........................................................................
.............................. CYCLE  401 ..............................
........................................................................
     iter. time                 ...        0 min, 13.976 sec
          total energy        -132.602375711225818 Eh
            energy change       -0.14E-03 Eh
 
          gradient norm          0.013196470017613 Eh/a0
            max. gradient        0.005936783577936 Eh/a0
 
            step length          0.052261354693325 a0
            max. step            0.024550297526077 a0
 
       unit cell volume      10331.426133592922270 A^3
 
       current lattice:  
       47.785506195375483       -1.312516182846474       -0.028643648089885
      -23.579239965750897       40.790209054710907        0.684048849369261
       -0.315649782257128        0.131740349001769       36.348157812494719

........................................................................
.............................. CYCLE  402 ..............................
........................................................................
     iter. time                 ...        0 min, 14.031 sec
          total energy        -132.602381598383943 Eh
            energy change       -0.59E-05 Eh
 
          gradient norm          0.036300325721089 Eh/a0
            max. gradient        0.024990822101619 Eh/a0
 
            step length          0.186074390277998 a0
            max. step            0.005936783577936 a0
 
       unit cell volume      10330.648905882195322 A^3
 
       current lattice:  
       47.785171470610422       -1.315988082882293       -0.027999187753670
      -23.578280903561129       40.785453677037090        0.683053985756727
       -0.317304679212020        0.135220139126768       36.351567456928336

........................................................................
.............................. CYCLE  403 ..............................
........................................................................
     iter. time                 ...        0 min, 13.880 sec
          total energy        -132.602567313251313 Eh
            energy change       -0.19E-03 Eh
 
          gradient norm          0.013253095289541 Eh/a0
            max. gradient        0.006031954554053 Eh/a0
 
            step length          0.158513343739218 a0
            max. step            0.024990822101619 a0
 
       unit cell volume      10329.169801497571825 A^3
 
       current lattice:  
       47.778175809633247       -1.314987621916578       -0.025526468754647
      -23.573576879643991       40.784921221290688        0.685866455672674
       -0.316738160553482        0.133763788198239       36.351660451700980

........................................................................
.............................. CYCLE  404 ..............................
........................................................................
     iter. time                 ...        0 min, 13.986 sec
          total energy        -132.602554876973954 Eh
            energy change        0.12E-04 Eh
 
          gradient norm          0.036803354477654 Eh/a0
            max. gradient        0.021275966536604 Eh/a0
 
            step length          0.083302355296559 a0
            max. step            0.006031954554053 a0
 
       unit cell volume      10329.995645648443315 A^3
 
       current lattice:  
       47.776809373732519       -1.310401629029981       -0.029263207183968
      -23.574647017012612       40.782645558316929        0.681973783272110
       -0.317531002327031        0.136988923828393       36.355722605981981

........................................................................
.............................. CYCLE  405 ..............................
........................................................................
     iter. time                 ...        0 min, 14.015 sec
          total energy        -132.602715462163758 Eh
            energy change       -0.16E-03 Eh
 
          gradient norm          0.015185615686076 Eh/a0
            max. gradient        0.006344930538559 Eh/a0
 
            step length          0.058597215523181 a0
            max. step            0.021275966536604 a0
 
       unit cell volume      10329.555279948050156 A^3
 
       current lattice:  
       47.775724155877761       -1.313191419296548       -0.022840515652179
      -23.573546844195885       40.782972278765861        0.681508482442076
       -0.317033205752243        0.136103373186266       36.355886354978331

........................................................................
.............................. CYCLE  406 ..............................
........................................................................
     iter. time                 ...        0 min, 13.735 sec
          total energy        -132.602828718253278 Eh
            energy change       -0.11E-03 Eh
 
          gradient norm          0.013486632246537 Eh/a0
            max. gradient        0.006219705927893 Eh/a0
 
            step length          0.242797013681720 a0
            max. step            0.006344930538559 a0
 
       unit cell volume      10327.624061873482788 A^3
 
       current lattice:  
       47.769801029920281       -1.313117720850208       -0.023845090549691
      -23.569225618656386       40.779167946856738        0.683002199405021
       -0.317754977840908        0.137651802739793       36.357010631825517

........................................................................
.............................. CYCLE  407 ..............................
........................................................................
     iter. time                 ...        0 min, 13.747 sec
          total energy        -132.602894544191628 Eh
            energy change       -0.66E-04 Eh
 
          gradient norm          0.012309942063581 Eh/a0
            max. gradient        0.006099188929622 Eh/a0
 
            step length          0.132189527900817 a0
            max. step            0.006219705927893 a0
 
       unit cell volume      10329.368362215722300 A^3
 
       current lattice:  
       47.771934435604123       -1.312433344127480       -0.021197610562987
      -23.572515343700555       40.781961679766106        0.680838114767807
       -0.315930800296386        0.137717568247411       36.358726504514401

........................................................................
.............................. CYCLE  408 ..............................
........................................................................
     iter. time                 ...        0 min, 14.012 sec
          total energy        -132.602973632988693 Eh
            energy change       -0.79E-04 Eh
 
          gradient norm          0.011467418743546 Eh/a0
            max. gradient        0.006013636195792 Eh/a0
 
            step length          0.239226929273508 a0
            max. step            0.006099188929622 a0
 
       unit cell volume      10327.121866807663537 A^3
 
       current lattice:  
       47.765624604335358       -1.312783570964389       -0.019310779459193
      -23.567371064652061       40.777451407359258        0.680649272506835
       -0.317696073320462        0.139535566375573       36.359833365458080

........................................................................
.............................. CYCLE  409 ..............................
........................................................................
     iter. time                 ...        0 min, 13.912 sec
          total energy        -132.603063734965076 Eh
            energy change       -0.90E-04 Eh
 
          gradient norm          0.012116572895644 Eh/a0
            max. gradient        0.005913557304501 Eh/a0
 
            step length          0.089111040974643 a0
            max. step            0.006013636195792 a0
 
       unit cell volume      10327.804956938189207 A^3
 
       current lattice:  
       47.765702878919683       -1.312464486710003       -0.018610527558747
      -23.568327083487880       40.777798559996221        0.680897869587602
       -0.317060277084410        0.139673259314906       36.361743954814791

........................................................................
.............................. CYCLE  410 ..............................
........................................................................
     iter. time                 ...        0 min, 14.214 sec
          total energy        -132.603148160011870 Eh
            energy change       -0.84E-04 Eh
 
          gradient norm          0.010941121880304 Eh/a0
            max. gradient        0.004080123660972 Eh/a0
 
            step length          0.115654861709226 a0
            max. step            0.005913557304501 a0
 
       unit cell volume      10327.354491255720859 A^3
 
       current lattice:  
       47.763654267068127       -1.311405214717366       -0.015796831418537
      -23.566291074580509       40.775941468807567        0.678785772441552
       -0.315816421628920        0.141655322457106       36.362913511043111

........................................................................
.............................. CYCLE  411 ..............................
........................................................................
     iter. time                 ...        0 min, 13.717 sec
          total energy        -132.603208835177639 Eh
            energy change       -0.61E-04 Eh
 
          gradient norm          0.018183013145108 Eh/a0
            max. gradient        0.010106510261065 Eh/a0
 
            step length          0.092933473655097 a0
            max. step            0.004080123660972 a0
 
       unit cell volume      10326.224721972517727 A^3
 
       current lattice:  
       47.758825990833806       -1.313672894163542       -0.015402210525623
      -23.563701023060073       40.774620207259083        0.680011619619794
       -0.317780845014736        0.140194644917805       36.364794506604390

........................................................................
.............................. CYCLE  412 ..............................
........................................................................
     iter. time                 ...        0 min, 14.147 sec
          total energy        -132.603275558799453 Eh
            energy change       -0.67E-04 Eh
 
          gradient norm          0.012413876055815 Eh/a0
            max. gradient        0.006920784822713 Eh/a0
 
            step length          0.104316652447688 a0
            max. step            0.010106510261065 a0
 
       unit cell volume      10326.439021905385744 A^3
 
       current lattice:  
       47.759589067946877       -1.310797709212138       -0.013772876143174
      -23.563132440411511       40.772642098311074        0.678157787724409
       -0.316477349844488        0.143887595962540       36.365499766848856

........................................................................
.............................. CYCLE  413 ..............................
........................................................................
     iter. time                 ...        0 min, 14.011 sec
          total energy        -132.603326568499853 Eh
            energy change       -0.51E-04 Eh
 
          gradient norm          0.013419882677315 Eh/a0
            max. gradient        0.007537638474876 Eh/a0
 
            step length          0.068776734404874 a0
            max. step            0.006920784822713 a0
 
       unit cell volume      10326.526453765191036 A^3
 
       current lattice:  
       47.756530065134051       -1.311294711139844       -0.012151816973887
      -23.561991523905665       40.772760694988207        0.677836572799104
       -0.316546660996862        0.143011820642234       36.368236926762087

........................................................................
.............................. CYCLE  414 ..............................
........................................................................
     iter. time                 ...        0 min, 14.157 sec
          total energy        -132.603359069829452 Eh
            energy change       -0.33E-04 Eh
 
          gradient norm          0.027598569665422 Eh/a0
            max. gradient        0.018239524360691 Eh/a0
 
            step length          0.130733801671349 a0
            max. step            0.007537638474876 a0
 
       unit cell volume      10323.968062232632292 A^3
 
       current lattice:  
       47.751939720105838       -1.312138716137286       -0.009721919066366
      -23.556894887756645       40.765848820149991        0.676069718959951
       -0.318906983960072        0.146620635163157       36.369335597736757

........................................................................
.............................. CYCLE  415 ..............................
........................................................................
     iter. time                 ...        0 min, 14.144 sec
          total energy        -132.603468855998585 Eh
            energy change       -0.11E-03 Eh
 
          gradient norm          0.012110543405354 Eh/a0
            max. gradient        0.007652522127567 Eh/a0
 
            step length          0.068207330906213 a0
            max. step            0.018239524360691 a0
 
       unit cell volume      10325.122996871368741 A^3
 
       current lattice:  
       47.751195153231627       -1.310962280356134       -0.009321826327429
      -23.557781655086838       40.767705267956224        0.676644854400256
       -0.316740208415683        0.147961433803838       36.371816198760442

........................................................................
.............................. CYCLE  416 ..............................
........................................................................
     iter. time                 ...        0 min, 14.175 sec
          total energy        -132.603431974337497 Eh
            energy change        0.37E-04 Eh
 
          gradient norm          0.038640001860186 Eh/a0
            max. gradient        0.020456874881186 Eh/a0
 
            step length          0.083197576656987 a0
            max. step            0.007652522127567 a0
 
       unit cell volume      10325.859668923096251 A^3
 
       current lattice:  
       47.751773165674784       -1.307970969730326       -0.006255571087291
      -23.561280922524222       40.767275883648274        0.670173934113827
       -0.317496292020467        0.143860389213641       36.372996348602172

........................................................................
.............................. CYCLE  417 ..............................
........................................................................
     iter. time                 ...        0 min, 13.808 sec
          total energy        -132.603576105520744 Eh
            energy change       -0.14E-03 Eh
 
          gradient norm          0.016147526609759 Eh/a0
            max. gradient        0.007334913379950 Eh/a0
 
            step length          0.209521046417336 a0
            max. step            0.020456874881186 a0
 
       unit cell volume      10324.486854056533048 A^3
 
       current lattice:  
       47.745303106299559       -1.309787729416401       -0.005042442294617
      -23.552711210286358       40.762894592427266        0.672180279066763
       -0.318444852837176        0.149310362541390       36.377831477121902

........................................................................
.............................. CYCLE  418 ..............................
........................................................................
     iter. time                 ...        0 min, 13.983 sec
          total energy        -132.603537755299044 Eh
            energy change        0.38E-04 Eh
 
          gradient norm          0.037711851813557 Eh/a0
            max. gradient        0.019774496013800 Eh/a0
 
            step length          0.110448796710294 a0
            max. step            0.007334913379950 a0
 
       unit cell volume      10324.632430191166350 A^3
 
       current lattice:  
       47.744594983028016       -1.309872265756787       -0.002179085707066
      -23.558124819806984       40.766667940720268        0.673026406942706
       -0.319598861976718        0.150360541975420       36.375649515371869

........................................................................
.............................. CYCLE  419 ..............................
........................................................................
     iter. time                 ...        0 min, 13.987 sec
          total energy        -132.603647455793975 Eh
            energy change       -0.11E-03 Eh
 
          gradient norm          0.019337189663573 Eh/a0
            max. gradient        0.012951113308286 Eh/a0
 
            step length          0.077831533805719 a0
            max. step            0.019774496013800 a0
 
       unit cell volume      10324.786771989485715 A^3
 
       current lattice:  
       47.745893469002951       -1.309882477538565       -0.003577245369026
      -23.555510353115437       40.762991713919632        0.671657545726557
       -0.314862108213592        0.149240486696175       36.378446199858075

........................................................................
.............................. CYCLE  420 ..............................
........................................................................
     iter. time                 ...        0 min, 13.752 sec
          total energy        -132.603693655025666 Eh
            energy change       -0.46E-04 Eh
 
          gradient norm          0.023045032868693 Eh/a0
            max. gradient        0.012373244011994 Eh/a0
 
            step length          0.093743785490391 a0
            max. step            0.012951113308286 a0
 
       unit cell volume      10325.167810206889044 A^3
 
       current lattice:  
       47.743893555139138       -1.309135139643969       -0.001431966394793
      -23.552131637056206       40.764151240495927        0.668163443791539
       -0.319257012359673        0.151941592736530       36.379887563980574

........................................................................
.............................. CYCLE  421 ..............................
........................................................................
     iter. time                 ...        0 min, 13.876 sec
          total energy        -132.603766165976253 Eh
            energy change       -0.73E-04 Eh
 
          gradient norm          0.024057970979302 Eh/a0
            max. gradient        0.013444558423256 Eh/a0
 
            step length          0.177997643801220 a0
            max. step            0.012373244011994 a0
 
       unit cell volume      10323.648099351183191 A^3
 
       current lattice:  
       47.737425582921276       -1.307427903583153        0.002834527477195
      -23.549635526627970       40.757577519425425        0.671043003650916
       -0.319659208371159        0.153148323613393       36.384686249292692

........................................................................
.............................. CYCLE  422 ..............................
........................................................................
     iter. time                 ...        0 min, 14.128 sec
          total energy        -132.603880743594772 Eh
            energy change       -0.11E-03 Eh
 
          gradient norm          0.018734797121779 Eh/a0
            max. gradient        0.010221741512929 Eh/a0
 
            step length          0.196509158980182 a0
            max. step            0.013444558423256 a0
 
       unit cell volume      10321.154367203074798 A^3
 
       current lattice:  
       47.731284625521120       -1.312330945904396        0.003691244194446
      -23.543929469538813       40.754386117717964        0.669233069027842
       -0.318904794825625        0.155240715645287       36.385623866495600

........................................................................
.............................. CYCLE  423 ..............................
........................................................................
     iter. time                 ...        0 min, 14.040 sec
          total energy        -132.603933328513790 Eh
            energy change       -0.53E-04 Eh
 
          gradient norm          0.018898226729227 Eh/a0
            max. gradient        0.012822468476053 Eh/a0
 
            step length          0.084698258071762 a0
            max. step            0.010221741512929 a0
 
       unit cell volume      10322.920902096386271 A^3
 
       current lattice:  
       47.734098572594924       -1.309809915698450        0.007878074761633
      -23.543327841175270       40.754048183059865        0.668783094891603
       -0.318480617037562        0.155008773918478       36.388809347764749

........................................................................
.............................. CYCLE  424 ..............................
........................................................................
     iter. time                 ...        0 min, 13.832 sec
          total energy        -132.604006474950950 Eh
            energy change       -0.73E-04 Eh
 
          gradient norm          0.018517033563113 Eh/a0
            max. gradient        0.010293043480020 Eh/a0
 
            step length          0.272503454454530 a0
            max. step            0.012822468476053 a0
 
       unit cell volume      10320.750901648543731 A^3
 
       current lattice:  
       47.723138731022289       -1.307263496251676        0.009276949282138
      -23.538071338113415       40.749101068479533        0.666386706228846
       -0.319070539697808        0.159929191158186       36.392934635790624

........................................................................
.............................. CYCLE  425 ..............................
........................................................................
     iter. time                 ...        0 min, 13.844 sec
          total energy        -132.604029008098507 Eh
            energy change       -0.23E-04 Eh
 
          gradient norm          0.028744882211944 Eh/a0
            max. gradient        0.013147665284006 Eh/a0
 
            step length          0.059471910165163 a0
            max. step            0.010293043480020 a0
 
       unit cell volume      10320.994165820213311 A^3
 
       current lattice:  
       47.723972388663185       -1.311467793738579        0.012207487800354
      -23.539562583365434       40.747409697042606        0.664804653168575
       -0.321023240676604        0.160845103913053       36.396593908341828

........................................................................
.............................. CYCLE  426 ..............................
........................................................................
     iter. time                 ...        0 min, 14.051 sec
          total energy        -132.604064182058579 Eh
            energy change       -0.35E-04 Eh
 
          gradient norm          0.030954263648726 Eh/a0
            max. gradient        0.019312116767675 Eh/a0
 
            step length          0.160541516372403 a0
            max. step            0.013147665284006 a0
 
       unit cell volume      10319.630414440433015 A^3
 
       current lattice:  
       47.717659452834738       -1.309195134934466        0.018247759178662
      -23.531794809025680       40.745982117558952        0.666101814586634
       -0.318923383655189        0.160316923462527       36.396730308704107

........................................................................
.............................. CYCLE  427 ..............................
........................................................................
     iter. time                 ...        0 min, 13.832 sec
          total energy        -132.604187239927711 Eh
            energy change       -0.12E-03 Eh
 
          gradient norm          0.014321737660061 Eh/a0
            max. gradient        0.006748420685146 Eh/a0
 
            step length          0.152640255802362 a0
            max. step            0.019312116767675 a0
 
       unit cell volume      10322.183189776440486 A^3
 
       current lattice:  
       47.722364129119846       -1.304911440061593        0.014750868041314
      -23.537473949943781       40.748635725494118        0.662551394609797
       -0.318833682295004        0.160492526639828       36.397908656173726

........................................................................
.............................. CYCLE  428 ..............................
........................................................................
     iter. time                 ...        0 min, 13.774 sec
          total energy        -132.604227667832049 Eh
            energy change       -0.40E-04 Eh
 
          gradient norm          0.011072232868944 Eh/a0
            max. gradient        0.004445255238633 Eh/a0
 
            step length          0.221708479005570 a0
            max. step            0.006748420685146 a0
 
       unit cell volume      10320.208051447019898 A^3
 
       current lattice:  
       47.716022672824010       -1.308200542020662        0.018449881815958
      -23.533433075013733       40.744303438625622        0.663506800514925
       -0.318863736526514        0.164033722422622       36.401207121687399

........................................................................
.............................. CYCLE  429 ..............................
........................................................................
     iter. time                 ...        0 min, 14.485 sec
          total energy        -132.604278591644260 Eh
            energy change       -0.51E-04 Eh
 
          gradient norm          0.008254305874761 Eh/a0
            max. gradient        0.003244995529811 Eh/a0
 
            step length          0.098971554405846 a0
            max. step            0.004445255238633 a0
 
       unit cell volume      10321.630650033290294 A^3
 
       current lattice:  
       47.717998854663939       -1.306529100535521        0.018797442097548
      -23.534899314526129       40.745967208816715        0.661462849770734
       -0.319378377182382        0.162765138804261       36.402439353488461

........................................................................
.............................. CYCLE  430 ..............................
........................................................................
     iter. time                 ...        0 min, 14.787 sec
          total energy        -132.604326543369751 Eh
            energy change       -0.48E-04 Eh
 
          gradient norm          0.006685776858132 Eh/a0
            max. gradient        0.002756635019339 Eh/a0
 
            step length          0.114017761616892 a0
            max. step            0.003244995529811 a0
 
       unit cell volume      10321.042566051435642 A^3
 
       current lattice:  
       47.715304809031842       -1.306099632399940        0.020511028587797
      -23.533021876161907       40.744135975353316        0.661121713520964
       -0.318727227001774        0.165393469261443       36.403912023526843

........................................................................
.............................. CYCLE  431 ..............................
........................................................................
     iter. time                 ...        0 min, 14.091 sec
          total energy        -132.604383243103257 Eh
            energy change       -0.57E-04 Eh
 
          gradient norm          0.010761940384094 Eh/a0
            max. gradient        0.006780734074780 Eh/a0
 
            step length          0.089508102018978 a0
            max. step            0.002756635019339 a0
 
       unit cell volume      10322.493470085251829 A^3
 
       current lattice:  
       47.716183874237409       -1.305073210166742        0.022693461504839
      -23.533914161764727       40.745142602500458        0.658294274886756
       -0.318898468662969        0.164009359411869       36.406951817506489

........................................................................
.............................. CYCLE  432 ..............................
........................................................................
     iter. time                 ...        0 min, 13.814 sec
          total energy        -132.604457691501494 Eh
            energy change       -0.74E-04 Eh
 
          gradient norm          0.008436397312931 Eh/a0
            max. gradient        0.004875479497460 Eh/a0
 
            step length          0.159678147193281 a0
            max. step            0.006780734074780 a0
 
       unit cell volume      10321.658098105868703 A^3
 
       current lattice:  
       47.711605873506613       -1.304460351795492        0.025430726352735
      -23.530988323139084       40.742592015497678        0.657380495216292
       -0.318450193982032        0.168439784711570       36.409581133094939

........................................................................
.............................. CYCLE  433 ..............................
........................................................................
     iter. time                 ...        0 min, 13.675 sec
          total energy        -132.604508045803044 Eh
            energy change       -0.50E-04 Eh
 
          gradient norm          0.008069934704331 Eh/a0
            max. gradient        0.004220113431818 Eh/a0
 
            step length          0.068440476366998 a0
            max. step            0.004875479497460 a0
 
       unit cell volume      10322.694244738804628 A^3
 
       current lattice:  
       47.712673679451321       -1.303678758653116        0.026940748357631
      -23.531384188949783       40.742872414088723        0.655794762967664
       -0.318477725357505        0.166959713444122       36.411775065667413

........................................................................
.............................. CYCLE  434 ..............................
........................................................................
     iter. time                 ...        0 min, 13.856 sec
          total energy        -132.604552182161058 Eh
            energy change       -0.44E-04 Eh
 
          gradient norm          0.012449554338926 Eh/a0
            max. gradient        0.005761573307964 Eh/a0
 
            step length          0.111295918671759 a0
            max. step            0.004220113431818 a0
 
       unit cell volume      10321.988847581798836 A^3
 
       current lattice:  
       47.707956961191520       -1.303337435351783        0.029068450768796
      -23.529727816784188       40.741599716432042        0.654866990638293
       -0.318356392563237        0.170184977659524       36.413946174106577

........................................................................
.............................. CYCLE  435 ..............................
........................................................................
     iter. time                 ...        0 min, 13.882 sec
          total energy        -132.604576609134739 Eh
            energy change       -0.24E-04 Eh
 
          gradient norm          0.023998406940749 Eh/a0
            max. gradient        0.012735625144413 Eh/a0
 
            step length          0.094776361737329 a0
            max. step            0.005761573307964 a0
 
       unit cell volume      10322.633683086387464 A^3
 
       current lattice:  
       47.711968224032525       -1.301853863073441        0.029267735172577
      -23.530150284489842       40.740579079708318        0.654616236246210
       -0.319023299793363        0.169206465471729       36.413364513828924

........................................................................
.............................. CYCLE  436 ..............................
........................................................................
     iter. time                 ...        0 min, 14.112 sec
          total energy        -132.604665352375918 Eh
            energy change       -0.89E-04 Eh
 
          gradient norm          0.021412809848184 Eh/a0
            max. gradient        0.014107126302448 Eh/a0
 
            step length          0.146127586113770 a0
            max. step            0.012735625144413 a0
 
       unit cell volume      10323.002855156186342 A^3
 
       current lattice:  
       47.704875549881045       -1.301977908759439        0.033000880939877
      -23.527972782218910       40.740411257778156        0.653380847383182
       -0.318939598710952        0.168488590847717       36.420286616481043

........................................................................
.............................. CYCLE  437 ..............................
........................................................................
     iter. time                 ...        0 min, 13.729 sec
          total energy        -132.604712220484458 Eh
            energy change       -0.47E-04 Eh
 
          gradient norm          0.019804762056317 Eh/a0
            max. gradient        0.010258816634164 Eh/a0
 
            step length          0.056910213675658 a0
            max. step            0.014107126302448 a0
 
       unit cell volume      10322.465654822886790 A^3
 
       current lattice:  
       47.704582183408128       -1.300609723438812        0.036364648357994
      -23.528638167332733       40.737973885395824        0.649952936209860
       -0.318783260402738        0.172626487121337       36.420276118608861

........................................................................
.............................. CYCLE  438 ..............................
........................................................................
     iter. time                 ...        0 min, 14.008 sec
          total energy        -132.604762677381302 Eh
            energy change       -0.50E-04 Eh
 
          gradient norm          0.021530640061673 Eh/a0
            max. gradient        0.013890599778000 Eh/a0
 
            step length          0.062885229585560 a0
            max. step            0.010258816634164 a0
 
       unit cell volume      10324.140675757780627 A^3
 
       current lattice:  
       47.705527043606800       -1.298668572884759        0.034174921489666
      -23.530163390745592       40.742590969111056        0.652216354092374
       -0.317437878002891        0.172452423759458       36.420445310207832

........................................................................
.............................. CYCLE  439 ..............................
........................................................................
     iter. time                 ...        0 min, 13.785 sec
          total energy        -132.604753113304895 Eh
            energy change        0.96E-05 Eh
 
          gradient norm          0.027964184462297 Eh/a0
            max. gradient        0.014137372790341 Eh/a0
 
            step length          0.323164812542553 a0
            max. step            0.013890599778000 a0
 
       unit cell volume      10319.592883696765057 A^3
 
       current lattice:  
       47.694628182143731       -1.300842424920973        0.039142703724819
      -23.523572967992671       40.732301592613140        0.652455422264021
       -0.321258653523407        0.172001326547087       36.422975897013124

........................................................................
.............................. CYCLE  440 ..............................
........................................................................
     iter. time                 ...        0 min, 13.988 sec
          total energy        -132.604810704691431 Eh
            energy change       -0.58E-04 Eh
 
          gradient norm          0.030074527246483 Eh/a0
            max. gradient        0.017375996925889 Eh/a0
 
            step length          0.221808933711227 a0
            max. step            0.014137372790341 a0
 
       unit cell volume      10323.269210959906559 A^3
 
       current lattice:  
       47.701730478287097       -1.299916916186109        0.038282843946089
      -23.525503150365449       40.736246920155587        0.650565873634464
       -0.319730399861349        0.174407198521384       36.426526203174980

........................................................................
.............................. CYCLE  441 ..............................
........................................................................
     iter. time                 ...        0 min, 13.782 sec
          total energy        -132.604853151097501 Eh
            energy change       -0.42E-04 Eh
 
          gradient norm          0.019649526233668 Eh/a0
            max. gradient        0.009805347501970 Eh/a0
 
            step length          0.163911184522043 a0
            max. step            0.017375996925889 a0
 
       unit cell volume      10325.806777031693855 A^3
 
       current lattice:  
       47.704507471569791       -1.296491651387913        0.041566311012600
      -23.534513039571436       40.742600549298793        0.646531524559363
       -0.317204106433899        0.172040799913558       36.426172845452136

........................................................................
.............................. CYCLE  442 ..............................
........................................................................
     iter. time                 ...        0 min, 14.115 sec
          total energy        -132.604947875225349 Eh
            energy change       -0.95E-04 Eh
 
          gradient norm          0.016361517596425 Eh/a0
            max. gradient        0.009887782362440 Eh/a0
 
            step length          0.211404358452414 a0
            max. step            0.009805347501970 a0
 
       unit cell volume      10323.382206146543467 A^3
 
       current lattice:  
       47.698532767232123       -1.297957752912563        0.041658535118431
      -23.526743810505117       40.737844880593215        0.646831215730859
       -0.318728420079688        0.174536311253650       36.427079326696926

........................................................................
.............................. CYCLE  443 ..............................
........................................................................
     iter. time                 ...        0 min, 13.719 sec
          total energy        -132.604867797468160 Eh
            energy change        0.80E-04 Eh
 
          gradient norm          0.041921931093271 Eh/a0
            max. gradient        0.026722208590843 Eh/a0
 
            step length          0.099218215039456 a0
            max. step            0.009887782362440 a0
 
       unit cell volume      10322.487021466386068 A^3
 
       current lattice:  
       47.693158852332481       -1.295266039429839        0.044343651859708
      -23.528984458389665       40.733403210986701        0.651946696441020
       -0.319218726124668        0.178121668304368       36.431043163161370

........................................................................
.............................. CYCLE  444 ..............................
........................................................................
     iter. time                 ...        0 min, 13.779 sec
          total energy        -132.605016848377488 Eh
            energy change       -0.15E-03 Eh
 
          gradient norm          0.012759560646838 Eh/a0
            max. gradient        0.006793214052584 Eh/a0
 
            step length          0.024923169965119 a0
            max. step            0.026722208590843 a0
 
       unit cell volume      10324.083087302225977 A^3
 
       current lattice:  
       47.696245698444940       -1.295731355850678        0.044953983625768
      -23.528242371869098       40.736088085378917        0.646485467289801
       -0.320172341080511        0.177259468042633       36.431989172759515

........................................................................
.............................. CYCLE  445 ..............................
........................................................................
     iter. time                 ...        0 min, 14.116 sec
          total energy        -132.605011784627010 Eh
            energy change        0.51E-05 Eh
 
          gradient norm          0.027869153902537 Eh/a0
            max. gradient        0.015590853480222 Eh/a0
 
            step length          0.110071066750150 a0
            max. step            0.006793214052584 a0
 
       unit cell volume      10321.955077712893399 A^3
 
       current lattice:  
       47.691051927219988       -1.297942510430574        0.043862664115852
      -23.524538371769911       40.732340730993464        0.646650053131070
       -0.316612808389680        0.177024182670352       36.432821022012391

........................................................................
.............................. CYCLE  446 ..............................
........................................................................
     iter. time                 ...        0 min, 13.995 sec
          total energy        -132.605108346599451 Eh
            energy change       -0.97E-04 Eh
 
          gradient norm          0.012296453566611 Eh/a0
            max. gradient        0.009078105503204 Eh/a0
 
            step length          0.105828681401259 a0
            max. step            0.015590853480222 a0
 
       unit cell volume      10322.385188912412559 A^3
 
       current lattice:  
       47.688830909463832       -1.294352757649058        0.047806527051087
      -23.522042867466475       40.731205171778818        0.645920652054090
       -0.319386388586256        0.179634464965310       36.435442885276096

........................................................................
.............................. CYCLE  447 ..............................
........................................................................
     iter. time                 ...        0 min, 13.924 sec
          total energy        -132.605026614963720 Eh
            energy change        0.82E-04 Eh
 
          gradient norm          0.042135494130893 Eh/a0
            max. gradient        0.027204320446426 Eh/a0
 
            step length          0.096673976810540 a0
            max. step            0.009078105503204 a0
 
       unit cell volume      10321.607543256945064 A^3
 
       current lattice:  
       47.684233729152893       -1.299016701575808        0.049985105486125
      -23.522280105073328       40.732164852968303        0.644691223545772
       -0.323247133831362        0.182107494729859       36.437510597457184

........................................................................
.............................. CYCLE  448 ..............................
........................................................................
     iter. time                 ...        0 min, 13.958 sec
          total energy        -132.605172234063900 Eh
            energy change       -0.15E-03 Eh
 
          gradient norm          0.018673854536321 Eh/a0
            max. gradient        0.009275487780418 Eh/a0
 
            step length          0.030154978653391 a0
            max. step            0.027204320446426 a0
 
       unit cell volume      10322.928376093561383 A^3
 
       current lattice:  
       47.686658519712680       -1.295123407930530        0.050117312697757
      -23.523721654997335       40.729770051692093        0.642865839318574
       -0.318997751136271        0.182209149097009       36.440757386138372

........................................................................
.............................. CYCLE  449 ..............................
........................................................................
     iter. time                 ...        0 min, 14.538 sec
          total energy        -132.605117575855388 Eh
            energy change        0.55E-04 Eh
 
          gradient norm          0.040019057674044 Eh/a0
            max. gradient        0.023784368457299 Eh/a0
 
            step length          0.064667337127350 a0
            max. step            0.009275487780418 a0
 
       unit cell volume      10323.223682197809467 A^3
 
       current lattice:  
       47.682172988538213       -1.290592244747787        0.055325437511119
      -23.518754724698077       40.730868364463959        0.640586795508039
       -0.319655937170291        0.181370881965523       36.442081569435778

........................................................................
.............................. CYCLE  450 ..............................
........................................................................
     iter. time                 ...        0 min, 15.316 sec
          total energy        -132.605270221214340 Eh
            energy change       -0.15E-03 Eh
 
          gradient norm          0.012484739236092 Eh/a0
            max. gradient        0.007093822522366 Eh/a0
 
            step length          0.241037197277492 a0
            max. step            0.023784368457299 a0
 
       unit cell volume      10321.568945004215493 A^3
 
       current lattice:  
       47.677058872063185       -1.292644960224823        0.057014123833290
      -23.515925769076350       40.725730937040396        0.641814294839084
       -0.323037043810728        0.185374652528345       36.445790040638258

........................................................................
.............................. CYCLE  451 ..............................
........................................................................
     iter. time                 ...        0 min, 13.971 sec
          total energy        -132.605303977159934 Eh
            energy change       -0.34E-04 Eh
 
          gradient norm          0.013920379315180 Eh/a0
            max. gradient        0.005801399576268 Eh/a0
 
            step length          0.113242648775088 a0
            max. step            0.007093822522366 a0
 
       unit cell volume      10323.162769657876197 A^3
 
       current lattice:  
       47.679481590177609       -1.290656297527877        0.055244910339226
      -23.519684619301959       40.728514784249789        0.639576709916335
       -0.319749347081389        0.185309211555620       36.446208539459683

........................................................................
.............................. CYCLE  452 ..............................
........................................................................
     iter. time                 ...        0 min, 13.893 sec
          total energy        -132.605334716047139 Eh
            energy change       -0.31E-04 Eh
 
          gradient norm          0.017529702108975 Eh/a0
            max. gradient        0.009246773189799 Eh/a0
 
            step length          0.097779587600245 a0
            max. step            0.005801399576268 a0
 
       unit cell volume      10322.555586098042113 A^3
 
       current lattice:  
       47.677131208133900       -1.292736609989468        0.059945620968190
      -23.517481138363504       40.725498484443939        0.639908962724568
       -0.320073049834846        0.185973534440121       36.449501466171682

........................................................................
.............................. CYCLE  453 ..............................
........................................................................
     iter. time                 ...        0 min, 14.055 sec
          total energy        -132.605380524311300 Eh
            energy change       -0.46E-04 Eh
 
          gradient norm          0.016617280410059 Eh/a0
            max. gradient        0.008522060874070 Eh/a0
 
            step length          0.067609247577177 a0
            max. step            0.009246773189799 a0
 
       unit cell volume      10322.318904627321899 A^3
 
       current lattice:  
       47.673095597409834       -1.289674513014001        0.057964920495941
      -23.516890893785526       40.724399593440857        0.637919993200916
       -0.322520387705381        0.187604200749495       36.451434774496740

........................................................................
.............................. CYCLE  454 ..............................
........................................................................
     iter. time                 ...        0 min, 13.861 sec
          total energy        -132.605454417864166 Eh
            energy change       -0.74E-04 Eh
 
          gradient norm          0.012082682357935 Eh/a0
            max. gradient        0.005956707437337 Eh/a0
 
            step length          0.186574019558179 a0
            max. step            0.008522060874070 a0
 
       unit cell volume      10321.055779686919777 A^3
 
       current lattice:  
       47.668396496659291       -1.290167934869305        0.062568296039651
      -23.512100323910687       40.721069764671590        0.639466785884718
       -0.322103673698172        0.190335938741961       36.453787882257160

........................................................................
.............................. CYCLE  455 ..............................
........................................................................
     iter. time                 ...        0 min, 13.904 sec
          total energy        -132.605508849189164 Eh
            energy change       -0.54E-04 Eh
 
          gradient norm          0.011964740847415 Eh/a0
            max. gradient        0.007953506266009 Eh/a0
 
            step length          0.086117839246289 a0
            max. step            0.005956707437337 a0
 
       unit cell volume      10322.065810839556434 A^3
 
       current lattice:  
       47.667514511650708       -1.289092654965701        0.063479130961880
      -23.513087393325311       40.721207655916530        0.638184264398532
       -0.323014469752896        0.188143802252177       36.457408685185747

........................................................................
.............................. CYCLE  456 ..............................
........................................................................
     iter. time                 ...        0 min, 14.015 sec
          total energy        -132.605547006944903 Eh
            energy change       -0.38E-04 Eh
 
          gradient norm          0.015174889660176 Eh/a0
            max. gradient        0.007636289983797 Eh/a0
 
            step length          0.137694847347218 a0
            max. step            0.007953506266009 a0
 
       unit cell volume      10320.826032519278669 A^3
 
       current lattice:  
       47.662500963940474       -1.289819501447940        0.066410764658159
      -23.510034336582649       40.717958710414216        0.636913975994056
       -0.322587033101301        0.192846566608590       36.460191406419945

........................................................................
.............................. CYCLE  457 ..............................
........................................................................
     iter. time                 ...        0 min, 13.872 sec
          total energy        -132.605597455842513 Eh
            energy change       -0.50E-04 Eh
 
          gradient norm          0.012053918795129 Eh/a0
            max. gradient        0.007532429647025 Eh/a0
 
            step length          0.044999674181389 a0
            max. step            0.007636289983797 a0
 
       unit cell volume      10321.042328202905992 A^3
 
       current lattice:  
       47.663428893690131       -1.288428647296499        0.066222990120335
      -23.509807632542650       40.717943026900237        0.638404248574053
       -0.323519454136529        0.191743083051496       36.459606707442511

........................................................................
.............................. CYCLE  458 ..............................
........................................................................
     iter. time                 ...        0 min, 13.848 sec
          total energy        -132.605622445513490 Eh
            energy change       -0.25E-04 Eh
 
          gradient norm          0.019928184476329 Eh/a0
            max. gradient        0.014139526308617 Eh/a0
 
            step length          0.153871345142954 a0
            max. step            0.007532429647025 a0
 
       unit cell volume      10320.181119863533240 A^3
 
       current lattice:  
       47.656473395320305       -1.289622781069233        0.068101642041946
      -23.506034740427580       40.715425243620665        0.639711724923508
       -0.324078942774740        0.191775467028362       36.464699844982093

........................................................................
.............................. CYCLE  459 ..............................
........................................................................
     iter. time                 ...        0 min, 13.839 sec
          total energy        -132.605693807470630 Eh
            energy change       -0.71E-04 Eh
 
          gradient norm          0.015455340979311 Eh/a0
            max. gradient        0.007587849437643 Eh/a0
 
            step length          0.120652013556987 a0
            max. step            0.014139526308617 a0
 
       unit cell volume      10320.517450741521316 A^3
 
       current lattice:  
       47.657799767757965       -1.288282002320138        0.067370003338736
      -23.508800127134535       40.715598156153455        0.636259732745312
       -0.324701934069985        0.193392645241730       36.464179838642096

........................................................................
.............................. CYCLE  460 ..............................
........................................................................
     iter. time                 ...        0 min, 13.956 sec
          total energy        -132.605724805244620 Eh
            energy change       -0.31E-04 Eh
 
          gradient norm          0.016372877939619 Eh/a0
            max. gradient        0.011563100285881 Eh/a0
 
            step length          0.068084276204750 a0
            max. step            0.007587849437643 a0
 
       unit cell volume      10320.816975504887523 A^3
 
       current lattice:  
       47.656289953723928       -1.288259305538227        0.068073395217995
      -23.506473874245302       40.716945161920613        0.639373149581679
       -0.324053412394961        0.193831139698009       36.465138309685386

........................................................................
.............................. CYCLE  461 ..............................
........................................................................
     iter. time                 ...        0 min, 13.800 sec
          total energy        -132.605779663646274 Eh
            energy change       -0.55E-04 Eh
 
          gradient norm          0.016403700820732 Eh/a0
            max. gradient        0.008575535039668 Eh/a0
 
            step length          0.093224332486919 a0
            max. step            0.011563100285881 a0
 
       unit cell volume      10319.025468482799624 A^3
 
       current lattice:  
       47.653290503402673       -1.288557519791021        0.070676900221969
      -23.505290506877625       40.712454766906284        0.638298109393741
       -0.323818737735008        0.193872679510684       36.465314521513179

........................................................................
.............................. CYCLE  462 ..............................
........................................................................
     iter. time                 ...        0 min, 13.781 sec
          total energy        -132.605775009967175 Eh
            energy change        0.47E-05 Eh
 
          gradient norm          0.032792758692580 Eh/a0
            max. gradient        0.014932306086185 Eh/a0
 
            step length          0.106753359303743 a0
            max. step            0.008575535039668 a0
 
       unit cell volume      10320.326794325066658 A^3
 
       current lattice:  
       47.651262160941300       -1.287316532785047        0.069382206632092
      -23.502661219128932       40.712057042262337        0.638409365948275
       -0.325565749251238        0.197340988023750       36.471291271383457

........................................................................
.............................. CYCLE  463 ..............................
........................................................................
     iter. time                 ...        0 min, 13.985 sec
          total energy        -132.605869444130036 Eh
            energy change       -0.94E-04 Eh
 
          gradient norm          0.019311997557848 Eh/a0
            max. gradient        0.010642616574352 Eh/a0
 
            step length          0.079266435318569 a0
            max. step            0.014932306086185 a0
 
       unit cell volume      10320.375890074728886 A^3
 
       current lattice:  
       47.646724023186110       -1.285304968058825        0.072916418764157
      -23.505567099991158       40.713720357527137        0.635538522549410
       -0.325384036505142        0.196430522273788       36.472603730122934

........................................................................
.............................. CYCLE  464 ..............................
........................................................................
     iter. time                 ...        0 min, 13.976 sec
          total energy        -132.605955074574382 Eh
            energy change       -0.86E-04 Eh
 
          gradient norm          0.008279961124198 Eh/a0
            max. gradient        0.002969102222339 Eh/a0
 
            step length          0.175122002511461 a0
            max. step            0.010642616574352 a0
 
       unit cell volume      10318.349806737336621 A^3
 
       current lattice:  
       47.641756731925277       -1.286259423016665        0.076046512377459
      -23.499340277844883       40.707281156034234        0.636622725773946
       -0.324532495082935        0.199224123752775       36.475481162599642

........................................................................
.............................. CYCLE  465 ..............................
........................................................................
     iter. time                 ...        0 min, 13.918 sec
          total energy        -132.605985918821716 Eh
            energy change       -0.31E-04 Eh
 
          gradient norm          0.010156704868963 Eh/a0
            max. gradient        0.004473888766435 Eh/a0
 
            step length          0.090988197068913 a0
            max. step            0.002969102222339 a0
 
       unit cell volume      10319.705792395987373 A^3
 
       current lattice:  
       47.642136041745921       -1.284177741953975        0.076023108947876
      -23.502247797567573       40.710096640368405        0.634971090907749
       -0.324832308269454        0.199047357953427       36.476541994145144

........................................................................
.............................. CYCLE  466 ..............................
........................................................................
     iter. time                 ...        0 min, 14.148 sec
          total energy        -132.606038132469024 Eh
            energy change       -0.52E-04 Eh
 
          gradient norm          0.008574385448034 Eh/a0
            max. gradient        0.003992991147942 Eh/a0
 
            step length          0.144439961253233 a0
            max. step            0.004473888766435 a0
 
       unit cell volume      10318.333782577659804 A^3
 
       current lattice:  
       47.636615529112930       -1.284196306749726        0.078427364372440
      -23.498133224513484       40.705898954625880        0.635254066924828
       -0.324367573045574        0.201070873736601       36.479739789335433

........................................................................
.............................. CYCLE  467 ..............................
........................................................................
     iter. time                 ...        0 min, 13.891 sec
          total energy        -132.606078738720413 Eh
            energy change       -0.41E-04 Eh
 
          gradient norm          0.018754601797791 Eh/a0
            max. gradient        0.010655658590176 Eh/a0
 
            step length          0.158119176279175 a0
            max. step            0.003992991147942 a0
 
       unit cell volume      10319.177299527831565 A^3
 
       current lattice:  
       47.632286969301070       -1.281212912931410        0.083837596951472
      -23.495744174034236       40.705063731254477        0.631009776444142
       -0.326306753867881        0.203325447851527       36.485440599232881

........................................................................
.............................. CYCLE  468 ..............................
........................................................................
     iter. time                 ...        0 min, 13.782 sec
          total energy        -132.606132540507900 Eh
            energy change       -0.54E-04 Eh
 
          gradient norm          0.022384639911689 Eh/a0
            max. gradient        0.014802313450640 Eh/a0
 
            step length          0.276161369277943 a0
            max. step            0.010655658590176 a0
 
       unit cell volume      10317.341655240770706 A^3
 
       current lattice:  
       47.620393934424271       -1.279584140776444        0.089511156153938
      -23.492809632378385       40.697738590280359        0.634382905458025
       -0.326802477286424        0.208482371407939       36.494149018057371

........................................................................
.............................. CYCLE  469 ..............................
........................................................................
     iter. time                 ...        0 min, 13.757 sec
          total energy        -132.606164913595649 Eh
            energy change       -0.32E-04 Eh
 
          gradient norm          0.022400749817662 Eh/a0
            max. gradient        0.012277060119017 Eh/a0
 
            step length          0.141325941366531 a0
            max. step            0.014802313450640 a0
 
       unit cell volume      10316.082529813187648 A^3
 
       current lattice:  
       47.615694806217881       -1.282404234562644        0.089051522574622
      -23.488025936019504       40.695779796928463        0.630509389893097
       -0.324942817111696        0.210273137651743       36.496304325255132

........................................................................
.............................. CYCLE  470 ..............................
........................................................................
     iter. time                 ...        0 min, 13.813 sec
          total energy        -132.606198752812986 Eh
            energy change       -0.34E-04 Eh
 
          gradient norm          0.022749480093940 Eh/a0
            max. gradient        0.011459361035321 Eh/a0
 
            step length          0.100066129707941 a0
            max. step            0.012277060119017 a0
 
       unit cell volume      10317.807234507561589 A^3
 
       current lattice:  
       47.621113059975201       -1.278424661599047        0.089208053241551
      -23.489612273071504       40.696081230454425        0.630674818471946
       -0.323613783237080        0.208829415280525       36.496142652876870

........................................................................
.............................. CYCLE  471 ..............................
........................................................................
     iter. time                 ...        0 min, 14.151 sec
          total energy        -132.606221848221253 Eh
            energy change       -0.23E-04 Eh
 
          gradient norm          0.027529654193842 Eh/a0
            max. gradient        0.017221731545794 Eh/a0
 
            step length          0.050222411005853 a0
            max. step            0.011459361035321 a0
 
       unit cell volume      10317.609058685831769 A^3
 
       current lattice:  
       47.616316719122416       -1.278185949722462        0.092965485597997
      -23.488419491088290       40.698493634278272        0.631524763447881
       -0.326431188896457        0.208697333300572       36.496820361446638

........................................................................
.............................. CYCLE  472 ..............................
........................................................................
     iter. time                 ...        0 min, 13.895 sec
          total energy        -132.606196508420197 Eh
            energy change        0.25E-04 Eh
 
          gradient norm          0.035148928734660 Eh/a0
            max. gradient        0.018220520646374 Eh/a0
 
            step length          0.105965523192293 a0
            max. step            0.017221731545794 a0
 
       unit cell volume      10317.508810350858766 A^3
 
       current lattice:  
       47.617949630740888       -1.281818126685625        0.093352562729895
      -23.490126736933590       40.695947401074960        0.632470581729765
       -0.328833998275035        0.211317383083218       36.499229277207704

........................................................................
.............................. CYCLE  473 ..............................
........................................................................
     iter. time                 ...        0 min, 14.016 sec
          total energy        -132.606295852256437 Eh
            energy change       -0.99E-04 Eh
 
          gradient norm          0.017306555346698 Eh/a0
            max. gradient        0.010348193656100 Eh/a0
 
            step length          0.104977926591071 a0
            max. step            0.018220520646374 a0
 
       unit cell volume      10318.536566665337887 A^3
 
       current lattice:  
       47.615573744117718       -1.276422784607389        0.091506957462112
      -23.490656277646782       40.696691090786018        0.630440028637699
       -0.323957263734515        0.209983022991231       36.501612637132517

........................................................................
.............................. CYCLE  474 ..............................
........................................................................
     iter. time                 ...        0 min, 13.738 sec
          total energy        -132.606348581534291 Eh
            energy change       -0.53E-04 Eh
 
          gradient norm          0.009471663788938 Eh/a0
            max. gradient        0.003970988670496 Eh/a0
 
            step length          0.063979609812329 a0
            max. step            0.010348193656100 a0
 
       unit cell volume      10317.352740378053568 A^3
 
       current lattice:  
       47.612204136620846       -1.276748792565877        0.093982252859550
      -23.486867978389878       40.694579214682399        0.630318229982541
       -0.325824478778356        0.211953353895178       36.502043899327859

........................................................................
.............................. CYCLE  475 ..............................
........................................................................
     iter. time                 ...        0 min, 13.949 sec
          total energy        -132.606356744337631 Eh
            energy change       -0.82E-05 Eh
 
          gradient norm          0.012351474504719 Eh/a0
            max. gradient        0.006462247936513 Eh/a0
 
            step length          0.094056474198318 a0
            max. step            0.003970988670496 a0
 
       unit cell volume      10318.763388274594035 A^3
 
       current lattice:  
       47.615018666961944       -1.277307151565582        0.095152584045987
      -23.490070011756849       40.696684765240704        0.629782314604642
       -0.325056500105849        0.209503958818348       36.503206101098890

........................................................................
.............................. CYCLE  476 ..............................
........................................................................
     iter. time                 ...        0 min, 13.803 sec
          total energy        -132.606400786031401 Eh
            energy change       -0.44E-04 Eh
 
          gradient norm          0.008657881263324 Eh/a0
            max. gradient        0.004309974167951 Eh/a0
 
            step length          0.088016598848783 a0
            max. step            0.006462247936513 a0
 
       unit cell volume      10318.102252688120643 A^3
 
       current lattice:  
       47.611059370033288       -1.275938594821173        0.094743683775423
      -23.488082928649753       40.694983036523737        0.629489650674073
       -0.326415264137433        0.211794947829249       36.504872888803902

........................................................................
.............................. CYCLE  477 ..............................
........................................................................
     iter. time                 ...        0 min, 13.917 sec
          total energy        -132.606438000187040 Eh
            energy change       -0.37E-04 Eh
 
          gradient norm          0.012133669074608 Eh/a0
            max. gradient        0.005613785941715 Eh/a0
 
            step length          0.074151696504346 a0
            max. step            0.004309974167951 a0
 
       unit cell volume      10318.597009524050009 A^3
 
       current lattice:  
       47.610633441325021       -1.275005674351630        0.097419946380963
      -23.487891083937868       40.694836494847685        0.629188583826862
       -0.324454787923611        0.213136372588014       36.506678843220072

........................................................................
.............................. CYCLE  478 ..............................
........................................................................
     iter. time                 ...        0 min, 13.846 sec
          total energy        -132.606497348392480 Eh
            energy change       -0.59E-04 Eh
 
          gradient norm          0.013425822173580 Eh/a0
            max. gradient        0.006135150104342 Eh/a0
 
            step length          0.169131847309074 a0
            max. step            0.005613785941715 a0
 
       unit cell volume      10317.533003410859237 A^3
 
       current lattice:  
       47.601703649418937       -1.273924965463690        0.100305449781912
      -23.483353331554962       40.690413406751816        0.627454852822589
       -0.327292913990842        0.214198110098756       36.513293193856263

........................................................................
.............................. CYCLE  479 ..............................
........................................................................
     iter. time                 ...        0 min, 13.805 sec
          total energy        -132.606544165263102 Eh
            energy change       -0.47E-04 Eh
 
          gradient norm          0.010112694944600 Eh/a0
            max. gradient        0.005426580502051 Eh/a0
 
            step length          0.097134611043656 a0
            max. step            0.006135150104342 a0
 
       unit cell volume      10318.964094828235829 A^3
 
       current lattice:  
       47.601923133938769       -1.271515732459984        0.101463823576302
      -23.486270749092142       40.691776383045493        0.625612391406708
       -0.324791126534947        0.216765238869051       36.515967267667300

........................................................................
.............................. CYCLE  480 ..............................
........................................................................
     iter. time                 ...        0 min, 13.783 sec
          total energy        -132.606556056949017 Eh
            energy change       -0.12E-04 Eh
 
          gradient norm          0.021096392570089 Eh/a0
            max. gradient        0.014723000126374 Eh/a0
 
            step length          0.083810082452778 a0
            max. step            0.005426580502051 a0
 
       unit cell volume      10318.014530966165694 A^3
 
       current lattice:  
       47.598900040590095       -1.270434503775605        0.102435384411977
      -23.482615106811679       40.689907381482968        0.627287466853678
       -0.327207936417923        0.216344858054542       36.516081919213995

........................................................................
.............................. CYCLE  481 ..............................
........................................................................
     iter. time                 ...        0 min, 13.830 sec
          total energy        -132.606610754178007 Eh
            energy change       -0.55E-04 Eh
 
          gradient norm          0.018829330073731 Eh/a0
            max. gradient        0.008560408387159 Eh/a0
 
            step length          0.120534668010948 a0
            max. step            0.014723000126374 a0
 
       unit cell volume      10317.979952205720110 A^3
 
       current lattice:  
       47.593121198665813       -1.270747223512718        0.106149646374651
      -23.479756436251193       40.687904539014404        0.626439290683601
       -0.324506642083024        0.217811074183578       36.522370884395563

........................................................................
.............................. CYCLE  482 ..............................
........................................................................
     iter. time                 ...        0 min, 13.941 sec
          total energy        -132.606642021666374 Eh
            energy change       -0.31E-04 Eh
 
          gradient norm          0.027310662789006 Eh/a0
            max. gradient        0.018511459442700 Eh/a0
 
            step length          0.067084844203739 a0
            max. step            0.008560408387159 a0
 
       unit cell volume      10316.589098029498928 A^3
 
       current lattice:  
       47.589568741096258       -1.268881444882900        0.105983549169627
      -23.482016191389235       40.683934826267325        0.623403044499039
       -0.326459070360774        0.220764122348970       36.523080997391403

........................................................................
.............................. CYCLE  483 ..............................
........................................................................
     iter. time                 ...        0 min, 13.817 sec
          total energy        -132.606705326007670 Eh
            energy change       -0.63E-04 Eh
 
          gradient norm          0.022399027804719 Eh/a0
            max. gradient        0.010661494554320 Eh/a0
 
            step length          0.071547058186982 a0
            max. step            0.018511459442700 a0
 
       unit cell volume      10318.079733949225556 A^3
 
       current lattice:  
       47.587664329606007       -1.267842154237186        0.105420677083240
      -23.479503606158833       40.687201847232608        0.625339070775822
       -0.327249297930637        0.222480703287040       36.526374229414756

........................................................................
.............................. CYCLE  484 ..............................
........................................................................
     iter. time                 ...        0 min, 13.912 sec
          total energy        -132.606764646117654 Eh
            energy change       -0.59E-04 Eh
 
          gradient norm          0.021726200851035 Eh/a0
            max. gradient        0.009872393212997 Eh/a0
 
            step length          0.082936410925102 a0
            max. step            0.010661494554320 a0
 
       unit cell volume      10317.135631776231094 A^3
 
       current lattice:  
       47.585204122642956       -1.266715061776208        0.108338551239475
      -23.480412228459635       40.685627362720332        0.625828433232501
       -0.324564500918734        0.221270226845107       36.525877642782866

........................................................................
.............................. CYCLE  485 ..............................
........................................................................
     iter. time                 ...        0 min, 13.871 sec
          total energy        -132.606783856874614 Eh
            energy change       -0.19E-04 Eh
 
          gradient norm          0.024840518697696 Eh/a0
            max. gradient        0.015996369573432 Eh/a0
 
            step length          0.129300932780167 a0
            max. step            0.009872393212997 a0
 
       unit cell volume      10315.876201670522278 A^3
 
       current lattice:  
       47.579739538365928       -1.267570919343083        0.108942664519559
      -23.474106700016719       40.679746945095062        0.626595308751513
       -0.324688188921875        0.224034209723237       36.531321209709503

........................................................................
.............................. CYCLE  486 ..............................
........................................................................
     iter. time                 ...        0 min, 13.956 sec
          total energy        -132.606865695685940 Eh
            energy change       -0.82E-04 Eh
 
          gradient norm          0.013183103281289 Eh/a0
            max. gradient        0.005641875268472 Eh/a0
 
            step length          0.054987419962068 a0
            max. step            0.015996369573432 a0
 
       unit cell volume      10315.802450570823567 A^3
 
       current lattice:  
       47.576028715598333       -1.266472856605997        0.109842699585874
      -23.474889430217569       40.679713313895405        0.625380275425307
       -0.326045067277861        0.224195814462114       36.533497968290703

........................................................................
.............................. CYCLE  487 ..............................
........................................................................
     iter. time                 ...        0 min, 14.049 sec
          total energy        -132.606911733906600 Eh
            energy change       -0.46E-04 Eh
 
          gradient norm          0.009669047219423 Eh/a0
            max. gradient        0.004388374104744 Eh/a0
 
            step length          0.030827445234684 a0
            max. step            0.005641875268472 a0
 
       unit cell volume      10316.355141100961191 A^3
 
       current lattice:  
       47.577655737622450       -1.265863881291294        0.109280636458394
      -23.475742992623111       40.680210167369459        0.625447590976562
       -0.323633104975274        0.224838659672678       36.533500195198990

........................................................................
.............................. CYCLE  488 ..............................
........................................................................
     iter. time                 ...        0 min, 13.887 sec
          total energy        -132.606904476050772 Eh
            energy change        0.73E-05 Eh
 
          gradient norm          0.017036122044057 Eh/a0
            max. gradient        0.009903944328345 Eh/a0
 
            step length          0.070282212940595 a0
            max. step            0.004388374104744 a0
 
       unit cell volume      10315.285541399467547 A^3
 
       current lattice:  
       47.572722985059407       -1.265748763423459        0.110457543574830
      -23.473589266997678       40.679260409199841        0.626007710828027
       -0.327216483834866        0.224419871878001       36.534302414378431

........................................................................
.............................. CYCLE  489 ..............................
........................................................................
     iter. time                 ...        0 min, 13.981 sec
          total energy        -132.606979721543297 Eh
            energy change       -0.75E-04 Eh
 
          gradient norm          0.014159375601525 Eh/a0
            max. gradient        0.007776096785278 Eh/a0
 
            step length          0.085977720630723 a0
            max. step            0.009903944328345 a0
 
       unit cell volume      10314.906339515137006 A^3
 
       current lattice:  
       47.569966158259305       -1.265022916240461        0.111040564657591
      -23.473207044566870       40.678080637809558        0.626978807429139
       -0.325451825167588        0.225965931203601       36.535883735266147

........................................................................
.............................. CYCLE  490 ..............................
........................................................................
     iter. time                 ...        0 min, 13.724 sec
          total energy        -132.607017059700809 Eh
            energy change       -0.37E-04 Eh
 
          gradient norm          0.020847070341207 Eh/a0
            max. gradient        0.011763670670762 Eh/a0
 
            step length          0.154584792822317 a0
            max. step            0.007776096785278 a0
 
       unit cell volume      10315.795638109641004 A^3
 
       current lattice:  
       47.568000919282234       -1.263183294541143        0.111287013727603
      -23.472936927687098       40.675882987850805        0.624358290813597
       -0.324752736543640        0.224240114726304       36.541694270502553

........................................................................
.............................. CYCLE  491 ..............................
........................................................................
     iter. time                 ...        0 min, 14.047 sec
          total energy        -132.607047403260395 Eh
            energy change       -0.30E-04 Eh
 
          gradient norm          0.020591432230677 Eh/a0
            max. gradient        0.013236805791624 Eh/a0
 
            step length          0.067879463037600 a0
            max. step            0.011763670670762 a0
 
       unit cell volume      10314.485749537550873 A^3
 
       current lattice:  
       47.565826981333416       -1.263076633455980        0.110914299817193
      -23.472972793387950       40.673117970408249        0.629107610463477
       -0.323280666713680        0.226093546680531       36.541288722784010

........................................................................
.............................. CYCLE  492 ..............................
........................................................................
     iter. time                 ...        0 min, 13.947 sec
          total energy        -132.607069177361069 Eh
            energy change       -0.22E-04 Eh
 
          gradient norm          0.022462483347247 Eh/a0
            max. gradient        0.009656546645266 Eh/a0
 
            step length          0.053746375952327 a0
            max. step            0.013236805791624 a0
 
       unit cell volume      10313.677029649852557 A^3
 
       current lattice:  
       47.563923046566792       -1.264739705194907        0.109169566651222
      -23.470613350817157       40.674082145590852        0.625060352991472
       -0.322453681577976        0.228402738283501       36.539747389754986

........................................................................
.............................. CYCLE  493 ..............................
........................................................................
     iter. time                 ...        0 min, 13.716 sec
          total energy        -132.607125021679252 Eh
            energy change       -0.56E-04 Eh
 
          gradient norm          0.016860024839932 Eh/a0
            max. gradient        0.009962791420595 Eh/a0
 
            step length          0.042959632664928 a0
            max. step            0.009656546645266 a0
 
       unit cell volume      10314.967494518172316 A^3
 
       current lattice:  
       47.565537948695173       -1.260772301418966        0.111768308948527
      -23.471923104154147       40.673737340994215        0.625075373141444
       -0.324369457619466        0.228092459340571       36.541598415464399

........................................................................
.............................. CYCLE  494 ..............................
........................................................................
     iter. time                 ...        0 min, 13.926 sec
          total energy        -132.607133682233638 Eh
            energy change       -0.87E-05 Eh
 
          gradient norm          0.022180788167273 Eh/a0
            max. gradient        0.012675172160916 Eh/a0
 
            step length          0.099187654205945 a0
            max. step            0.009962791420595 a0
 
       unit cell volume      10314.699337547473988 A^3
 
       current lattice:  
       47.560900176790739       -1.262451940063691        0.113855129526335
      -23.473289257779509       40.674224462301780        0.626098661152107
       -0.323443406327938        0.227913903472873       36.544608099590079

........................................................................
.............................. CYCLE  495 ..............................
........................................................................
     iter. time                 ...        0 min, 13.758 sec
          total energy        -132.607193291363274 Eh
            energy change       -0.60E-04 Eh
 
          gradient norm          0.011829594279159 Eh/a0
            max. gradient        0.004976089235970 Eh/a0
 
            step length          0.142364645280166 a0
            max. step            0.012675172160916 a0
 
       unit cell volume      10313.382795425766744 A^3
 
       current lattice:  
       47.559318979964821       -1.262904717937171        0.112255501190846
      -23.470276474418082       40.669721078176728        0.626142610896098
       -0.323943108553687        0.228796354982855       36.545438152535141

........................................................................
.............................. CYCLE  496 ..............................
........................................................................
     iter. time                 ...        0 min, 13.732 sec
          total energy        -132.607193776802688 Eh
            energy change       -0.49E-06 Eh
 
          gradient norm          0.021524357069317 Eh/a0
            max. gradient        0.011108605465183 Eh/a0
 
            step length          0.077515152173605 a0
            max. step            0.004976089235970 a0
 
       unit cell volume      10313.816388585217283 A^3
 
       current lattice:  
       47.558955459387455       -1.258760178216955        0.112173801392826
      -23.469995359838464       40.671021668010859        0.626009641046839
       -0.322050128218911        0.228995714863327       36.544206772555277
 
Geometry optimization converged after   496 steps.
================
 final structure:
================
 xtb: 6.7.1 (edcfbbe)
    1.00000000000000
   47.55895545938746   -1.25876017821695    0.11217380139283
  -23.46999535983846   40.67102166801086    0.62600964104684
   -0.32205012821891    0.22899571486333   36.54420677255528
 C    Cl   H    N    O    Zn  
 240 18 154 126 65 24
Direct
    0.31970381702461    0.30655550142404    0.47132486375374
    1.00870923211156    0.31599994545045    0.45575740666123
    0.98380358834502    0.21104509583072    0.43849142728473
    0.97374585115552    0.25969528854337    0.42188321040221
    0.86965200470702    0.43828777521586    0.44699273700366
    1.02846585521936    0.39027888142180    0.29211665200485
    0.87517844697947    0.28923961844494    0.52060194078375
    0.88326265085077    0.26253635229731    0.63760760027362
    0.90413072552229    0.30720973627483    0.58467053344846
    0.34241279415260    0.06635518703898    0.44391803248342
    0.26086211243506    0.08679529330459    0.42803542116001
    0.31933166411132    0.09896691131062    0.40913733433381
    0.61159482083313    0.21558014268011    0.39876535687452
    0.75265188286891    0.64044150142818    0.56137626875127
    0.39214208800671    0.05796148127496    0.27798787453044
    0.43473557050041    0.16541441621248    0.56773808832274
    0.31037156281650    0.34647703779808    0.94829883374572
    0.20396548319905    0.26458941008336    0.94205551296058
    0.25222668544619    0.32351875375041    0.91955095204615
    0.43284367015420    0.61385659031986    0.89584261857127
    0.35791168018878    0.38916688664073    0.77693737747061
    0.28449976328108    0.45450241990615    0.00425593631706
    0.27084663493877    0.42397078232127    0.12317529236547
    0.30846902082017    0.44449087365010    0.06434695030421
    0.05419691279041    0.74865667252812    0.95044097226369
    0.07921542363223    0.85429724947158    0.93412671212795
    0.08876902454286    0.80622477750435    0.91621350475806
    0.44650896461231    0.19860264689072    0.50502935917948
    0.19477754288458    0.63716991955786    0.90691865335381
    0.79291927208760    0.66412504902984    0.61620872589189
    0.67160065644781    0.68344147790884    0.26643630598274
    0.27145112864401    0.25189749462743    0.02165493993629
    0.57088062713641    0.41650656539343    0.07324560653515
    0.37598444114878    0.36319086082834    0.20670028125621
    0.43316034708522    0.25027664366604    0.98376294133683
    0.39997124180689    0.23059259100978    0.86699064375108
    0.40910435473988    0.26427345282100    0.92563760991680
    0.74659988207894    0.05164579009726   -0.00514156767084
    0.82253947991634    0.02540240355785   -0.03077499589209
    0.80261223265228    0.05570091963704    0.01061719417738
    0.65910224176506    0.20467601577359    0.07544886604548
    0.70214071628272    0.05770503460665    0.22092460033289
    0.81620993444777    0.22857475432530    0.99731052443831
    0.77307461970196    0.62635744668836    0.50125348652142
    0.83126403041629    0.21895443944761    0.87826266188381
    1.01190313772542    0.73934604808433    0.00433159113218
    1.03689367956890    0.84507998635023   -0.01338418902367
    1.00331254397067    0.78837161402766    0.02199259331149
    0.85464407785936    0.48217260399679    0.08769609345563
    0.99895827933075    0.67786844499283    0.20843318999016
    0.84198668696568    0.64009142073202    0.98024314384001
    0.87177451856863    0.69500263916228    0.87190251029227
    0.88528749324586    0.66835193057954    0.92682889689231
    0.75009024658002    0.73802077819063    0.44202285199640
    0.85690108349536    0.81931554124721    0.43634424299538
    0.80849482005317    0.76178247196804    0.41328275940708
    0.62313543091948    0.47341655199818    0.40796009625284
    0.79725450853278    0.19292510775735    0.93767760985286
    0.03222604084339    0.68620168775349    0.77389365499887
    0.18544267745493    0.77661034704968    1.00003027233433
    0.16767462701791    0.78768947269207    0.11768528844043
    0.95583999827804    0.51561206628360    0.08390110375793
    0.58097907831965    0.10433184894572    0.07653381991229
    0.44678815113833    0.34124753322518    0.24179813858863
    0.72683709238127    0.15383410853637    0.25050159818721
    0.90222843050812    0.60925314438449    0.24365336972598
    0.61594388705936    0.74743543686714    0.73415434890633
    0.32764011716987    0.91955980836135    0.73989146591261
    0.14870265863026    0.45676798329973    0.74506828576514
    0.36091929657594    0.47540478460145    0.73721361098631
    0.11839103903895    0.69124367471127    0.73759026554675
    0.58561847667186    0.94061181365022    0.73796969260592
    0.68519893567325    0.60583235774344    0.23522967857195
    0.54469538934610    0.48948331887197    0.07054933445896
    0.93903968036743    0.38022363405517    0.25888138139499
    0.47532764966443    0.24271719475732    0.39899379599452
    0.83844383296638    0.28109825779550    0.41311241444191
    0.78658199360780    0.59600705570017    0.39820480927523
    0.58746722430608    0.84358267354707    0.89130607925569
    0.22755870352665    0.79938116666636    0.89423326947992
    0.26603117629558    0.47949487423101    0.89890781693603
    0.27576774939066    0.48918958019169    0.57625152211888
    0.22389633017698    0.79471384112359    0.58291937263888
    0.58777798733072    0.83341534501062    0.58096450766558
    0.78983403291792    0.59609607019272    0.07848551925373
    0.82799447151507    0.26873356913099    0.10224363610027
    0.47133795315426    0.24424000838468    0.08609647089386
    0.47696902066918    0.14515884097282    0.23923631877218
    0.47290860552985    0.96659166575928    0.57455792704697
    0.09621115069430    0.54830655677405    0.57380693065704
    0.51624574322892    0.58821960402417    0.56788289047359
    0.15161967367957    0.74985820242834    0.06020359250517
    0.71174119876781    1.01700965646324    0.93659975950399
    0.78759948857038    0.99068670570622    0.91223974085873
    0.73183152847023    0.98633236759471    0.89546785687343
    0.45245697749591    0.87352605859962    0.91338380279692
    0.66682337794584    1.03322518305809    0.76842918238835
    0.60793686902970    0.88113499028173   -0.00180247655795
    0.63434710669997    0.89143820073435    0.11722442827050
    0.61467237828516    0.91102335636226    0.05988064674174
    0.40412675935430    0.39784470384039    0.50043934131997
    0.66882436492830    1.05486077712760    0.50217450983086
    1.00229711767702    0.65127071821847    0.49965665324395
    0.64808893815563    0.68567666158110   -0.00247083899753
    0.38828156632279    1.01852702148708    0.00281694904149
    0.05241546584113    0.42214771836514    0.01599842649882
    0.65000758138089    0.68190961212993    0.47439081896127
    0.39422791510488    1.02065361134682    0.48020268255153
    0.05521869483914    0.41446021508885    0.49479881826857
    0.41035200743401    0.40122284185531    0.97928795206287
    0.66228473860574    0.05954063878674    0.98502913231516
    1.00524612248904    0.64749927964977    0.98537089978724
    0.54297089220033    0.48819014414608    0.40741123714759
    0.59125105286140    0.11705356151578    0.41043503209198
    0.95991963885684    0.52275602565789    0.41339275107258
    0.51263894188865    0.59895193598173    0.90255015454740
    0.47040123380047    0.97144651054257    0.91120469158640
    0.09900552844668    0.55186089007710    0.91350104225867
    0.21392485259985    0.22924635815523   -0.00754055571886
    0.32023199554340    0.31112392620204    0.00014498574200
    0.40795381575176    0.17975733267848    0.62052226497325
    0.20285757055636    0.40998940331853    0.36390926980624
    0.30077778913444    1.01882082556029    0.98370820916758
    0.22041291883223    1.04120273057951    0.99485324487982
    0.24280535765823    1.00791935617301    0.96352087182096
    0.39600595560692    0.86945446125448    0.91444871798651
    0.35430674231751    1.01602804866646    0.76996030112550
    0.23601435336233    0.84045586902885   -0.00203819758151
    0.21677626352331    0.85093666068074    0.11535879290053
    0.25125660907385    0.87760643224806    0.05624773133132
    0.04919123127830    0.33323581473060    0.99074781382645
    0.01998622655978    0.22583188283101    0.99200910188953
    0.05667876714715    0.28599181591064    0.96493196559938
    0.20012031105405    0.58501083536664    0.90820660996296
    0.64008717787668    0.81273096823553    0.05282981208355
    0.05245286931584    0.38718831940725    0.78020489405637
    0.21081685410792    0.41445692848457    0.12269262702769
    0.18663491251838    0.42406470138536    0.06332025068297
    0.30237745949289    0.33399818204754    0.52350903918029
    0.20035997112839    0.24230652999911    0.52460249689628
    0.24237369019876    0.30161449352427    0.55002345071721
    0.43676643536485    0.60346431162803    0.55972943431412
    0.35622829287899    0.38756835160743    0.70607545253346
    0.28512865954510    0.45628702993632    0.47300035611590
    0.26375374829479    0.42231693062197    0.35679753125057
    0.30510970530453    0.44514746666097    0.41067650868951
    0.04981309368792    0.75135880183361    0.53312210068031
    0.07680193134040    0.85762272625294    0.54382309973395
    0.22337016370042    0.44434577209206    0.00354896044832
    0.64645265026669    0.84252053586726    0.11374342116946
    0.62058102587369    0.83173184572985   -0.00543379292855
    0.70399457658146    0.75789012420705    0.77256194187189
    0.21785274625775    0.21563358951696    0.47318407517644
    0.27713747856385    0.24710067205483    0.44639692260531
    0.56931688716485    0.41520499771879    0.40961794201369
    0.37595337817040    0.36232014503599    0.27772466977320
    0.43213715054446    0.24650471296392    0.49724985934429
    0.39168751926216    0.22537426658334    0.61157684641962
    0.40423948629998    0.25917983518012    0.55034446391167
    0.75595646186875    0.05395576565894    0.48297455516348
    0.83702128010840    0.03265493629131    0.49742888455224
    0.81478395573779    0.06645612149245    0.46460117341142
    0.66736611805001    0.21832527137860    0.40090095912853
    0.70387786442047    0.05962732390943    0.29177607569386
    0.18211800883866    0.41957000926930    0.42598042558253
    0.83505333794128    0.20014069650867    0.62747215119475
    0.80531301500159    0.18232970621224    0.56476220023785
    1.00611615769595    0.74242633928687    0.48113978258131
    1.03310632104345    0.84858447697754    0.49339146061539
    0.99762984633213    0.79153274451121    0.46175937749464
    0.86127831918008    0.48849222219666    0.44147637414311
    0.99821930524755    0.67805697633986    0.27936596416433
    0.83319943374545    0.63413697807127    0.49888178719907
    0.85316742666361    0.67413103623199    0.61259247985110
    0.87319013708066    0.65831616563138    0.55425717609198
    0.73672918770401    0.77682269566769    0.97435810217940
    0.84355184653778    0.85818765143867    0.97495928347345
    0.78468284328237    0.83514530740198    0.94942205894838
    0.48673901847542    0.67199379497179    0.89479517264384
    0.08542728065336    0.80915186742481    0.56413104859096
    0.19265461981291    0.63243419554358    0.56902369235306
    0.82451015237441    0.22673666802639    0.51153432441681
    0.18234328877607    0.78076010281989    0.47747119788405
    0.60436515908091    0.20406242759129    0.07202260793439
    0.44690808607596    0.20153413161183   -0.01808001833526
    0.41447363402223    0.18325396153883    0.86514401693400
    0.43789566687688    0.16808714721009    0.92251804134991
    0.74026514322058    0.77100293049026    0.49462001780056
    0.84692783607705    0.85234175548971    0.48747868408037
    0.78918034585850    0.82871210455871    0.51681995940731
    0.49071913488931    0.66153232570785    0.56048926342683
    0.70317154370943    0.75266803493364    0.70208388724140
    0.62251982625118    0.82587984659307    0.47804368569945
    0.64870188926088    0.84061548998698    0.35852923432892
    0.64293337465482    0.80938351727645    0.42084625241070
    0.31271711794504    0.09668480517361    0.06665277940635
    0.30751108153558    1.02232480140511    0.49811342346390
    0.24950713905641    1.01162904139862    0.51732780178795
    0.39613229645168    0.86557181328494    0.58154598146159
    0.35301118923128    1.01452595552176    0.69904836442652
    0.23293640082266    0.84395532152811    0.48222675279613
    0.21497382537338    0.86446028918311    0.36676336869933
    0.24857010521995    0.88570849176146    0.42687371329786
    0.05315226014081    0.32359969871993    0.50653419999477
    0.02820690488286    0.21888213718154    0.48785126775841
    0.06293660968042    0.27446153391048    0.52209740923794
    0.19697299342381    0.57966204662518    0.57339926382232
    0.05366068464270    0.38559134419584    0.70935658824289
    0.22333240777304    0.44354800740519    0.48039285109552
    0.22672024505449    1.04383493864934    0.48201282039921
    0.25479966988400    0.08520574520511    0.04597817154189
    0.39172558996357    0.05646329533340    0.20715000342975
    0.90354489039081    0.31676330878781    0.93574345623941
    0.16672419267583    0.80153757919065    0.36097420938134
    0.14959445598024    0.75934537928117    0.41591072190689
    0.72015915432372    1.00734670634602    0.53472063319925
    0.80175349673659    0.98666061082470    0.54852335770390
    0.74277073413659    0.97327242569218    0.56721615608424
    0.45158634639222    0.86752309729248    0.58142762952500
    0.66780835992550    1.02985722312685    0.69784667529660
    0.60933945305608    0.87496901491893    0.47349852201824
    0.63543539823845    0.88893839810652    0.35387692480944
    0.61628893909252    0.90687031888795    0.41061838833643
    0.33546132974041    0.06303095389149    0.03590665886914
    0.85561950251464    0.82412999253454    0.02503141538250
    0.03085093466943    0.68485925967392    0.70301318311261
    0.74871338644302    0.74281553856292    0.02591301971522
    0.62471920000668    0.47469002938628    0.07075681507997
    0.88404459128553    0.28004732527471    0.87710396439861
    0.80816959374547    0.76618986494542    0.05101495314159
    1.02612934739238    0.38781674224303    0.22133836260193
    0.86021208107960    0.43015028598147    0.08996111424416
    0.96896745672246    0.25862107558997    0.07114072627299
    0.86973941771874    0.29069304043394   -0.00387644466332
    1.00587721413383    0.31955725341710    0.04478044779472
    0.77107138991382    0.66402815425012    0.92073871054362
    0.81552930159326    0.69331998299652    0.86902547688320
    0.78446774573806    0.63766378609453   -0.02293798050223
    0.67187739043050    0.68262817043112    0.19552682406511
    0.97612784475232    0.21179695676102    0.04403241991408
    0.94185875502440    0.14066831203868    0.39765615919959
    0.81419468128765    0.95373886654935    0.86208919870022
    0.12518536231390    0.75692167526853    0.19186341100558
    0.11457381352471    0.92287241561830    0.88589284299061
    0.29702835538129    0.40686185723007    0.19679493574649
    0.13164891002271    0.23454996333008    0.90676907263290
    0.22885535832432    0.12249333972591    0.38224862368165
    0.92956150414051    0.85060977082212    0.40099187424051
    0.64658200149055    0.92945974755653    0.19300699263752
    0.66991737459308    0.81702844372982    0.28661738328643
    0.40251399429769    0.14250361621964    0.79134437403792
    0.22400337691828    0.12385664533517    0.08537361497150
    0.92692124532816    0.30836408553213    0.80298301274277
    0.92989175733586    0.85391483090238    0.05446849574587
    0.83304306078625    0.94844874919023    0.59070642939414
    0.12647259715892    0.20011690517204    0.55793013803559
    0.90473470652774    0.70964405855605    0.67875414932202
    0.15407341610524    0.38725893590138    0.29420850005164
    0.94051478409312    0.25401998114713    0.38315459689733
    0.83461817393424    0.38941413100681    0.45689812251257
    0.06535057527490    0.39465982625514    0.32461574139744
    0.90265293080196    0.27543069091526    0.68867189545884
    0.94034098547894    0.35569069873622    0.59201315964043
    0.34500898127328    0.13123564255594    0.36721651944547
    0.60436572051348    0.25390072203778    0.38638425944831
    0.38607487999736    0.60347529376502    0.88673907374437
    0.40086318426296    0.15764528394979    0.67095875605314
    0.44805368158212    0.13082860802539    0.57424692958155
    0.24458982212859    0.35041190610572    0.88084169674890
    0.70563116524302    0.63049661590786    0.56471029939617
    0.35890888493024    0.35563048979151    0.81241874251205
    0.35537328637492    0.45398981582634    0.06615436198639
    0.12042746389584    0.81287161933502    0.87529536381067
    0.35623303407300    1.02491626562820    0.31305266263771
    0.77895207914308    0.67524202179170    0.66367162230491
    0.92930863010031    0.67142538115908    0.93062202460278
    0.67006727784035    0.48365327974062    0.40101916254495
    0.35068719976998    0.37728498611083    0.17292059808090
    0.38131692519315    0.23952228199814    0.82087386480878
    0.39775025891817    0.30023221677991    0.92814427626107
    0.86656637543918    0.02936650894353   -0.02068469807063
    0.82989883123397    0.08321778934700    0.05349419742193
    0.70545946193867    0.24490662155812    0.08236888116049
    0.68507365612982    1.01644417231851    0.18911383354738
    0.66639772588425    0.71553399622771    0.29813459629893
    0.81778949004676    0.19300369381043    0.83103834764764
    1.02934428672405    0.88292358414315   -0.00287479151918
    0.96910555907550    0.78047486212198    0.06031514257067
    0.81285476081145    0.48347380256462    0.09505382807306
    0.03949421011472    0.70154319732902    0.17475364685777
    0.90560338037272    0.71990908137156    0.83130163243920
    0.23102344600975    0.68557411027093    0.89638969011850
    0.81629564917804    0.73633666623802    0.37454566966319
    0.75728852232397    0.14590039640842    0.93924498475365
    0.99829751392519    0.68559300964141    0.80808937561503
    0.70031212402930    0.07144858009263    0.79974168143974
    0.70551329261698    0.96104354679060    0.85107848135754
    0.28715405227854    0.50965233684567    0.62672119101647
    0.23402524372588    0.78411496878491    0.63382670166515
    0.56844897381163    0.82166526111498    0.63258021120314
    0.77726145288467    0.57261912974573    0.12846282090763
    0.81766191981181    0.27601678010482    0.15396944457940
    0.49226757631781    0.25673009061296    0.13645594766959
    0.99013087078183    0.80221843295957    0.74714868925757
    1.02684393202987    0.82174108235811    0.81583005636590
    0.21345253536100    0.39951675847604    0.62769296881511
    0.25865632190351    0.39214210985959    0.67574884398133
    0.77073955726477    1.01407493624669    0.70625715240421
    0.77168261370643    0.96721672228204    0.76035104242874
    0.76839841277739    0.43842915500313    0.33118350181451
    0.78502153462406    0.38691774193977    0.33432083959341
    0.56640668297263    0.37117530117172    0.08135013923837
    0.27443061948923    0.50006107708736    0.84749077148867
    0.23934888328411    0.79251534523440    0.84309697856941
    0.56877820826273    0.83335562454164    0.83976077040911
    0.77644321839056    0.57436017357453    0.34836652854602
    0.46106701354139    0.83571338667588    0.90679385332443
    0.60354372655507    0.94718293082221    0.06411648909331
    0.45176330249209    0.43671780911697    0.50243683266688
    0.63341543214777    0.06680767728298    0.49895702165676
    0.99018417295862    0.60300414823562    0.49567639537131
    0.60045767344893    0.64704882060872   -0.00499832219981
    0.42428858827087    1.00761719354450   -0.00112469894139
    0.11427638392479    0.70118061619516    0.06298688992352
    0.06270019293502    0.47000970157190    0.01339883957390
    0.43012840413301    1.00960699078083    0.48550214607482
    0.06628370447016    0.46195342347093    0.50313401886851
    0.45827311613021    0.43892608800621    0.98295362291790
    0.62780651537005    0.07175330717123    0.99445782131105
    0.99221851753769    0.59880249873232    0.98967162539119
    0.49704477583289    0.25525223179414    0.34856787370594
    0.83025099759510    0.29393336172703    0.36229511913154
    0.60202193251469    0.64413387588033    0.47854916477980
    0.27993790924656    0.22458721887101    0.05897529091099
    0.94289862319086    0.36443712475538    0.93350401484294
    0.13505300127981    0.40849238722094    0.43130222126227
    0.66010474009655    0.82856690652205    0.16047511832622
    0.65014936993411    0.77595994682815    0.04876146439686
    0.17550484778188    1.03342630226811    0.98090561946640
    0.21612152242269    0.97301614725702    0.92560824223429
    0.35040283146531    0.82765575618397    0.90931222174158
    0.36982195894346    0.05683587917454    0.80210394785223
    0.22600052733506    0.87821508989058    0.16117091010162
    0.28840607099126    0.92613816499992    0.05335134024460
    0.02471410521318    0.18802122745425    0.97336042129604
    0.09113411297872    0.29713956507091    0.92564336595337
    0.24162742325855    0.58349604399755    0.89954601146338
    1.01193604761741    0.36286549425966    0.81401798404562
    0.18456587103560    0.40020845164974    0.17041190447442
    0.14035043625465    0.41579700851089    0.06162235915434
    0.22886195973827    0.32050664072348    0.59096171379580
    0.74031605310389    0.76411797418357    0.80722145473189
    0.49151366224356    0.71731875851152    0.88535896865780
    0.77499352890623    0.86070293984102    0.91090862405665
    0.88173736715654    0.90283423336390    0.95616209177839
    0.18418912873481    0.16903562187101    0.45601836719254
    0.29165697157537    0.22615095081319    0.40878105084226
    0.56466585564158    0.36973719649586    0.40473942539965
    0.35009371335974    0.37416232243448    0.31182576136027
    0.39178446710132    0.29414812089182    0.54385949460506
    0.88285114854061    0.04216589822859    0.48528838031113
    0.84226816063392    0.10315333431460    0.42705881770943
    0.38964284389350    0.59343985130831    0.56232675926638
    0.71300200931044    0.25927458151511    0.39063106900150
    0.69068578700573    1.02128130848232    0.32831398403689
    0.76844607146982    0.13458366761631    0.55707745632330
    1.02739404460597    0.88754289825509    0.47979325775365
    0.96315616635209    0.78408752556363    0.42390291147738
    0.81836955182073    0.48794357252093    0.44689801711925
    0.03729920642431    0.70220763652847    0.31366799173154
    0.91950763989892    0.66685291997851    0.55155076311520
    0.17548267682527    0.18332803932505    0.00755767658816
    0.35387065537141    0.35160866148066    0.67381668855159
    0.81912529995049    0.16941406101090    0.21544178518001
    0.35267088441313    0.45707717369660    0.40518987269839
    0.35710369913179    1.02031526508406    0.17466321692246
    0.44957577629640    0.13219544081412    0.92011976515881
    0.88558474368221    0.89710536203785    0.50325011660424
    0.78061820730036    0.85396137552778    0.55511334050543
    0.49540653305115    0.70709837041637    0.56409979196261
    0.73765815843322    0.75174346090594    0.67025316754038
    0.65449807944765    0.77355939882635    0.42431466891824
    0.59812424561363    0.24365010509477    0.07637180545520
    1.01510935653246    0.35892396932637    0.67509002183028
    0.09786513570463    0.28102657886573    0.55894022209329
    0.03551347864728    0.18042627163907    0.49764135958671
    0.27796670912745    0.41531685190866    0.30708118118750
    0.36556938067295    0.05284165480204    0.66268996183892
    0.35003544839071    0.82486289184795    0.59012713274818
    0.22329532029842    0.97805996865769    0.55817368450783
    0.18115210022940    1.03510584761731    0.49434958340663
    0.23852958648116    0.57765402061991    0.58020570459161
    0.33901487360058    0.13060698358718    0.10551380056531
    0.28569484945860    0.93395203511646    0.43072665242559
    0.06098550910605    0.39114343351765    0.18652666223538
    0.11908137450227    0.81634781159255    0.60296763257557
    0.87679170204229    0.17174672159074    0.18375892126254
    0.22994455921593    0.68101547766719    0.57288226694068
    0.14449079752483    0.78640776752748    0.31145265796777
    0.11317359456801    0.71051042568020    0.41167344477245
    0.71689096615938    0.93978122916783    0.60825646372548
    0.45875734907711    0.82874475060036    0.59053914068996
    0.70294341486372    0.06373466816234    0.66248483631567
    0.99551918300518    0.68323959772231    0.66989659662426
    0.60508638603418    0.94321170660709    0.40745383006182
    0.81762915584141    0.73956737769335    0.08826480401434
    0.67179933158650    0.48513801823775    0.07693368509644
    0.66577340933564    0.71279769658853    0.15972500871911
    0.72819083107103    0.66362749809703    0.91864479222409
    0.82392210733487    0.38170682567039    0.10011905787477
    0.63899287051753    0.91050723574470    0.30385164880893
    0.93522394536674    0.24816588145547    0.11103111573947
    0.36092064802414    0.44397677978079    0.79571636861606
    0.30875794251883    0.47551191654459    0.93707132041169
    0.04842050106659    0.69007037704679    0.94099259311336
    0.13208852811012    0.61604933935610    0.91008857244720
    0.65939056718178    1.02292538156435    0.93322985451725
    0.18129308248442    0.75358179573067    0.93327881787808
    0.49804591693456    0.93680491606356    0.91133745813046
    0.61549515571252    0.97767017751788    0.79282482891910
    0.58821388555864    0.88729345871886    0.93177024706098
    0.44939271595250    0.56901466698743    0.90057369924195
    0.08662348524417    0.69000488633360    0.79476485133697
    0.36814067590258    0.40251106633452    0.93746484947865
    0.74640874397837    0.60405212437140    0.43652096654990
    0.44534971235997    0.11276973672271    0.29746937687355
    0.56488360197506    0.15280096470141    0.40481236482457
    0.39671503505254    0.06423081089652    0.43567005340425
    0.88292290970475    0.32111181771795    0.45699844907588
    0.93072562281625    0.45999008009835    0.42936846934082
    1.01182565245654    0.37409687372451    0.45069403876134
    0.67987509215741    0.63551914381991    0.29060840190899
    0.60628436443851    0.51812161225555    0.40658572728489
    0.69220379707697    0.68260895370494    0.43153340401801
    0.84347935295709    0.61393764674009    0.04458950620930
    0.93924458687172    0.63569446524175    0.18670861497149
    0.91403588906587    0.53479548323554    0.08358348047970
    0.47234026081796    0.19717294735550    0.44141248520609
    0.50736703506692    0.51889753797619    0.40472161910254
    0.36052199635807    0.53324399839848    0.73492173967522
    0.54794291277082    0.56799903630033    0.90483971337832
    0.11464272431263    0.91900398464418    0.57502467960744
    0.93649337941831    0.14650067214885    0.06795218804565
    0.36013573569780    0.23830388785603    0.66571470677110
    0.81462949670064    0.15125527178948    0.68189436833399
    0.23091765642624    0.90973633705308    0.30980550825450
    0.80738034522834    0.73014082202718    0.81460931430519
    0.53096741754052    0.20829614575072    0.23703864071329
    0.87804331728527    0.37242255462030    0.25972543617831
    0.69571146495797    0.55402068899485    0.23729506797698
    0.53233280906656    0.87694611717850    0.74061827898824
    0.18016314603423    0.70097024786787    0.73744648418770
    0.98269728658587    0.67569602208878    0.02456417922844
    0.55733073716784    0.04864370942421    0.41024132707277
    0.21122380344841    0.51106143709853    0.74373601243159
    0.55790848179920    0.74598352397757    0.73182700046758
    0.83958142053049    0.55491901902861    0.24396675398526
    0.74031079234501    0.21784093141272    0.24742933211081
    0.50090135035500    0.33549952610622    0.24210663830688
    0.54585659738781    0.03602547198417    0.07814352979896
    1.02312980874652    0.55544318182355    0.08496653229967
    0.50895746562791    0.51994969634811    0.07231389824519
    0.50745774989787    1.03495399616193    0.57493025468819
    0.02887896484711    0.51026821346391    0.57768363567559
    0.55190462858037    0.55770310406042    0.56978980398827
    0.03171353771298    0.51211085587587    0.91373460358924
    0.50265320307233    1.03971092128346    0.90877384804092
    0.31829332749142    0.85714849649744    0.74273849694468
    0.79186684246570    0.21689324567390    0.06419003295882
    1.02571852378557    0.56341306107006    0.39799948870806
    0.64417734039748    0.14277298908898    0.07839699360906
    0.13016154936894    0.61245532216837    0.56970500876598
    0.04602567978366    0.69331930863119    0.54233049476851
    0.31539433314031    0.48280295045197    0.53501109442790
    0.35825850615666    0.44128662007429    0.68184178026916
    0.45297953325395    0.55836959082508    0.56468114371731
    0.35700510261695    0.39168091127484    0.53923801045912
    0.21381741649477    0.46021172848638    0.93694939480722
    0.11161667093723    0.43094033518740    0.80203587096407
    0.14064422841079    0.53253604002186    0.91221994837059
    0.07668619809353    0.39754552870839    0.97419121248637
    0.26088248417239    0.85244706501444    0.93128668784444
    0.33799315369420    0.95690922957770    0.79492214546052
    0.40757764621041    0.93022587590944    0.91273392888578
    0.33579132698473    0.99282064797410    0.96434578131825
    0.60734734064035    0.80998484448308    0.92720602689716
    0.64964823647656    0.75426537756694    0.79211515307895
    0.53593556235271    0.66235382775289    0.89894039184306
    0.38296305171550    0.34774166258494    0.45873703399474
    0.52006548786064    0.42485566811864    0.40907993813395
    0.41972179128011    0.34810487446329    0.29884770389907
    0.45109393750546    0.27292080346418    0.43066035702329
    0.72215322618216    0.08209130580752    0.46437960809487
    0.65431314187236    0.15715609300142    0.40856223098105
    0.08439265387944    0.68763002359377    0.68098805161690
    0.72036509933456    0.11986365215202    0.30926616599351
    0.71757970581184    0.11652249025472    0.19577520485462
    0.97770883855586    0.67924685521852    0.46170093067598
    0.91734428953792    0.54045195633442    0.42064010815498
    0.93790926023648    0.63572613921555    0.30054539980566
    0.83916549459892    0.61411685329453    0.43369070285579
    0.67374487053780    0.73921233476119    0.95799263566676
    0.80281386065480    0.22401694336614    0.44399885301058
    0.17771352553909    0.75225371550584    0.54235701128676
    0.97438370487503    0.38588528387853    0.31492340123304
    0.49867619667919    0.93018158136454    0.57677716881063
    0.08079550080609    0.38545056630747    0.52939264346227
    0.13703639088715    0.52779925823525    0.57595602197378
    0.11380540185465    0.42866009307332    0.68822651974974
    0.21934290219655    0.46370764314631    0.54657234018095
    0.38295838456414    0.34729302116270    0.01821167108342
    0.52161562819303    0.42611954537546    0.07297761839087
    0.41954914538227    0.34942812368573    0.18478108561946
    0.44923292885832    0.27563413779835    0.04962063333939
    0.71396027170286    0.07737202077074    0.02342430442958
    0.25783414447812    0.85044641670011    0.54873028323863
    0.33594683086842    0.95426141654742    0.68105849634301
    0.40975902013508    0.92705406727711    0.57707758832829
    0.34149149551461    0.99492277754022    0.51877197390093
    0.60839589449463    0.80152487470178    0.54613301984655
    0.64830930474389    0.74629225932913    0.67871092110153
    0.66594760551762    1.00946678364416    0.54402033230682
    0.67756925315734    0.73411868027556    0.51348259727119
    0.53964106779364    0.65163675472588    0.56581858983693
    0.58872555830632    0.87846277347852    0.53921061894955
    0.69183903033265    0.68599791000514    0.03802491982851
    0.60801084967714    0.51949014579931    0.06912677640639
    0.61709101545277    0.97244871272681    0.67953983449766
    0.75370457631620    0.61036021016606    0.04022900686558
    1.00951162162364    0.37660085161932    0.05846399813746
    0.68047619960253    0.63441955332935    0.17677206367368
    0.97054985112159    0.38174399377763    0.20133801720083
    0.87549388184862    0.31324918562484    0.06343900364983
    0.39004308777606    0.06136879857667    0.04546591861486
    0.55634437058322    0.14172939160668    0.07263518089819
    0.44466501237032    0.11076659194708    0.18366260005127
    0.92297206226654    0.45142894247973    0.08765083060724
    0.46950471008006    0.19890154209478    0.04761179406452
    0.50087215590382    1.01933451562278    0.42376198577820
    0.82280582058172    0.78504965477632    0.82716258645039
    0.78531418168310    0.70542903957057    0.75849791041317
    0.50549390993861    0.85500538799309    0.79665327902336
    0.55888652532104    0.07013970898614    0.92274202480847
    0.35346953583784    0.55321065149954    0.78979567142757
    1.00071484900177    0.53617232247430    0.92699951831516
    0.52012889728379    0.51080154083507    0.91902812357191
    0.55148631970326    0.23532602250598    0.29231358232885
    0.85769190551855    0.37889798830970    0.31478694488655
    0.20802079709627    0.71150235986102    0.79293742088398
    0.27045981161917    0.96569980129157    0.32007051144824
    0.90002832091940    0.13451920612898    0.11662811404382
    0.80044272302081    0.16076867229703    0.73945889013688
    0.81075490664307    0.10098678533147    0.66771860628813
    0.35440814897103    0.21436263999653    0.72393380171921
    0.34021645237492    0.27329894903390    0.65111765460016
    0.93991710389185    0.10497357267135    0.03780112482624
    0.10933381353058    0.96329647983551    0.55357690601428
    0.15154233106519    0.92487456252256    0.62117315624902
    0.99573058462516    0.78550173144728    0.79048897341327
    0.21440043013358    0.37174289607272    0.66381599101648
    0.05922705979828    0.54073882763495    0.40259318416137
    0.75523732953413    0.39717844732441    0.35214132207700
    0.86474207277064    0.19389863695376    0.21498605995771
    0.20476409158406    0.89094609543973    0.25358777476727
    0.74841436717467    0.96977950785903    0.72142188648873
    0.70099634556831    0.53371850870938    0.29412863886451
    0.81374863001961    0.53486551921129    0.18788036416806
    0.36626562293171    0.55965474118729    0.67823606461539
    0.53479470698639    0.57618143314270    0.41548647405983
    0.52421646940896    0.50022456029671    0.56024137063450
    0.23393271325148    0.53811873267942    0.79847098456051
    1.00773235814787    0.45542109224885    0.90101584275150
    0.32133977597339    0.83510528612295    0.79940332005851
    0.47280858305101    0.06503617871852    0.89356157368586
    0.54007830955717    0.75883528771568    0.78474394857565
    0.60459844665489    0.59993412634071    0.89289407524848
    0.81456394740761    0.53048868826804    0.30021491674598
    0.04615351972894    0.61948855634634    0.38188311976885
    0.76111176038737    0.24992708134558    0.29965922145921
    0.58581293114350    1.02200268618237    0.39641482632184
    0.52391254056285    0.33440872045996    0.29824943621481
    0.45094356845727    0.48682787694181    0.39222661311139
    0.99897653923061    0.53580845978302    0.56379695742912
    0.20312614293094    0.69949837116880    0.68187638487409
    0.05441131377355    0.53181060835233    0.07122206360838
    0.51635516149365    0.84680249109268    0.68669751987851
    0.48937481915812    1.00814459409747    0.06571911969430
    0.55357318508569    0.23296606069099    0.18009972622193
    0.60868024388185    0.59030599722054    0.57997434955713
    0.52897911556420    0.73299964898804    0.67689586350895
    0.47910725467147    0.06205838695816    0.58717592296119
    0.84837811349552    0.35911354794422    0.20529188711490
    0.56420260515447    0.06364058065866    0.56294127769228
    1.00380503565691    0.45359168739848    0.59420673272635
    0.30757976169501    0.82831163959235    0.68835972939615
    0.45256699161768    0.48733030389958    0.08575650307341
    0.52193030776183    0.33172172411388    0.18625624680124
    0.57365900560692    1.00814367566645    0.09114933288335
    0.73093118058619    0.23801480264012    0.19270436051749
    0.04686564907244    0.61177040711139    0.09928939500705
    0.69980532889391    0.53258503655958    0.18199580363405
    0.53612282241430    0.57744600424789    0.05996813195694
    0.23933895885250    0.52817618743162    0.68787252694923
    0.58314811366466    0.95810454329516    0.88884630160369
    0.10902251907540    0.67926300842504    0.89036391064483
    0.38095491567873    0.47972926650951    0.89012003402486
    0.47711999097358    0.12977199421283    0.39375189751174
    0.91653645671556    0.61564852556900    0.08828849119222
    0.67628357898429    0.60520853241261    0.38790251834885
    0.44143396304962    0.34349279778309    0.39618685902032
    0.72889801437432    0.14973468262786    0.40408067424341
    0.91468301036791    0.61735000588353    0.39905156059719
    0.61799554186800    0.74286059206609    0.88872035124358
    0.33195562592241    0.93397711332928    0.89521627443832
    0.13552920627214    0.45135244432281    0.90069972269082
    0.37964888469111    0.47206572391765    0.58356191660505
    0.95408996318871    0.39687762682729    0.41084657592460
    0.10611210593175    0.67559693073056    0.58617037061236
    0.94723180163600    0.38845776635991    0.10522125807376
    0.47097416314608    0.12505114422571    0.08584189519783
    0.61934398991916    0.73253485600014    0.58168593102829
    0.33180178503023    0.92870614822026    0.58429161679570
    0.14189510597095    0.45087765113951    0.59081192156146
    0.44055032919394    0.34535582631093    0.08645439827894
    0.71802506219288    0.13504473688164    0.09525701630939
    0.67912038077804    0.60721706947508    0.08054783114272
    0.58451847968014    0.94700872601629    0.58486584528074

 Bond Distances (Angstroems)
 ---------------------------
C1-C139=1.4221       C1-C154=1.3912       C1-N489=1.3905       C2-C4=1.3819         C2-N431=1.4055       C3-C4=1.3892         
C3-Cl241=1.7090      C4-C2=1.3819         C4-C3=1.3892         C4-H259=1.0743       C5-C171=1.3714       C5-H260=1.0779       
C5-N430=1.3795       C6-C231=1.3711       C6-N505=1.3823       C7-C9=1.3927         C7-C182=1.4177       C7-N429=1.4054       
C8-C9=1.3790         C8-C166=1.4001       C8-H262=1.0775       C9-C7=1.3927         C9-C8=1.3790         C9-H263=1.0776       
C10-C12=1.3815       C10-N428=1.4057      C11-C12=1.3888       C11-Cl247=1.7093     C12-C10=1.3815       C12-C11=1.3888       
C12-H264=1.0739      C13-C163=1.3701      C13-H265=1.0804      C13-N427=1.3809      C14-C30=1.3747       C14-C44=1.3977       
C14-H270=1.0776      C15-C212=1.3712      C15-N426=1.3791      C16-C28=1.3935       C16-C121=1.3787      C16-H268=1.0782      
C17-C19=1.3815       C17-N424=1.4044      C18-C19=1.3887       C18-Cl246=1.7102     C19-C17=1.3815       C19-C18=1.3887       
C19-H269=1.0739      C20-C179=1.3709      C20-H266=1.0798      C20-N422=1.3797      C21-C143=1.3717      C21-H271=1.0776      
C21-N413=1.3812      C22-C24=1.3823       C22-C149=1.4235      C23-C24=1.3908       C23-C137=1.4023      C23-Cl245=1.7014     
C24-C22=1.3823       C24-C23=1.3908       C24-H272=1.0770      C25-C27=1.3802       C25-N415=1.4018      C26-C27=1.3876       
C26-Cl244=1.7085     C27-C25=1.3802       C27-C26=1.3876       C27-H273=1.0740      C28-C16=1.3935       C28-C157=1.4183      
C28-N438=1.4052      C29-C134=1.3709      C29-H292=1.0794      C29-N416=1.3800      C30-C14=1.3747       C30-C174=1.4050      
C30-H275=1.0771      C31-C239=1.3721      C31-H285=1.0779      C31-N432=1.3829      C32-C119=1.3730      C32-C120=1.3918      
C32-H334=1.0742      C33-C228=1.3711      C33-H312=1.0797      C33-N512=1.3802      C34-C156=1.3732      C34-H278=1.0826      
C34-N513=1.3800      C35-C37=1.3944       C36-C37=1.3709       C36-C186=1.4034      C36-H279=1.0768      C37-C35=1.3944       
C37-C36=1.3709       C37-H280=1.0732      C38-C40=1.3924       C38-N515=1.4002      C39-C40=1.3738       C39-H281=1.0772      
C40-C38=1.3924       C40-C39=1.3738       C40-H282=1.0747      C41-C184=1.3713      C41-H283=1.0791      C41-N471=1.3795      
C42-C164=1.3718      C42-N497=1.3784      C43-C58=1.3932       C44-C14=1.3977       C44-C173=1.4232      C44-N425=1.3991      
C45-C58=1.3681       C45-C229=1.4007      C45-H286=1.0769      C46-C48=1.3940       C46-N453=1.3984      C47-C48=1.3736       
C47-H287=1.0761      C48-C46=1.3940       C48-C47=1.3736       C48-H288=1.0745      C49-C232=1.3710      C49-H289=1.0798      
C49-N437=1.3805      C50-C172=1.3722      C50-N436=1.3786      C51-C53=1.3892       C52-C53=1.3714       C52-C237=1.3954      
C52-H291=1.0773      C53-C51=1.3892       C53-C52=1.3714       C53-H276=1.0725      C54-C56=1.3813       C54-C188=1.4218      
C54-N434=1.4047      C55-C56=1.3892       C55-C189=1.4039      C55-Cl248=1.7099     C56-C54=1.3813       C56-C55=1.3892       
C56-H293=1.0739      C57-C155=1.3711      C57-H277=1.0795      C57-N433=1.3805      C58-C43=1.3932       C58-C45=1.3681       
C58-H294=1.0719      C59-C226=1.3717      C59-N423=1.3808      C60-N418=1.4053      C61-C92=1.3887       C61-C129=1.4027      
C61-Cl243=1.7034     C62-N437=1.3635      C62-N461=1.4486      C62-N537=1.3603      C63-N460=1.4470      C63-N471=1.3631      
C63-N535=1.3611      C64-N459=1.4421      C64-N491=1.3604      C64-N513=1.3612      C65-N458=1.4425      C65-N496=1.3583      
C65-N497=1.3604      C66-N436=1.3613      C66-N457=1.4440      C66-N500=1.3613      C67-N456=1.4430      C67-N487=1.3605      
C67-N521=1.3607      C68-N468=1.4418      C68-N483=1.3607      C68-N517=1.3606      C69-N455=1.4417      C69-N479=1.3609      
C69-N509=1.3601      C70-N413=1.3598      C70-N440=1.4423      C70-N475=1.3608      C71-N423=1.3593      C71-N452=1.4437      
C71-N495=1.3604      C72-N420=1.3602      C72-N451=1.4439      C72-N528=1.3587      C73-N432=1.3605      C73-N450=1.4433      
C73-N531=1.3588      C74-N462=1.4482      C74-N512=1.3639      C74-N527=1.3621      C75-N449=1.4440      C75-N505=1.3600      
C75-N532=1.3593      C76-H331=1.0780      C76-N438=1.3522      C76-N492=1.3474      C77-H332=1.0778      C77-N429=1.3513      
C77-N503=1.3460      C78-H316=1.0774      C78-N425=1.3565      C78-N501=1.3438      C79-H315=1.0772      C79-N421=1.3456      
C79-N486=1.3546      C80-H314=1.0770      C80-N418=1.3449      C80-N482=1.3550      C81-H313=1.0775      C81-N414=1.3450      
C81-N478=1.3554      C82-H298=1.0772      C82-N474=1.3559      C82-N510=1.3470      C83-H299=1.0764      C83-N504=1.3509      
C83-N516=1.3468      C84-H300=1.0784      C84-N520=1.3455      C84-N525=1.3551      C85-H301=1.0769      C85-N435=1.3501      
C85-N529=1.3477      C86-H302=1.0780      C86-N469=1.3562      C86-N533=1.3446      C87-H303=1.0765      C87-N514=1.3561      
C87-N538=1.3452      C88-N426=1.3602      C88-N448=1.4424      C88-N536=1.3608      C89-N463=1.4488      C89-N506=1.3611      
C89-N518=1.3645      C90-N464=1.4480      C90-N472=1.3599      C90-N508=1.3652      C91-N465=1.4464      C91-N476=1.3628      
C91-N524=1.3637      C92-C61=1.3887       C92-H324=1.0767      C93-C95=1.3806       C93-N417=1.4014      C94-C95=1.3874       
C94-Cl242=1.7101     C95-C93=1.3806       C95-C94=1.3874       C95-H297=1.0739      C96-C126=1.3713      C96-H317=1.0793      
C96-N419=1.3797      C97-C220=1.3707      C97-N420=1.3828      C98-C100=1.3821      C98-C151=1.4235      C99-C100=1.3899      
C99-C150=1.4023      C99-Cl249=1.6999     C100-C98=1.3821      C100-C99=1.3899      C100-H318=1.0768     C101-H319=1.0787     
C101-N477=1.3455     C101-N489=1.3536     C102-N522=1.3438     C103-H321=1.0767     C103-N498=1.3511     C104-H322=1.0772     
C104-N526=1.3440     C105-H323=1.0769     C106-H325=1.0770     C107-H333=1.0770     C107-N434=1.3444     C107-N523=1.3543     
C108-H326=1.0768     C108-N519=1.3535     C109-H327=1.0776     C109-N507=1.3561     C110-H328=1.0767     C110-N424=1.3445     
C111-H329=1.0765     C112-H330=1.0770     C113-N433=1.3620     C113-N439=1.4494     C113-N490=1.3639     C114-N427=1.3611     
C114-N454=1.4500     C114-N494=1.3641     C115-N430=1.3606     C115-N470=1.4482     C115-N499=1.3636     C116-N422=1.3612     
C116-N441=1.4477     C116-N488=1.3642     C117-N419=1.3607     C117-N467=1.4480     C117-N484=1.3631     C118-N416=1.3602     
C118-N466=1.4481     C118-N480=1.3628     C119-C32=1.3730      C119-H372=1.0763     C120-C32=1.3918      C120-N511=1.3957     
C121-C16=1.3787      C121-C158=1.3992     C121-H267=1.0771     C122-C145=1.4047     C122-C165=1.3863     C122-Cl258=1.7126    
C123-C125=1.3929     C123-N485=1.3948     C124-C125=1.3726     C124-H339=1.0763     C125-C123=1.3929     C125-C124=1.3726     
C125-H340=1.0748     C126-C96=1.3713      C126-H341=1.0789     C126-N484=1.3801     C127-C200=1.3725     C127-N483=1.3782     
C128-C130=1.3937     C129-C61=1.4027      C129-C130=1.3699     C129-H343=1.0766     C130-C128=1.3937     C130-C129=1.3699     
C130-H344=1.0730     C131-C133=1.3867     C131-N481=1.3996     C132-C133=1.3746     C132-H345=1.0772     C133-C131=1.3867     
C133-C132=1.3746     C133-H346=1.0744     C134-C29=1.3709      C134-H347=1.0794     C134-N480=1.3803     C135-C150=1.3695     
C135-C151=1.3943     C135-H338=1.0728     C136-C208=1.3727     C136-N479=1.3783     C137-C23=1.4023      C137-C138=1.3697     
C137-H349=1.0781     C138-C137=1.3697     C138-C149=1.3949     C138-H350=1.0727     C139-C1=1.4221       C139-C141=1.3833     
C139-N477=1.4119     C140-C141=1.3894     C140-C153=1.4013     C140-Cl256=1.7093    C141-C139=1.3833     C141-C140=1.3894     
C141-H351=1.0727     C142-C191=1.3712     C142-H363=1.0786     C142-N476=1.3799     C143-C21=1.3717      C143-H373=1.0776     
C143-N475=1.3800     C144-C146=1.3969     C144-C209=1.4238     C144-N474=1.3974     C145-C122=1.4047     C145-C146=1.3738     
C145-H387=1.0771     C146-C144=1.3969     C146-C145=1.3738     C146-H375=1.0781     C147-C180=1.3833     C147-N473=1.4020     
C148-C180=1.3794     C148-N442=1.4543     C149-C22=1.4235      C149-C138=1.3949     C150-C99=1.4023      C150-C135=1.3695     
C150-H337=1.0775     C151-C98=1.4235      C151-C135=1.3943     C152-C192=1.3712     C152-H352=1.0762     C152-N487=1.3783     
C153-C140=1.4013     C153-C154=1.3709     C153-H356=1.0761     C154-C1=1.3912       C154-C153=1.3709     C154-H357=1.0742     
C155-C57=1.3711      C155-H358=1.0797     C155-N490=1.3804     C156-C34=1.3732      C156-H359=1.0772     C156-N491=1.3784     
C157-C28=1.4183      C157-C159=1.3793     C157-N492=1.3996     C158-C121=1.3992     C158-C159=1.3746     C158-N444=1.4573     
C159-C157=1.3793     C159-C158=1.3746     C159-H360=1.0716     C160-C162=1.3919     C160-N493=1.3959     C161-C162=1.3726     
C161-H361=1.0763     C162-C160=1.3919     C162-C161=1.3726     C162-H362=1.0743     C163-C13=1.3701      C163-H364=1.0803     
C163-N494=1.3816     C164-C42=1.3718      C164-N496=1.3783     C165-C122=1.3863     C165-C209=1.3811     C165-H336=1.0723     
C166-C8=1.4001       C166-C167=1.3762     C166-N445=1.4640     C167-C166=1.3762     C167-C182=1.3812     C167-H366=1.0710     
C168-C170=1.3876     C168-N498=1.4030     C169-C170=1.3754     C169-H367=1.0772     C170-C168=1.3876     C170-C169=1.3754     
C170-H368=1.0740     C171-C5=1.3714       C171-H369=1.0790     C171-N499=1.3787     C172-C50=1.3722      C172-N500=1.3781     
C173-C44=1.4232      C173-C175=1.3802     C173-N501=1.4033     C174-C30=1.4050      C174-C175=1.3844     C174-Cl257=1.7131    
C175-C173=1.3802     C175-C174=1.3844     C175-H371=1.0721     C176-C178=1.3920     C176-N502=1.3952     C177-C178=1.3729     
C177-H355=1.0764     C178-C176=1.3920     C178-C177=1.3729     C178-H354=1.0748     C179-C20=1.3709      C179-H353=1.0797     
C179-N488=1.3805     C180-C147=1.3833     C180-C148=1.3794     C180-H396=1.0740     C181-C207=1.3721     C181-H398=1.0786     
C181-N472=1.3805     C182-C7=1.4177       C182-C167=1.3812     C182-N503=1.4017     C183-C201=1.4185     C183-C215=1.3922     
C183-N504=1.4016     C184-C41=1.3713      C184-H383=1.0794     C184-N535=1.3797     C185-N538=1.4027     C186-C36=1.4034      
C186-C187=1.3875     C186-Cl251=1.7017    C187-C186=1.3875     C187-H377=1.0772     C188-C54=1.4218      C188-C190=1.3905     
C188-N523=1.3946     C189-C55=1.4039      C189-C190=1.3725     C189-H378=1.0762     C190-C188=1.3905     C190-C189=1.3725     
C190-H379=1.0741     C191-C142=1.3712     C191-H380=1.0793     C191-N524=1.3790     C192-C152=1.3712     C192-H381=1.0779     
C192-N521=1.3797     C193-C195=1.3800     C193-C221=1.4226     C193-N520=1.4040     C194-C195=1.3846     C194-C222=1.4055     
C194-Cl250=1.7140    C195-C193=1.3800     C195-C194=1.3846     C195-H382=1.0722     C196-C211=1.3894     C196-C224=1.3816     
C196-H393=1.0739     C197-C198=1.3922     C197-N519=1.3953     C198-C197=1.3922     C198-C210=1.3731     C198-H390=1.0754     
C199-C219=1.3714     C199-H389=1.0797     C199-N518=1.3806     C200-C127=1.3725     C200-N517=1.3778     C201-C183=1.4185     
C201-C203=1.3802     C201-N516=1.4023     C202-C203=1.3764     C202-C214=1.3981     C202-N446=1.4550     C203-C201=1.3802     
C203-C202=1.3764     C203-H394=1.0718     C204-C206=1.3924     C204-N507=1.3971     C205-C206=1.3724     C205-H386=1.0760     
C206-C204=1.3924     C206-C205=1.3724     C206-H385=1.0746     C207-C181=1.3721     C207-H392=1.0802     C207-N508=1.3807     
C208-C136=1.3727     C208-N509=1.3783     C209-C144=1.4238     C209-C165=1.3811     C209-N510=1.4082     C210-C198=1.3731     
C210-H391=1.0776     C211-C196=1.3894     C211-Cl252=1.7100    C212-C15=1.3712      C212-N536=1.3798     C213-C229=1.3900     
C213-H335=1.0764     C214-C202=1.3981     C214-C215=1.3770     C214-H399=1.0778     C215-C183=1.3922     C215-C214=1.3770     
C215-H400=1.0775     C216-C218=1.3822     C216-N522=1.4060     C217-C218=1.3899     C217-Cl255=1.7103    C218-C216=1.3822     
C218-C217=1.3899     C218-H401=1.0755     C219-C199=1.3714     C219-H402=1.0797     C219-N506=1.3799     C220-C97=1.3707      
C220-N528=1.3802     C221-C193=1.4226     C221-C223=1.3968     C221-N525=1.3974     C222-C194=1.4055     C222-C223=1.3745     
C222-H411=1.0762     C223-C221=1.3968     C223-C222=1.3745     C223-H405=1.0781     C224-C196=1.3816     C224-N534=1.4070     
C225-C230=1.3892     C225-Cl254=1.7110    C226-C59=1.3717      C226-N495=1.3829     C227-C230=1.3815     C227-N526=1.4054     
C228-C33=1.3711      C228-H407=1.0792     C228-N527=1.3802     C229-C45=1.4007      C229-C213=1.3900     C229-Cl253=1.7015    
C230-C225=1.3892     C230-C227=1.3815     C230-H406=1.0741     C231-C6=1.3711       C231-N532=1.3803     C232-C49=1.3710      
C232-H410=1.0792     C232-N537=1.3802     C233-C235=1.3844     C233-C240=1.3820     C233-H412=1.0738     C234-N533=1.4059     
C235-C233=1.3844     C235-N530=1.4034     C236-C237=1.3830     C236-H409=1.0749     C237-C52=1.3954      C237-C236=1.3830     
C237-N447=1.4614     C238-N529=1.4063     C239-C31=1.3721      C239-H408=1.0771     C239-N531=1.3805     C240-C233=1.3820     
C240-N443=1.4567     Cl241-C3=1.7090      Cl242-C94=1.7101     Cl243-C61=1.7034     Cl244-C26=1.7085     Cl245-C23=1.7014     
Cl246-C18=1.7102     Cl247-C11=1.7093     Cl248-C55=1.7099     Cl249-C99=1.6999     Cl250-C194=1.7140    Cl251-C186=1.7017    
Cl252-C211=1.7100    Cl253-C229=1.7015    Cl254-C225=1.7110    Cl255-C217=1.7103    Cl256-C140=1.7093    Cl257-C174=1.7131    
Cl258-C122=1.7126    H259-C4=1.0743       H260-C5=1.0779       H262-C8=1.0775       H263-C9=1.0776       H264-C12=1.0739      
H265-C13=1.0804      H266-C20=1.0798      H267-C121=1.0771     H268-C16=1.0782      H269-C19=1.0739      H270-C14=1.0776      
H271-C21=1.0776      H272-C24=1.0770      H273-C27=1.0740      H275-C30=1.0771      H276-C53=1.0725      H277-C57=1.0795      
H278-C34=1.0826      H279-C36=1.0768      H280-C37=1.0732      H281-C39=1.0772      H282-C40=1.0747      H283-C41=1.0791      
H285-C31=1.0779      H286-C45=1.0769      H287-C47=1.0761      H288-C48=1.0745      H289-C49=1.0798      H291-C52=1.0773      
H292-C29=1.0794      H293-C56=1.0739      H294-C58=1.0719      H297-C95=1.0739      H298-C82=1.0772      H299-C83=1.0764      
H300-C84=1.0784      H301-C85=1.0769      H302-C86=1.0780      H303-C87=1.0765      H304-O559=0.9688     H305-O559=0.9711     
H306-O560=0.9796     H307-O560=0.9816     H308-O565=0.9769     H309-O565=0.9721     H310-O562=0.9760     H311-O562=0.9764     
H312-C33=1.0797      H313-C81=1.0775      H314-C80=1.0770      H315-C79=1.0772      H316-C78=1.0774      H317-C96=1.0793      
H318-C100=1.0768     H319-C101=1.0787     H321-C103=1.0767     H322-C104=1.0772     H323-C105=1.0769     H324-C92=1.0767      
H325-C106=1.0770     H326-C108=1.0768     H327-C109=1.0776     H328-C110=1.0767     H329-C111=1.0765     H330-C112=1.0770     
H331-C76=1.0780      H332-C77=1.0778      H333-C107=1.0770     H334-C32=1.0742      H335-C213=1.0764     H336-C165=1.0723     
H337-C150=1.0775     H338-C135=1.0728     H339-C124=1.0763     H340-C125=1.0748     H341-C126=1.0789     H343-C129=1.0766     
H344-C130=1.0730     H345-C132=1.0772     H346-C133=1.0744     H347-C134=1.0794     H349-C137=1.0781     H350-C138=1.0727     
H351-C141=1.0727     H352-C152=1.0762     H353-C179=1.0797     H354-C178=1.0748     H355-C177=1.0764     H356-C153=1.0761     
H357-C154=1.0742     H358-C155=1.0797     H359-C156=1.0772     H360-C159=1.0716     H361-C161=1.0763     H362-C162=1.0743     
H363-C142=1.0786     H364-C163=1.0803     H366-C167=1.0710     H367-C169=1.0772     H368-C170=1.0740     H369-C171=1.0790     
H371-C175=1.0721     H372-C119=1.0763     H373-C143=1.0776     H374-O563=0.9792     H375-C146=1.0781     H377-C187=1.0772     
H378-C189=1.0762     H379-C190=1.0741     H380-C191=1.0793     H381-C192=1.0779     H382-C195=1.0722     H383-C184=1.0794     
H385-C206=1.0746     H386-C205=1.0760     H387-C145=1.0771     H389-C199=1.0797     H390-C198=1.0754     H391-C210=1.0776     
H392-C207=1.0802     H393-C196=1.0739     H394-C203=1.0718     H396-C180=1.0740     H397-O563=0.9758     H398-C181=1.0786     
H399-C214=1.0778     H400-C215=1.0775     H401-C218=1.0755     H402-C219=1.0797     H405-C223=1.0781     H406-C230=1.0741     
H407-C228=1.0792     H408-C239=1.0771     H409-C236=1.0749     H410-C232=1.0792     H411-C222=1.0762     H412-C233=1.0738     
N413-C21=1.3812      N413-C70=1.3598      N413-Zn606=1.9929    N414-C81=1.3450      N414-Zn606=1.9894    N415-C25=1.4018      
N415-Zn605=1.9542    N416-C29=1.3800      N416-C118=1.3602     N416-Zn605=1.9680    N417-C93=1.4014      N417-Zn604=1.9563    
N418-C60=1.4053      N418-C80=1.3449      N418-Zn605=1.9874    N419-C96=1.3797      N419-C117=1.3607     N419-Zn604=1.9689    
N420-C72=1.3602      N420-C97=1.3828      N420-Zn604=1.9780    N421-C79=1.3456      N421-Zn604=1.9918    N422-C20=1.3797      
N422-C116=1.3612     N422-Zn606=1.9885    N423-C59=1.3808      N423-C71=1.3593      N423-Zn605=1.9819    N424-C17=1.4044      
N424-C110=1.3445     N424-Zn606=1.9749    N425-C44=1.3991      N425-C78=1.3565      N425-Zn609=2.0079    N426-C15=1.3791      
N426-C88=1.3602      N426-Zn607=1.9872    N427-C13=1.3809      N427-C114=1.3611     N427-Zn607=1.9833    N428-C10=1.4057      
N428-Zn607=1.9807    N429-C7=1.4054       N429-C77=1.3513      N429-Zn617=1.9925    N430-C5=1.3795       N430-C115=1.3606     
N430-Zn617=1.9817    N431-C2=1.4055       N431-Zn617=1.9627    N432-C31=1.3829      N432-C73=1.3605      N432-Zn609=1.9954    
N433-C57=1.3805      N433-C113=1.3620     N433-Zn609=1.9765    N434-C54=1.4047      N434-C107=1.3444     N434-Zn609=1.9589    
N435-C85=1.3501      N435-Zn608=1.9996    N436-C50=1.3786      N436-C66=1.3613      N436-Zn608=1.9824    N437-C49=1.3805      
N437-C62=1.3635      N437-Zn608=1.9813    N438-C28=1.4052      N438-C76=1.3522      N438-Zn607=1.9883    N439-C113=1.4494     
N439-O569=1.2375     N439-O582=1.2381     N440-C70=1.4423      N440-O544=1.2341     N440-O568=1.2341     N441-C116=1.4477     
N441-O546=1.2371     N441-O576=1.2372     N442-C148=1.4543     N442-O557=1.2383     N442-O558=1.2387     N443-C240=1.4567     
N443-O551=1.2371     N443-O556=1.2385     N444-C158=1.4573     N444-O554=1.2345     N444-O555=1.2369     N445-C166=1.4640     
N445-O552=1.2363     N445-O553=1.2383     N446-C202=1.4550     N446-O550=1.2361     N446-O564=1.2355     N447-C237=1.4614     
N447-O540=1.2378     N447-O541=1.2368     N448-C88=1.4424      N448-O547=1.2346     N448-O588=1.2348     N449-C75=1.4440      
N449-O548=1.2344     N449-O592=1.2341     N450-C73=1.4433      N450-O566=1.2340     N450-O601=1.2342     N451-C72=1.4439      
N451-O542=1.2351     N451-O586=1.2354     N452-C71=1.4437      N452-O549=1.2342     N452-O584=1.2340     N453-C46=1.3984      
N453-Zn608=1.9659    N454-C114=1.4500     N455-C69=1.4417      N455-O571=1.2340     N455-O603=1.2342     N456-C67=1.4430      
N456-O575=1.2336     N456-O590=1.2342     N457-C66=1.4440      N457-O567=1.2349     N457-O577=1.2359     N458-C65=1.4425      
N458-O579=1.2346     N458-O599=1.2341     N459-C64=1.4421      N459-O581=1.2337     N459-O597=1.2329     N460-C63=1.4470      
N461-C62=1.4486      N462-C74=1.4482      N462-O596=1.2380     N462-O602=1.2376     N463-C89=1.4488      N464-C90=1.4480      
N465-C91=1.4464      N465-O570=1.2371     N465-O589=1.2377     N466-C118=1.4481     N467-C117=1.4480     N468-C68=1.4418      
N468-O573=1.2336     N468-O595=1.2335     N469-C86=1.3562      N469-Zn625=1.9902    N470-C115=1.4482     N471-C41=1.3795      
N471-C63=1.3631      N471-Zn625=1.9905    N472-C90=1.3599      N472-C181=1.3805     N472-Zn618=1.9871    N473-C147=1.4020     
N473-Zn618=1.9655    N474-C82=1.3559      N474-C144=1.3974     N474-Zn616=1.9973    N475-C70=1.3608      N475-C143=1.3800     
N475-Zn616=2.0009    N476-C91=1.3628      N476-C142=1.3799     N476-Zn616=1.9941    N477-C101=1.3455     N477-C139=1.4119     
N477-Zn616=1.9832    N478-C81=1.3554      N478-Zn615=1.9900    N479-C69=1.3609      N479-C136=1.3783     N479-Zn615=1.9928    
N480-C118=1.3628     N480-C134=1.3803     N480-Zn615=1.9711    N481-C131=1.3996     N481-Zn615=1.9679    N482-C80=1.3550      
N482-Zn614=1.9890    N483-C68=1.3607      N483-C127=1.3782     N483-Zn614=1.9931    N484-C117=1.3631     N484-C126=1.3801     
N484-Zn614=1.9808    N485-C123=1.3948     N485-Zn614=1.9688    N486-C79=1.3546      N486-Zn613=1.9839    N487-C67=1.3605      
N487-C152=1.3783     N487-Zn613=1.9912    N488-C116=1.3642     N488-C179=1.3805     N488-Zn613=1.9945    N489-C1=1.3905       
N489-C101=1.3536     N489-Zn610=1.9579    N490-C113=1.3639     N490-C155=1.3804     N490-Zn610=1.9757    N491-C64=1.3604      
N491-C156=1.3784     N491-Zn610=1.9742    N492-C76=1.3474      N492-C157=1.3996     N492-Zn610=1.9922    N493-C160=1.3959     
N493-Zn611=1.9565    N494-C114=1.3641     N494-C163=1.3816     N494-Zn611=1.9830    N495-C71=1.3604      N495-C226=1.3829     
N495-Zn618=1.9901    N496-C65=1.3583      N496-C164=1.3783     N496-Zn611=1.9623    N497-C42=1.3784      N497-C65=1.3604      
N497-Zn625=1.9861    N498-C103=1.3511     N498-C168=1.4030     N498-Zn612=1.9652    N499-C115=1.3636     N499-C171=1.3787     
N499-Zn612=1.9817    N500-C66=1.3613      N500-C172=1.3781     N500-Zn612=1.9685    N501-C78=1.3438      N501-C173=1.4033     
N501-Zn612=1.9811    N502-C176=1.3952     N502-Zn613=1.9686    N503-C77=1.3460      N503-C182=1.4017     N503-Zn611=1.9809    
N504-C83=1.3509      N504-C183=1.4016     N504-Zn618=1.9883    N505-C6=1.3823       N505-C75=1.3600      N505-Zn617=1.9897    
N506-C89=1.3611      N506-C219=1.3799     N506-Zn627=1.9810    N507-C109=1.3561     N507-C204=1.3971     N507-Zn623=1.9679    
N508-C90=1.3652      N508-C207=1.3807     N508-Zn623=1.9925    N509-C69=1.3601      N509-C208=1.3783     N509-Zn623=1.9788    
N510-C82=1.3470      N510-C209=1.4082     N510-Zn623=1.9988    N511-C120=1.3957     N511-Zn624=1.9726    N512-C33=1.3802      
N512-C74=1.3639      N512-Zn624=1.9910    N513-C34=1.3800      N513-C64=1.3612      N513-Zn624=1.9960    N514-C87=1.3561      
N514-Zn624=2.0031    N515-C38=1.4002      N515-Zn625=1.9828    N516-C83=1.3468      N516-C201=1.4023     N516-Zn622=1.9959    
N517-C68=1.3606      N517-C200=1.3778     N517-Zn622=1.9748    N518-C89=1.3645      N518-C199=1.3806     N518-Zn622=1.9903    
N519-C108=1.3535     N519-C197=1.3953     N519-Zn622=1.9649    N520-C84=1.3455      N520-C193=1.4040     N520-Zn621=1.9811    
N521-C67=1.3607      N521-C192=1.3797     N521-Zn621=1.9801    N522-C102=1.3438     N522-C216=1.4060     N522-Zn627=1.9686    
N523-C107=1.3543     N523-C188=1.3946     N523-Zn621=1.9629    N524-C91=1.3637      N524-C191=1.3790     N524-Zn621=1.9918    
N525-C84=1.3551      N525-C221=1.3974     N525-Zn627=1.9879    N526-C104=1.3440     N526-C227=1.4054     N526-Zn626=1.9712    
N527-C74=1.3621      N527-C228=1.3802     N527-Zn626=1.9863    N528-C72=1.3587      N528-C220=1.3802     N528-Zn627=1.9790    
N529-C85=1.3477      N529-C238=1.4063     N529-Zn626=2.0008    N530-C235=1.4034     N530-Zn619=1.9690    N531-C73=1.3588      
N531-C239=1.3805     N531-Zn626=1.9886    N532-C75=1.3593      N532-C231=1.3803     N532-Zn619=1.9752    N533-C86=1.3446      
N533-C234=1.4059     N533-Zn619=1.9828    N534-C224=1.4070     N534-Zn620=1.9830    N535-C63=1.3611      N535-C184=1.3797     
N535-Zn620=1.9819    N536-C88=1.3608      N536-C212=1.3798     N536-Zn620=1.9706    N537-C62=1.3603      N537-C232=1.3802     
N537-Zn619=1.9771    N538-C87=1.3452      N538-C185=1.4027     N538-Zn620=1.9809    O540-N447=1.2378     O541-N447=1.2368     
O542-N451=1.2351     O544-N440=1.2341     O546-N441=1.2371     O547-N448=1.2346     O548-N449=1.2344     O549-N452=1.2342     
O550-N446=1.2361     O551-N443=1.2371     O552-N445=1.2363     O553-N445=1.2383     O554-N444=1.2345     O555-N444=1.2369     
O556-N443=1.2385     O557-N442=1.2383     O558-N442=1.2387     O559-H304=0.9688     O559-H305=0.9711     O560-H306=0.9796     
O560-H307=0.9816     O562-H310=0.9760     O562-H311=0.9764     O563-H374=0.9792     O563-H397=0.9758     O564-N446=1.2355     
O565-H308=0.9769     O565-H309=0.9721     O566-N450=1.2340     O567-N457=1.2349     O568-N440=1.2341     O569-N439=1.2375     
O570-N465=1.2371     O571-N455=1.2340     O573-N468=1.2336     O575-N456=1.2336     O576-N441=1.2372     O577-N457=1.2359     
O579-N458=1.2346     O581-N459=1.2337     O582-N439=1.2381     O584-N452=1.2340     O586-N451=1.2354     O588-N448=1.2348     
O589-N465=1.2377     O590-N456=1.2342     O592-N449=1.2341     O595-N468=1.2335     O596-N462=1.2380     O597-N459=1.2329     
O599-N458=1.2341     O601-N450=1.2342     O602-N462=1.2376     O603-N455=1.2342     Zn604-N417=1.9563    Zn604-N419=1.9689    
Zn604-N420=1.9780    Zn604-N421=1.9918    Zn605-N415=1.9542    Zn605-N416=1.9680    Zn605-N418=1.9874    Zn605-N423=1.9819    
Zn606-N413=1.9929    Zn606-N414=1.9894    Zn606-N422=1.9885    Zn606-N424=1.9749    Zn607-N426=1.9872    Zn607-N427=1.9833    
Zn607-N428=1.9807    Zn607-N438=1.9883    Zn608-N435=1.9996    Zn608-N436=1.9824    Zn608-N437=1.9813    Zn608-N453=1.9659    
Zn609-N425=2.0079    Zn609-N432=1.9954    Zn609-N433=1.9765    Zn609-N434=1.9589    Zn610-N489=1.9579    Zn610-N490=1.9757    
Zn610-N491=1.9742    Zn610-N492=1.9922    Zn611-N493=1.9565    Zn611-N494=1.9830    Zn611-N496=1.9623    Zn611-N503=1.9809    
Zn612-N498=1.9652    Zn612-N499=1.9817    Zn612-N500=1.9685    Zn612-N501=1.9811    Zn613-N486=1.9839    Zn613-N487=1.9912    
Zn613-N488=1.9945    Zn613-N502=1.9686    Zn614-N482=1.9890    Zn614-N483=1.9931    Zn614-N484=1.9808    Zn614-N485=1.9688    
Zn615-N478=1.9900    Zn615-N479=1.9928    Zn615-N480=1.9711    Zn615-N481=1.9679    Zn616-N474=1.9973    Zn616-N475=2.0009    
Zn616-N476=1.9941    Zn616-N477=1.9832    Zn617-N429=1.9925    Zn617-N430=1.9817    Zn617-N431=1.9627    Zn617-N505=1.9897    
Zn618-N472=1.9871    Zn618-N473=1.9655    Zn618-N495=1.9901    Zn618-N504=1.9883    Zn619-N530=1.9690    Zn619-N532=1.9752    
Zn619-N533=1.9828    Zn619-N537=1.9771    Zn620-N534=1.9830    Zn620-N535=1.9819    Zn620-N536=1.9706    Zn620-N538=1.9809    
Zn621-N520=1.9811    Zn621-N521=1.9801    Zn621-N523=1.9629    Zn621-N524=1.9918    Zn622-N516=1.9959    Zn622-N517=1.9748    
Zn622-N518=1.9903    Zn622-N519=1.9649    Zn623-N507=1.9679    Zn623-N508=1.9925    Zn623-N509=1.9788    Zn623-N510=1.9988    
Zn624-N511=1.9726    Zn624-N512=1.9910    Zn624-N513=1.9960    Zn624-N514=2.0031    Zn625-N469=1.9902    Zn625-N471=1.9905    
Zn625-N497=1.9861    Zn625-N515=1.9828    Zn626-N526=1.9712    Zn626-N527=1.9863    Zn626-N529=2.0008    Zn626-N531=1.9886    
Zn627-N506=1.9810    Zn627-N522=1.9686    Zn627-N525=1.9879    Zn627-N528=1.9790    
 C  H  Rav=1.0766 sigma=0.0023  Rmin=1.0710  Rmax=1.0826   127
 C  C  Rav=1.3859 sigma=0.0141  Rmin=1.3681  Rmax=1.4238   140
 N  C  Rav=1.3849 sigma=0.0319  Rmin=1.3438  Rmax=1.4640   200
 O  H  Rav=0.9757 sigma=0.0038  Rmin=0.9688  Rmax=0.9816    10
 O  N  Rav=1.2356 sigma=0.0017  Rmin=1.2329  Rmax=1.2387    44
 Cl C  Rav=1.7081 sigma=0.0043  Rmin=1.6999  Rmax=1.7140    18
 Zn N  Rav=1.9815 sigma=0.0117  Rmin=1.9542  Rmax=2.0079    96

 selected bond angles (degree)
 --------------------
C154-C1-C139=120.97            N489-C1-C139=106.69            N489-C1-C154=132.18            N431-C2-C4=132.92              
Cl241-C3-C4=119.54             C3-C4-C2=117.90                H259-C4-C2=121.08              H259-C4-C3=121.01              
H260-C5-C171=127.53            N430-C5-C171=107.48            N430-C5-H260=124.59            N505-C6-C231=107.60            
C182-C7-C9=119.98              N429-C7-C9=134.06              N429-C7-C182=105.91            C166-C8-C9=121.35              
H262-C8-C9=120.42              H262-C8-C166=118.19            C8-C9-C7=118.39                H263-C9-C7=119.32              
H263-C9-C8=122.22              N428-C10-C12=132.88            

 selected dihedral angles (degree)
 ---------------------------------
C3-C4-C2-N431=178.11          H259-C4-C2-N431=359.37        C2-C4-C3-Cl241=180.26         H259-C4-C3-Cl241=359.00       
C8-C9-C7-C182=  1.58          C8-C9-C7-N429=178.78          H263-C9-C7-C182=184.47        H263-C9-C7-N429=  1.68        
C7-C9-C8-C166=  1.32          C7-C9-C8-H262=183.75          H263-C9-C8-C166=178.34        H263-C9-C8-H262=  0.76        

 CMA Distance (Angstroems)
 ---------------------------
R(CMA):  0.4127
           -------------------------------------------------
          |                Final Singlepoint                |
           -------------------------------------------------
         :::::::::::::::::::::::::::::::::::::::::::::::::::::
         ::                     SUMMARY                     ::
         :::::::::::::::::::::::::::::::::::::::::::::::::::::
         :: total energy            -132.607193776803 Eh    ::
         :: gradient norm              0.009057044126 Eh/a0 ::
         ::.................................................::
         :: bond energy             -137.391469513086 Eh    ::
         :: angle energy               1.183934464017 Eh    ::
         :: torsion energy             0.074926705139 Eh    ::
         :: repulsion energy           8.837714785930 Eh    ::
         :: electrostat energy        -3.629376216005 Eh    ::
         :: dispersion energy         -1.372840373223 Eh    ::
         :: HB energy                 -0.334148833475 Eh    ::
         :: XB energy                 -0.007149097679 Eh    ::
         :: bonded atm energy          0.031214301579 Eh    ::
         :: external energy            0.000000000000 Eh    ::
         :: add. restraining           0.000000000000 Eh    ::
         :: total charge              -0.000000000000 e     ::
         :::::::::::::::::::::::::::::::::::::::::::::::::::::

           -------------------------------------------------
          |                Property Printout                |
           -------------------------------------------------
 Periodic properties
           -------------------------------------------------
          |                Geometry Summary                 |
           -------------------------------------------------

 * 627 atoms in unit cell

     #   Z                                     position/Å        charge
     1   6 C        4.1583454     6.4419004     9.2351816     4.0000000
     2   6 C       21.3839808     6.1843275     8.9781604     4.0000000
     3   6 C       22.0636370     3.9399679     8.6080178     4.0000000
     4   6 C       21.2091181     4.9917130     8.3023614     4.0000000
     5   6 C       16.3670160     8.9077931     8.8409219     4.0000000
     6   6 C       20.9865574     7.7499822     5.8393952     4.0000000
     7   6 C       18.3447025     5.7051905    10.2153563     4.0000000
     8   6 C       18.8598672     5.1392718    12.4696881     4.0000000
     9   6 C       18.8392442     6.0804251    11.4620096     4.0000000
    10   6 C        7.7177725     1.2538183     8.6269552     4.0000000
    11   6 C        5.4142219     1.7461308     8.3217419     4.0000000
    12   6 C        6.7377837     1.9668535     7.9637866     4.0000000
    13   6 C       12.6466610     4.2806890     7.8191887     4.0000000
    14   6 C       10.8922603    13.3503775    11.1129346     4.0000000
    15   6 C        9.1018417     1.0199351     5.4183089     4.0000000
    16   6 C        8.7898745     3.3392964    11.0597280     4.0000000
    17   6 C        3.3463758     7.3651146    18.4717484     4.0000000
    18   6 C        1.6865324     5.6728356    18.3175696     4.0000000
    19   6 C        2.1730731     6.9062493    17.9047545     4.0000000
    20   6 C        3.1167881    13.0317692    17.5531758     4.0000000
    21   6 C        4.0418283     8.2314609    15.1748621     4.0000000
    22   6 C        1.5144901     9.5928912     0.2497537     4.0000000
    23   6 C        1.5298103     8.9592888     2.5385348     4.0000000
    24   6 C        2.2318277     9.3687366     1.4099219     4.0000000
    25   6 C       -8.0961526    16.1917964    18.6311974     4.0000000
    26   6 C       -8.7757621    18.4467699    18.3521870     4.0000000
    27   6 C       -7.9352228    17.4036111    17.9904170     4.0000000
    28   6 C        8.6846730     4.0381381     9.8587370     4.0000000
    29   6 C       -3.1660844    13.6934426    17.7609596     4.0000000
    30   6 C       11.6021852    13.8399212    12.1835405     4.0000000
    31   6 C        8.3686481    14.2940789     5.4187119     4.0000000
    32   6 C        3.6994386     5.2431917     0.5183305     4.0000000
    33   6 C        9.1820141     8.5927373     1.5883137     4.0000000
    34   6 C        4.9164651     7.5912608     4.1398777     4.0000000
    35   6 C        7.6253602     5.2171794    19.1329866     4.0000000
    36   6 C        7.0544583     4.8014928    16.8663106     4.0000000
    37   6 C        6.8560086     5.5274015    18.0121465     4.0000000
    38   6 C       18.1492136     0.6135913    -0.0380028     4.0000000
    39   6 C       20.3907002    -0.0049137    -0.5378972     4.0000000
    40   6 C       19.5058336     0.6654660     0.2714141     4.0000000
    41   6 C       14.0328129     3.9751841     1.5659848     4.0000000
    42   6 C       16.9165235     0.8010086     4.3331151     4.0000000
    43   6 C       17.5328383     4.4965970    19.4105232     4.0000000
    44   6 C       11.5914090    13.0263685     9.9468050     4.0000000
    45   6 C       18.0514771     4.2650931    17.1060391     4.0000000
    46   6 C       16.2834262    15.2388275     0.3887555     4.0000000
    47   6 C       15.6021921    17.4956591     0.0826712     4.0000000
    48   6 C       15.4553287    16.3018269     0.7460211     4.0000000
    49   6 C       15.5055014     9.8187478     1.9063598     4.0000000
    50   6 C       16.6863968    13.9490510     4.3146122     4.0000000
    51   6 C       13.0735238    13.3340944    19.2183213     4.0000000
    52   6 C       13.1596756    14.4829330    17.1431494     4.0000000
    53   6 C       13.8213937    13.9070065    18.1973093     4.0000000
    54   6 C        9.6362178    15.4377394     8.8370079     4.0000000
    55   6 C       11.3156428    17.1155443     8.7604637     4.0000000
    56   6 C       10.8158753    15.9067564     8.2925600     4.0000000
    57   6 C        9.7332644     9.8233174     8.0830985     4.0000000
    58   6 C       17.5087087     3.7347390    18.2443854     4.0000000
    59   6 C       -7.8433310    14.8408700    15.1950676     4.0000000
    60   6 C       -5.1487048    16.7120058    19.6072242     4.0000000
    61   6 C       -5.5831052    16.8553662     2.5467319     4.0000000
    62   6 C       17.6376467    10.4705707     1.8500554     4.0000000
    63   6 C       13.3127464     1.8677287     1.5490876     4.0000000
    64   6 C        6.9649404     7.0760829     4.8155466     4.0000000
    65   6 C       16.3391168     2.8570495     4.9383964     4.0000000
    66   6 C       15.0981705    12.5410006     4.9672408     4.0000000
    67   6 C        6.0934270    15.7651195    14.4815088     4.0000000
    68   6 C       -3.3010738    19.6623476    14.6323612     4.0000000
    69   6 C       -2.0575199     9.8218776    14.5685416     4.0000000
    70   6 C        3.0532347    10.0806713    14.4354161     4.0000000
    71   6 C       -5.7312399    14.8875902    14.4998045     4.0000000
    72   6 C        2.9303640    19.9433585    14.6174847     4.0000000
    73   6 C        9.6800847    12.6109219     4.7903244     4.0000000
    74   6 C        7.6171109    10.1804716     1.5587928     4.0000000
    75   6 C       18.8665064     7.5891113     5.1880401     4.0000000
    76   6 C        8.8801337     4.9555337     7.8245073     4.0000000
    77   6 C       17.5396307     5.5414144     8.1318072     4.0000000
    78   6 C       12.3258578    12.3516772     7.9447599     4.0000000
    79   6 C        4.1558412    17.8724297    17.5507263     4.0000000
    80   6 C       -4.3535445    17.1612093    17.5713267     4.0000000
    81   6 C        0.5868200    10.2514986    17.5580397     4.0000000
    82   6 C        0.7664429    10.4145650    11.3221846     4.0000000
    83   6 C       -4.3346940    17.0254730    11.5492619     4.0000000
    84   6 C        4.3428271    17.6157926    11.5458786     4.0000000
    85   6 C       12.4610838    12.3126834     1.7621347     4.0000000
    86   6 C       17.4831959     5.2445889     2.1153976     4.0000000
    87   6 C        8.8141360     4.9530489     1.7738528     4.0000000
    88   6 C       10.1603225     2.8354126     4.7028384     4.0000000
    89   6 C       -0.2010339    20.5577763    11.4592845     4.0000000
    90   6 C       -4.4862828    11.8061989    11.2838355     4.0000000
    91   6 C        5.5900752    12.3847087    11.2074294     4.0000000
    92   6 C       -5.5075096    16.0448835     1.4216446     4.0000000
    93   6 C        5.1218136    21.5276652    18.4914600     4.0000000
    94   6 C        7.3620250    20.9076563    18.0161601     4.0000000
    95   6 C        6.0154444    20.8490565    17.6870664     4.0000000
    96   6 C        0.3823694    18.6094833    17.9795785     4.0000000
    97   6 C        3.8186280    21.8862000    15.2420217     4.0000000
    98   6 C        4.3568163    18.5587761     0.2931237     4.0000000
    99   6 C        4.8732374    18.7773552     2.5998901     4.0000000
   100   6 C        4.1446104    19.2050270     1.4962753     4.0000000
   101   6 C        5.1442732     8.3539364     9.8334607     4.0000000
   102   6 C        3.6456531    22.3182477    10.1003782     4.0000000
   103   6 C       17.0511331    13.4096762     9.9377845     4.0000000
   104   6 C        7.7949930    14.3252602     0.2178326     4.0000000
   105   6 C       -2.8784417    21.6626259     0.4149310     4.0000000
   106   6 C       -3.9265654     9.0525635     0.4523397     4.0000000
   107   6 C        7.8087982    14.3006929     9.4384225     4.0000000
   108   6 C       -2.8365579    21.7622831     9.6478472     4.0000000
   109   6 C       -3.8421370     8.9432651     9.7091753     4.0000000
   110   6 C        5.1773829     8.4805211    19.0950976     4.0000000
   111   6 C       15.7604456     0.9596568    19.1078883     4.0000000
   112   6 C       17.0894154    13.3854008    19.3296287     4.0000000
   113   6 C        7.5323627    10.1946090     8.0726199     4.0000000
   114   6 C       13.3563575     2.1751474     8.0110146     4.0000000
   115   6 C       17.5954406    10.6615344     8.2244933     4.0000000
   116   6 C        5.3089746    12.6586492    17.6826877     4.0000000
   117   6 C       -0.3818053    20.7047280    17.9709414     4.0000000
   118   6 C       -4.5179917    11.9219984    17.8543069     4.0000000
   119   6 C        2.5379659     4.7904707    -0.0571810     4.0000000
   120   6 C        4.1951985     6.4827738     0.1248787     4.0000000
   121   6 C        7.9287234     3.6722231    12.0836492     4.0000000
   122   6 C       -0.0486590     8.7328390     7.1852684     4.0000000
   123   6 C       -5.2514736    21.8460998    19.3786656     4.0000000
   124   6 C       -7.5539036    22.3826894    19.5968364     4.0000000
   125   6 C       -6.5716383    21.6476460    18.9812230     4.0000000
   126   6 C       -0.9879533    18.5595851    17.9954725     4.0000000
   127   6 C       -3.8331912    21.7244353    15.2473832     4.0000000
   128   6 C       -4.4981352    17.9309845     0.2530122     4.0000000
   129   6 C       -5.1324787    18.1835947     2.5256079     4.0000000
   130   6 C       -4.5858669    18.7274556     1.3933783     4.0000000
   131   6 C       -3.0695614     7.2592526    19.2727521     4.0000000
   132   6 C       -2.4708481     4.9672924    19.2598300     4.0000000
   133   6 C       -2.2899617     6.2343430    18.7583098     4.0000000
   134   6 C       -2.3840371    12.5674627    17.7689050     4.0000000
   135   6 C        6.0061998    17.0717772     1.3288710     4.0000000
   136   6 C       -3.6216730     8.3927421    15.2192631     4.0000000
   137   6 C        0.1372760     8.7944577     2.5224858     4.0000000
   138   6 C       -0.5805219     9.0101510     1.3760686     4.0000000
   139   6 C        3.3725653     7.0503916    10.2524006     4.0000000
   140   6 C        1.9436837     5.1450745    10.2371159     4.0000000
   141   6 C        2.2601233     6.3966060    10.7508564     4.0000000
   142   6 C        3.4018636    12.7647618    11.0500871     4.0000000
   143   6 C        4.0313922     8.1895912    13.8038790     4.0000000
   144   6 C        1.4282690     9.6876831     9.3151321     4.0000000
   145   6 C        1.3320290     8.9567291     7.0554376     4.0000000
   146   6 C        2.0801066     9.4270735     8.1073868     4.0000000
   147   6 C       -8.1689204    16.2023017    10.5615684     4.0000000
   148   6 C       -8.8112883    18.4726523    10.8053123     4.0000000
   149   6 C        0.1022982     9.4149312     0.2290888     4.0000000
   150   6 C        5.7860393    17.7160550     2.5170867     4.0000000
   151   6 C        5.2892287    17.4866503     0.2072848     4.0000000
   152   6 C        8.1730186    15.9361302    15.2329387     4.0000000
   153   6 C        2.7239615     4.5531317     9.2349702     4.0000000
   154   6 C        3.8297380     5.1876359     8.7308937     4.0000000
   155   6 C        9.1014994     8.6065277     8.0926801     4.0000000
   156   6 C        4.9143933     7.5811485     5.5130829     4.0000000
   157   6 C        7.7293682     5.0777255     9.7233096     4.0000000
   158   6 C        6.9543194     4.6637501    11.9248054     4.0000000
   159   6 C        6.8607936     5.3755385    10.7526152     4.0000000
   160   6 C       18.2728168     0.7162241     9.4026847     4.0000000
   161   6 C       20.5750731     0.2055376     9.6799635     4.0000000
   162   6 C       19.6012147     0.9438471     9.0550066     4.0000000
   163   6 C       14.0158059     4.3028792     7.8647077     4.0000000
   164   6 C       16.9242934     0.8498091     5.7040065     4.0000000
   165   6 C       -0.7001814     8.9603711     8.3875657     4.0000000
   166   6 C       18.4232459     3.8272656    12.2501536     4.0000000
   167   6 C       17.9066635     3.4561454    11.0297802     4.0000000
   168   6 C       16.0182696    15.3667561     9.6101224     4.0000000
   169   6 C       15.3769847    17.6350169     9.8838189     4.0000000
   170   6 C       15.1981053    16.4269373     9.2511008     4.0000000
   171   6 C       15.5336860     9.9932115     8.7503787     4.0000000
   172   6 C       16.6533690    13.9621964     5.6863546     4.0000000
   173   6 C       13.0083613    13.1534640     9.9070864     4.0000000
   174   6 C       12.9948016    14.0147019    12.1204992     4.0000000
   175   6 C       13.7050745    13.6539251    10.9883394     4.0000000
   176   6 C        8.7273255    16.3462491    19.1435611     4.0000000
   177   6 C       10.4051060    18.0263178    19.1884817     4.0000000
   178   6 C        9.2140759    17.5665149    18.6835059     4.0000000
   179   6 C        3.7513054    14.2469816    17.5553782     4.0000000
   180   6 C       -7.9956762    17.4261693    11.1824899     4.0000000
   181   6 C       -3.1031110    13.5519877    11.2249293     4.0000000
   182   6 C       17.8473463     4.3926425    10.0162904     4.0000000
   183   6 C       -5.1891912    16.7400588     9.5029778     4.0000000
   184   6 C       12.6634429     3.9980239     1.4962741     4.0000000
   185   6 C        8.7474585     4.0375742    -0.2563474     4.0000000
   186   6 C        8.0076922     3.7727784    16.8157789     4.0000000
   187   6 C        8.7757481     3.4377064    17.9216646     4.0000000
   188   6 C        8.9703533    16.1605054     9.8644938     4.0000000
   189   6 C       10.6457519    17.8391801     9.7596686     4.0000000
   190   6 C        9.4808889    17.3726401    10.3158252     4.0000000
   191   6 C        4.0383756    13.9786658    11.0872198     4.0000000
   192   6 C        8.2291735    15.8157472    13.8682297     4.0000000
   193   6 C        5.3283083    17.4179986     9.5551244     4.0000000
   194   6 C        5.8245897    17.7032190     7.2503461     4.0000000
   195   6 C        6.0566871    17.0424329     8.4447666     4.0000000
   196   6 C        6.6580247     1.8806416     1.3395473     4.0000000
   197   6 C       -5.0427788    21.8581839     9.9896177     4.0000000
   198   6 C       -6.3730064    21.6689530    10.3542060     4.0000000
   199   6 C       -0.8798181    18.4355970    11.5563998     4.0000000
   200   6 C       -3.8350559    21.6843769    13.8754879     4.0000000
   201   6 C       -4.7015901    18.0670335     9.6188803     4.0000000
   202   6 C       -5.3886462    18.5063183     7.3917339     4.0000000
   203   6 C       -4.8172670    18.9485313     8.5632027     4.0000000
   204   6 C       -2.7676748     6.9905473     9.9058963     4.0000000
   205   6 C       -2.0917236     4.7511494     9.5084285     4.0000000
   206   6 C       -1.9137976     5.9283554    10.1911661     4.0000000
   207   6 C       -2.3397567    12.4138698    11.2923202     4.0000000
   208   6 C       -3.5593676     8.3489818    13.8487155     4.0000000
   209   6 C        0.0299915     9.4555703     9.4502026     4.0000000
   210   6 C       -7.3404588    22.3729932     9.6805883     4.0000000
   211   6 C        5.3465003     1.6696611     0.9324936     4.0000000
   212   6 C        9.1220391     0.9793842     4.0478994     4.0000000
   213   6 C       18.6460166     6.3289718    18.2543153     4.0000000
   214   6 C       -5.8204771    17.1835223     7.2560725     4.0000000
   215   6 C       -5.7369274    16.2935216     8.3034609     4.0000000
   216   6 C        5.5221699    21.2653908    10.7170742     4.0000000
   217   6 C        7.8302290    20.7675029    10.9819870     4.0000000
   218   6 C        6.5088956    20.5209140    11.3355388     4.0000000
   219   6 C        0.4915861    18.4406402    11.5580492     4.0000000
   220   6 C        3.8972753    21.8045049    13.8760143     4.0000000
   221   6 C        4.3876939    18.4827333     9.4827077     4.0000000
   222   6 C        4.8913429    18.7515065     7.1755985     4.0000000
   223   6 C        4.1771011    19.1570700     8.2776893     4.0000000
   224   6 C        7.6536444     1.1374614     0.7351692     4.0000000
   225   6 C       11.2936912    17.1701728     0.8078656     4.0000000
   226   6 C       -7.8491862    14.8043048    13.8238290     4.0000000
   227   6 C        9.6129304    15.4914263     0.7916314     4.0000000
   228   6 C        9.8147737     9.8088084     1.5626548     4.0000000
   229   6 C       18.6212485     5.5446472    17.1070031     4.0000000
   230   6 C       10.8146897    15.9579304     1.2883343     4.0000000
   231   6 C       20.9703956     7.6899711     4.4697046     4.0000000
   232   6 C       16.2913521     8.6956797     1.9332587     4.0000000
   233   6 C       21.1619753     4.9292738     1.5189364     4.0000000
   234   6 C       18.2791491     5.6765384     0.0729614     4.0000000
   235   6 C       21.3385654     6.2129730     1.0315490     4.0000000
   236   6 C       11.0016419    13.8892916    18.0713229     4.0000000
   237   6 C       11.7655341    14.4838353    17.0836161     4.0000000
   238   6 C       11.8270523    13.1985954    -0.1857782     4.0000000
   239   6 C        8.3977983    14.2677976     4.0471855     4.0000000
   240   6 C       21.9283471     3.9134622     0.9796197     4.0000000
   241  17 Cl      21.8890304     2.4482975     7.7925270     7.0000000
   242  17 Cl       8.4987804    20.0886658    17.0356696     7.0000000
   243  17 Cl      -6.2829495    16.2304674     3.9685008     7.0000000
   244  17 Cl      -8.7293622    19.8932595    17.4442386     7.0000000
   245  17 Cl       2.3886715     8.5825488     3.9581047     7.0000000
   246  17 Cl       0.2456298     5.0702159    17.6209437     7.0000000
   247  17 Cl       4.1731450     2.5302021     7.4462259     7.0000000
   248  17 Cl      12.7616533    17.7363807     8.0914867     7.0000000
   249  17 Cl       4.6960199    19.5966953     4.0787225     7.0000000
   250  17 Cl       6.6637237    17.1727283     5.8531343     7.0000000
   251  17 Cl       8.2253902     2.8947655    15.3744053     7.0000000
   252  17 Cl       4.0846966     2.5268002     1.7053128     7.0000000
   253  17 Cl      19.3612739     6.1165433    15.6855508     7.0000000
   254  17 Cl      12.7879717    17.7653013     1.3914062     7.0000000
   255  17 Cl       9.0850914    19.9293699    11.7869375     7.0000000
   256  17 Cl       0.6024579     4.2903173    10.8632558     7.0000000
   257  17 Cl      13.8402619    14.7526876    13.4147830     7.0000000
   258  17 Cl      -0.9822295     8.2676790     5.8269439     7.0000000
   259   1 H       20.4498742     4.8870104     7.5495608     1.0000000
   260   1 H       16.0906277     7.8804623     9.0142059     1.0000000
   261   1 H       -3.3122272     8.4897460     6.4121553     1.0000000
   262   1 H       19.1790173     5.4100580    13.4626105     1.0000000
   263   1 H       19.1471774     7.1006110    11.6222137     1.0000000
   264   1 H        6.9903812     2.6391632     7.1653205     1.0000000
   265   1 H       11.9909019     5.1087464     7.5920239     1.0000000
   266   1 H        2.0702374    12.8383909    17.3709129     1.0000000
   267   1 H        8.0163041     3.2071586    13.0512625     1.0000000
   268   1 H        9.5534921     2.5868519    11.1749317     1.0000000
   269   1 H        1.6534649     7.4854448    17.1646364     1.0000000
   270   1 H        9.8318296    13.1680667    11.1713237     1.0000000
   271   1 H        4.4773932     7.5133199    15.8499632     1.0000000
   272   1 H        3.2939900     9.5421503     1.4508052     1.0000000
   273   1 H       -7.2140501    17.5206192    17.2032082     1.0000000
   274   1 H       -3.8172348    21.8590783     6.4145961     1.0000000
   275   1 H       11.1045121    14.0942378    13.1042488     1.0000000
   276   1 H       14.8904608    13.9442907    18.2742935     1.0000000
   277   1 H       10.7884486    10.0115314     7.9550491     1.0000000
   278   1 H        4.1105172     7.9073544     3.4898013     1.0000000
   279   1 H        6.4819374     5.0005166    15.9763384     1.0000000
   280   1 H        6.1232313     6.3091793    18.0718595     1.0000000
   281   1 H       21.4477773     0.0522986    -0.3388407     1.0000000
   282   1 H       19.8434977     1.2447090     1.1113204     1.0000000
   283   1 H       14.6986556     4.8109941     1.7158855     1.0000000
   284   1 H        4.5850793    21.4426784     4.0345354     1.0000000
   285   1 H        7.8337210    14.9920867     6.0420274     1.0000000
   286   1 H       18.0427126     3.7098293    16.1834016     1.0000000
   287   1 H       14.9403952    18.3164381     0.2979941     1.0000000
   288   1 H       14.6859825    16.1593010     1.4824700     1.0000000
   289   1 H       14.4363702     9.8754802     2.0465968     1.0000000
   290   1 H       -7.7488440    15.0936080     3.6141941     1.0000000
   291   1 H       13.7086371    14.9915203    16.3682537     1.0000000
   292   1 H       -2.8532549    14.7097868    17.5755331     1.0000000
   293   1 H       11.3348329    15.3492169     7.5354817     1.0000000
   294   1 H       17.0866498     2.7494763    18.2567456     1.0000000
   295   1 H       16.4716355    14.1884065    15.9135011     1.0000000
   296   1 H       16.6011682     1.1681584    15.5309343     1.0000000
   297   1 H        5.6747370    20.3169376    16.8187089     1.0000000
   298   1 H        0.7902591    10.8534995    12.3056400     1.0000000
   299   1 H       -3.9568185    16.7967841    12.5308165     1.0000000
   300   1 H        3.9935087    17.3820351    12.5390020     1.0000000
   301   1 H       12.4277296    11.8218394     2.7200904     1.0000000
   302   1 H       17.1238842     5.4144901     3.1174894     1.0000000
   303   1 H        9.1771678     5.2140238     2.7531026     1.0000000
   304   1 H       14.8280272    16.6964950    14.7731577     1.0000000
   305   1 H       15.4978172    17.1005329    16.1099894     1.0000000
   306   1 H        0.3030993     8.5323526    12.2835731     1.0000000
   307   1 H        1.5241501     8.3493469    13.2131353     1.0000000
   308   1 H        6.6823361    21.3972917    14.0395410     1.0000000
   309   1 H        7.2788205    20.3947276    15.0701615     1.0000000
   310   1 H       13.8367354     8.9642479     6.5953973     1.0000000
   311   1 H       14.8943176     7.8449174     6.6399908     1.0000000
   312   1 H        9.6310414     7.6210719     1.7297596     1.0000000
   313   1 H        0.5515445    10.6823025    16.5710298     1.0000000
   314   1 H       -3.9628329    16.9993917    16.5808599     1.0000000
   315   1 H        3.8212947    17.6585239    16.5494271     1.0000000
   316   1 H       12.3480372    11.8865033     6.9731963     1.0000000
   317   1 H        1.0698076    17.7891384    17.8401246     1.0000000
   318   1 H        3.4147181    19.9911861     1.5895076     1.0000000
   319   1 H        5.8600116     9.1590814     9.8877941     1.0000000
   320   1 H       15.0264705     1.0763875     9.7087429     1.0000000
   321   1 H       17.3464241    12.3784606     9.8441046     1.0000000
   322   1 H        7.0764317    13.5253262     0.1533316     1.0000000
   323   1 H       -1.8360792    21.4033604     0.3372293     1.0000000
   324   1 H       -5.8432416    15.0224477     1.4571269     1.0000000
   325   1 H       -4.2617211    10.0754919     0.4185336     1.0000000
   326   1 H       -1.7967525    21.5012644     9.7488018     1.0000000
   327   1 H       -4.1549386     9.9590620     9.8867543     1.0000000
   328   1 H        5.9145280     9.2605008    19.1813203     1.0000000
   329   1 H       14.7394425     1.2466088    19.2922228     1.0000000
   330   1 H       17.3656188    12.3465388    19.3958926     1.0000000
   331   1 H        9.2796023     5.2047385     6.8547941     1.0000000
   332   1 H       17.1826917     5.8169531     7.1528495     1.0000000
   333   1 H        7.0695957    13.5201442     9.5034758     1.0000000
   334   1 H        4.2458540     4.6542844     1.2315017     1.0000000
   335   1 H       19.0447196     7.3285311    18.2291371     1.0000000
   336   1 H       -1.7479972     8.7539517     8.4840170     1.0000000
   337   1 H        6.2949601    17.4123117     3.4169892     1.0000000
   338   1 H        6.7168178    16.2731892     1.2386120     1.0000000
   339   1 H       -8.5851518    22.2435471    19.3218703     1.0000000
   340   1 H       -6.8032420    20.9096329    18.2349084     1.0000000
   341   1 H       -1.6156460    17.6897400    17.8795874     1.0000000
   342   1 H        8.4647674     1.0740893    15.5521581     1.0000000
   343   1 H       -5.2469302    18.7700931     3.4211233     1.0000000
   344   1 H       -4.2531822    19.7468678     1.3556492     1.0000000
   345   1 H       -1.8790826     4.1481156    18.8869502     1.0000000
   346   1 H       -1.5545770     6.4465549    18.0042708     1.0000000
   347   1 H       -1.3191333    12.5061634    17.6033852     1.0000000
   348   1 H       20.8220750     7.2342406    15.9220503     1.0000000
   349   1 H       -0.3545549     8.5110680     3.4390202     1.0000000
   350   1 H       -1.6423965     8.8628369     1.3377478     1.0000000
   351   1 H        1.6784588     6.8171673    11.5479917     1.0000000
   352   1 H        9.0038702    16.0501731    15.9074161     1.0000000
   353   1 H        3.3101511    15.2181497    17.3881957     1.0000000
   354   1 H        8.6593670    18.1183579    17.9466104     1.0000000
   355   1 H       10.8148278    18.9594961    18.8420315     1.0000000
   356   1 H        2.4584075     3.5705853     8.8855787     1.0000000
   357   1 H        4.4617534     4.7225224     7.9973862     1.0000000
   358   1 H        9.5499782     7.6304684     7.9829993     1.0000000
   359   1 H        4.1106912     7.8573757     6.1749301     1.0000000
   360   1 H        6.1141431     6.1356428    10.6380512     1.0000000
   361   1 H       21.6124237     0.3782354     9.4510571     1.0000000
   362   1 H       19.8435394     1.7107944     8.3427870     1.0000000
   363   1 H        2.3399577    12.5807176    11.0941971     1.0000000
   364   1 H       14.6574982     5.1525548     7.6823791     1.0000000
   365   1 H        4.6425216    21.5599140     6.7283740     1.0000000
   366   1 H       17.5731341     2.4521727    10.8631646     1.0000000
   367   1 H       14.7516853    18.4756442     9.6334186     1.0000000
   368   1 H       14.4294217    16.2850757     8.5145060     1.0000000
   369   1 H       14.4596861    10.0106422     8.8524955     1.0000000
   370   1 H       -7.8360121    15.1262038     6.3006600     1.0000000
   371   1 H       14.7651891    13.8064743    10.9415792     1.0000000
   372   1 H        2.1382098     3.8296446     0.2173008     1.0000000
   373   1 H        4.4241665     7.4133217    13.1679950     1.0000000
   374   1 H       18.4742202     3.1266417     4.2710364     1.0000000
   375   1 H        3.1298550     9.6514811     8.0080594     1.0000000
   376   1 H       -3.7145947    21.7427048     3.7368982     1.0000000
   377   1 H        9.5158789     2.6571678    17.8640893     1.0000000
   378   1 H       11.0599926    18.7787520    10.0817858     1.0000000
   379   1 H        8.9452879    17.9264031    11.0642126     1.0000000
   380   1 H        3.5898080    14.9566616    11.1724144     1.0000000
   381   1 H        9.1140098    15.7690193    13.2544166     1.0000000
   382   1 H        6.7920742    16.2641367     8.5006591     1.0000000
   383   1 H       12.0139653     4.8547212     1.5931242     1.0000000
   384   1 H       20.9745672     7.1304614    13.2342935     1.0000000
   385   1 H       -1.1225626     6.0508479    10.9078940     1.0000000
   386   1 H       -1.4318930     3.9198147     9.6854473     1.0000000
   387   1 H        1.7851404     8.7905802     6.0925295     1.0000000
   388   1 H        8.4311088     0.9740635    12.8545442     1.0000000
   389   1 H       -1.5358092    17.5911975    11.7061233     1.0000000
   390   1 H       -6.6227225    20.9688830    11.1314222     1.0000000
   391   1 H       -8.3809666    22.2169724     9.9135645     1.0000000
   392   1 H       -1.2701178    12.3437963    11.4257472     1.0000000
   393   1 H        6.8919344     2.5979128     2.1038542     1.0000000
   394   1 H       -4.4827753    19.9625754     8.6558976     1.0000000
   395   1 H       -3.3548771     8.4002396     3.7403145     1.0000000
   396   1 H       -7.2446904    17.5633306    11.9379073     1.0000000
   397   1 H       19.9019457     3.1345943     3.6625375     1.0000000
   398   1 H       -2.7686575    14.5731913    11.3178549     1.0000000
   399   1 H       -6.1836790    16.8667046     6.2920749     1.0000000
   400   1 H       -6.0462936    15.2662337     8.2031794     1.0000000
   401   1 H        6.2665358    19.8223224    12.1165603     1.0000000
   402   1 H        1.1521256    17.6023731    11.7218305     1.0000000
   403   1 H       16.7865869     0.9837527    12.8742124     1.0000000
   404   1 H       16.4544928    14.1228605    13.2401344     1.0000000
   405   1 H        3.4443521    19.9462945     8.2278658     1.0000000
   406   1 H       11.3770571    15.3831692     2.0004277     1.0000000
   407   1 H       10.8688305    10.0030600     1.6883611     1.0000000
   408   1 H        7.8755810    14.9168391     3.3644690     1.0000000
   409   1 H        9.9277947    13.9089779    18.0281519     1.0000000
   410   1 H       15.9779644     7.6784748     2.1114946     1.0000000
   411   1 H        4.7215192    19.2072832     6.2155478     1.0000000
   412   1 H       20.4358014     4.7315659     2.2848847     1.0000000
   413   7 N        3.4336278     9.4113606    15.5563526     5.0000000
   414   7 N        1.7050932    10.1419407    18.2972762     5.0000000
   415   7 N       -7.5122887    14.9335943    18.4287304     5.0000000
   416   7 N       -4.4820133    13.2810234    17.8115428     5.0000000
   417   7 N        3.7314013    21.6894473    18.4251438     5.0000000
   418   7 N       -4.9557525    16.2110564    18.3084854     5.0000000
   419   7 N        0.7441503    19.9407671    17.9636741     5.0000000
   420   7 N        3.2126684    20.7276815    15.6923431     5.0000000
   421   7 N        3.6248578    18.8175871    18.3477615     5.0000000
   422   7 N        4.0894007    12.0562231    17.6307947     5.0000000
   423   7 N       -6.5250959    14.8890178    15.6031713     5.0000000
   424   7 N        4.1061734     8.5312957    18.2842284     5.0000000
   425   7 N       11.2083649    12.5562275     8.6860121     5.0000000
   426   7 N        9.7568972     2.1664470     5.8163640     5.0000000
   427   7 N       12.2497478     2.9613917     7.9125583     5.0000000
   428   7 N        9.1121934     1.1709265     8.4699724     5.0000000
   429   7 N       18.1546018     6.3782837     8.9963869     5.0000000
   430   7 N       17.6375285     9.3320567     8.5109121     5.0000000
   431   7 N       20.7417235     7.4320106     8.8996739     5.0000000
   432   7 N        9.1679576    13.2601033     5.8707766     5.0000000
   433   7 N        8.7541785    10.7965259     8.0703296     5.0000000
   434   7 N        8.8693735    14.2824436     8.6123667     5.0000000
   435   7 N       13.5953699    12.6568320     1.1157360     5.0000000
   436   7 N       15.7110695    13.0785182     3.8769790     5.0000000
   437   7 N       16.3473580    10.9112472     1.8477864     5.0000000
   438   7 N        9.3633706     3.9824524     8.6295505     5.0000000
   439   7 N        6.2553953    10.8788891     8.0286661     5.0000000
   440   7 N        2.3252757    11.3254842    14.4102318     5.0000000
   441   7 N        6.5815120    11.9692365    17.7188059     5.0000000
   442   7 N       -8.6266042    19.7722858    11.4312798     5.0000000
   443   7 N       21.7377514     2.5374432     1.4182055     5.0000000
   444   7 N        5.9904426     4.9696010    12.9741533     5.0000000
   445   7 N       18.5071085     2.7953440    13.2851836     5.0000000
   446   7 N       -5.5399980    19.4632351     6.3062071     5.0000000
   447   7 N       11.1124151    15.2751340    16.0430105     5.0000000
   448   7 N       10.7355291     4.1580300     4.6844597     5.0000000
   449   7 N       17.4281476     7.4619475     5.1981578     5.0000000
   450   7 N       10.5877927    11.4890697     4.8137260     5.0000000
   451   7 N        2.3795804    18.6089489    14.6444505     5.0000000
   452   7 N       -4.2973915    15.0557630    14.5039129     5.0000000
   453   7 N       16.3354708    13.8908462     0.7572016     5.0000000
   454   7 N       13.3523497     0.7253894     7.9825930     5.0000000
   455   7 N       -1.1581290    10.9485839    14.5644747     5.0000000
   456   7 N        4.6512722    15.7722469    14.4325757     5.0000000
   457   7 N       14.1962908    11.4133794     4.9515832     5.0000000
   458   7 N       15.8837834     4.2252686     4.9009872     5.0000000
   459   7 N        8.3981501     6.9163654     4.8228205     5.0000000
   460   7 N       13.2768912     0.4212170     1.5555041     5.0000000
   461   7 N       18.8362618    11.2831300     1.8878482     5.0000000
   462   7 N        6.3390037    10.8601935     1.6008878     5.0000000
   463   7 N       -0.1806407    22.0061144    11.4911820     5.0000000
   464   7 N       -5.7090724    11.0328511    11.3422068     5.0000000
   465   7 N        6.8661900    11.7044055    11.2363135     5.0000000
   466   7 N       -5.7178900    11.1113430    17.8416611     5.0000000
   467   7 N       -0.4175314    22.1521490    17.9484613     5.0000000
   468   7 N       -2.7616555    18.3256911    14.6661883     5.0000000
   469   7 N       17.2242986     4.1483257     1.3601855     5.0000000
   470   7 N       18.7490805    11.4908680     7.9441870     5.0000000
   471   7 N       14.4255162     2.6531948     1.6016042     5.0000000
   472   7 N       -4.4278642    13.1637085    11.2277769     5.0000000
   473   7 N       -7.5449698    14.9568040    10.7201921     5.0000000
   474   7 N        1.8500787    10.2457177    10.5248988     5.0000000
   475   7 N        3.4194472     9.3414365    13.3531552     5.0000000
   476   7 N        4.3691235    11.7840255    11.1318690     5.0000000
   477   7 N        4.0282978     8.2573678    10.5789244     5.0000000
   478   7 N       -0.4942404     9.8758731    18.2842142     5.0000000
   479   7 N       -2.6798019     9.2976169    15.6594442     5.0000000
   480   7 N       -3.2298368    11.4781945    17.8256026     5.0000000
   481   7 N       -3.1734838     8.6230170    18.9755105     5.0000000
   482   7 N       -4.1802629    18.2855960    18.3074364     5.0000000
   483   7 N       -3.5137680    20.4659609    15.7095518     5.0000000
   484   7 N       -1.4512030    19.8596026    17.9831300     5.0000000
   485   7 N       -4.0440673    21.2608502    18.9976933     5.0000000
   486   7 N        5.0673262    17.1404392    18.2350227     5.0000000
   487   7 N        6.8469642    15.8966877    15.6066391     5.0000000
   488   7 N        5.1084605    14.0072406    17.6352668     5.0000000
   489   7 N        5.2410198     7.2846536     9.0091524     5.0000000
   490   7 N        7.7422160     8.8469727     8.0825494     5.0000000
   491   7 N        6.1888689     7.2486101     5.9194568     5.0000000
   492   7 N        7.8897219     5.6255608     8.4454538     5.0000000
   493   7 N       17.0758183     1.3420255     9.0504028     5.0000000
   494   7 N       14.4457027     2.9960083     7.9918258     5.0000000
   495   7 N       -6.5323542    14.8256041    13.4019951     5.0000000
   496   7 N       16.5881265     2.1373633     6.0631694     5.0000000
   497   7 N       16.5788640     2.0535568     3.8671678     5.0000000
   498   7 N       16.0913278    14.0235626     9.2115911     5.0000000
   499   7 N       16.3029269    11.0716274     8.3679801     5.0000000
   500   7 N       15.6576696    13.0938840     6.0783273     5.0000000
   501   7 N       13.4182655    12.7107135     8.6401196     5.0000000
   502   7 N        7.6120935    15.5767633    18.8108818     5.0000000
   503   7 N       17.3466010     4.3403763     8.7080761     5.0000000
   504   7 N       -4.9627237    16.1374859    10.7480451     5.0000000
   505   7 N       19.6761463     7.6942106     6.2757746     5.0000000
   506   7 N        0.8992894    19.7572569    11.4916690     5.0000000
   507   7 N       -2.8440443     8.3060694    10.3700715     5.0000000
   508   7 N       -3.2044992    11.3379036    11.3210253     5.0000000
   509   7 N       -2.5770021     9.2332918    13.4579321     5.0000000
   510   7 N       -0.3320696     9.9001266    10.7364471     5.0000000
   511   7 N        5.3215495     7.2216184     0.4899640     5.0000000
   512   7 N        7.8228106     8.8324129     1.5833914     5.0000000
   513   7 N        6.1875289     7.2633818     3.7140232     5.0000000
   514   7 N        7.8741241     5.6390232     1.0775576     5.0000000
   515   7 N       17.0033861     1.1924790     0.5209993     5.0000000
   516   7 N       -4.1669373    18.1982103    10.9085780     5.0000000
   517   7 N       -3.5129780    20.3965394    13.5066166     5.0000000
   518   7 N       -1.2997078    19.7492107    11.4911645     5.0000000
   519   7 N       -3.8507831    21.2483014    10.3820599     5.0000000
   520   7 N        5.2637294    16.9114856    10.8629542     5.0000000
   521   7 N        6.9316181    15.7122384    13.4108661     5.0000000
   522   7 N        4.1299057    21.3482571    10.8943994     5.0000000
   523   7 N        7.8473584    15.4107239    10.2133249     5.0000000
   524   7 N        5.3915923    13.7337501    11.1899062     5.0000000
   525   7 N        3.8143110    18.5796206    10.7534059     5.0000000
   526   7 N        8.8851656    14.3079392     1.0036577     5.0000000
   527   7 N        8.8381425    10.7839366     1.5449817     5.0000000
   528   7 N        3.3369873    20.6005134    13.4999617     5.0000000
   529   7 N       11.3811716    12.6391090     1.0248970     5.0000000
   530   7 N       20.7192316     7.4399128     1.3152791     5.0000000
   531   7 N        9.2161426    13.2222427     3.6690395     5.0000000
   532   7 N       19.6504506     7.5938706     4.0776197     5.0000000
   533   7 N       18.1323578     6.1663200     1.3825457     5.0000000
   534   7 N        9.0463245     1.0664893     0.9227190     5.0000000
   535   7 N       12.2289567     2.6885423     1.4846207     5.0000000
   536   7 N        9.7839391     2.1100000     3.6148230     5.0000000
   537   7 N       17.6069573     9.1115579     1.8993560     5.0000000
   538   7 N        9.3376513     3.9738238     1.0144940     5.0000000
   539   8 O       -0.1266281    21.6560173     8.5622699     6.0000000
   540   8 O       10.8165344    16.4481379    16.3048756     6.0000000
   541   8 O       10.8735510    14.7511814    14.9484117     6.0000000
   542   8 O        1.9670723    18.1614044    15.7192142     6.0000000
   543   8 O       13.0371875     1.2490983    17.9007310     6.0000000
   544   8 O        1.8904523    11.7665574    15.4775996     6.0000000
   545   8 O       18.3679812    10.9853469    18.1636735     6.0000000
   546   8 O        6.5894762    10.7584682    17.9725877     6.0000000
   547   8 O       10.9068053     4.7328023     5.7635588     6.0000000
   548   8 O       16.8261540     7.6215415     6.2638943     6.0000000
   549   8 O       -3.7365581    15.2706052    15.5821594     6.0000000
   550   8 O       -5.2416397    20.6425954     6.5256017     6.0000000
   551   8 O       20.9605428     2.3097641     2.3533845     6.0000000
   552   8 O       18.0221037     3.0165187    14.4006966     6.0000000
   553   8 O       19.0363361     1.7143197    12.9941651     6.0000000
   554   8 O        6.1337191     4.4652032    14.0917443     6.0000000
   555   8 O        5.0569880     5.7342705    12.7022806     6.0000000
   556   8 O       22.3448128     1.6377552     0.8215798     6.0000000
   557   8 O       -9.3066624    20.7264941    11.0308726     6.0000000
   558   8 O       -7.7787235    19.8796465    12.3278509     6.0000000
   559   8 O       15.1691876    16.3382371    15.6060825     6.0000000
   560   8 O        0.6657444     7.9383445    12.9729888     6.0000000
   561   8 O       -5.2938977    11.6472127     7.9681395     6.0000000
   562   8 O       14.0142623     8.0877491     6.9862409     6.0000000
   563   8 O       19.3182474     3.6231622     4.2730423     6.0000000
   564   8 O       -5.9552563    19.0694368     5.2112710     6.0000000
   565   8 O        6.6680309    20.4606661    14.3168031     6.0000000
   566   8 O       10.9632610    11.0554893     5.9063824     6.0000000
   567   8 O       13.8047724    10.9921952     3.8587876     6.0000000
   568   8 O        2.1514708    11.8832060    13.3231137     6.0000000
   569   8 O        6.2323823    12.0947981     8.2574453     6.0000000
   570   8 O        6.8848575    10.4846282    11.0309779     6.0000000
   571   8 O       -0.9319851    11.5224220    15.6332707     6.0000000
   572   8 O       19.5519330     9.2395813    17.6348578     6.0000000
   573   8 O       -2.4208701    17.8561105    15.7548718     6.0000000
   574   8 O       10.9392115     1.1930603    17.3296286     6.0000000
   575   8 O        4.0339038    16.0671342    15.4591019     6.0000000
   576   8 O        7.6127773    12.6173630    17.5017390     6.0000000
   577   8 O       13.8605067    10.9110658     6.0297525     6.0000000
   578   8 O       -6.5974465    13.3482772     7.5929522     6.0000000
   579   8 O       15.9998796     4.9083060     5.9228917     6.0000000
   580   8 O        1.9826088    21.6535486     8.0393465     6.0000000
   581   8 O        8.9812551     6.8843643     5.9095349     6.0000000
   582   8 O        5.2358070    10.2247501     7.7730601     6.0000000
   583   8 O       18.3906496    10.9346610    11.1397067     6.0000000
   584   8 O       -3.6917283    15.0020552    13.4301536     6.0000000
   585   8 O       -5.2477368    11.4181104     1.5567209     6.0000000
   586   8 O        2.3610358    17.9643011    13.5907771     6.0000000
   587   8 O       -0.2159882    21.3794569     1.6339175     6.0000000
   588   8 O       11.0077596     4.6670227     3.5928686     6.0000000
   589   8 O        7.8884120    12.3695064    11.4474365     6.0000000
   590   8 O        4.0938219    15.5054192    13.3642790     6.0000000
   591   8 O       11.1869292     1.0876485    11.4040191     6.0000000
   592   8 O       16.8561316     7.1886727     4.1393322     6.0000000
   593   8 O       13.3130135     1.0620814    10.9409361     6.0000000
   594   8 O       19.5281013     9.1656456    11.7008327     6.0000000
   595   8 O       -2.6638701    17.7056059    13.6044032     6.0000000
   596   8 O        5.3226530    10.1973442     1.8466926     6.0000000
   597   8 O        8.9838260     6.8142834     3.7427621     6.0000000
   598   8 O        1.9008794    21.3263764     2.1306990     6.0000000
   599   8 O       15.4064967     4.6590706     3.8488220     6.0000000
   600   8 O       -6.4355064    13.1474470     2.1255375     6.0000000
   601   8 O       10.9664739    11.0182996     3.7374708     6.0000000
   602   8 O        6.3106895    12.0780483     1.3828002     6.0000000
   603   8 O       -0.6535928    11.2914334    13.4915048     6.0000000
   604  30 Zn       2.6252235    20.3397689    17.5408395     2.0000000
   605  30 Zn      -5.8442571    14.6544936    17.4496718     2.0000000
   606  30 Zn       3.4777058    10.1789268    17.3949979     2.0000000
   607  30 Zn      10.3288905     2.5228777     7.6858285     2.0000000
   608  30 Zn      15.4053106    12.6502854     1.9657063     2.0000000
   609  30 Zn       9.4374399    12.6219352     7.7420313     2.0000000
   610  30 Zn       6.7759940     7.1466810     7.8015977     2.0000000
   611  30 Zn      16.4157251     2.7860587     7.9071287     2.0000000
   612  30 Zn      15.2845719    12.7257976     7.9758090     2.0000000
   613  30 Zn       6.1755385    15.6840224    17.4691685     2.0000000
   614  30 Zn      -3.3979955    19.9885870    17.6411210     2.0000000
   615  30 Zn      -2.3483208     9.7329577    17.5756229     2.0000000
   616  30 Zn       3.5922605     9.9777122    11.4640494     2.0000000
   617  30 Zn      19.0125414     7.9559315     8.1332086     2.0000000
   618  30 Zn      -5.8201308    14.5406683    11.5656794     2.0000000
   619  30 Zn      18.9965993     7.7422506     2.2197188     2.0000000
   620  30 Zn      10.2853242     2.3880562     1.7294244     2.0000000
   621  30 Zn       6.3900438    15.4236857    11.5282848     2.0000000
   622  30 Zn      -3.2834146    19.8375692    11.6265917     2.0000000
   623  30 Zn      -2.1294010     9.6809467    11.5831207     2.0000000
   624  30 Zn       6.7834022     7.1498329     1.8124436     2.0000000
   625  30 Zn      16.3771604     2.4397186     1.9294729     2.0000000
   626  30 Zn       9.5362683    12.6260287     1.7991285     2.0000000
   627  30 Zn       2.8493242    20.0632137    11.6587607     2.0000000

 * 3D periodic system

 * cell parameter

      |a|/Å         |b|/Å         |c|/Å        α/°      β/°      γ/°
   25.1760012    24.8508570    19.3394938    88.673   90.379  121.499

 * direct lattice/Å

            a    25.1671177    -0.6661073     0.0593598
            b   -12.4197878    21.5221798     0.3312701
            c    -0.1704216     0.1211793    19.3383632

 * reciprocal lattice/Å⁻¹

           a*     0.2535271     0.1462824     0.0013176
           b*     0.0078518     0.2964985    -0.0017887
           c*    -0.0009127    -0.0055281     0.3249344

 * geometry in fractional coordinates

     #   Z                         fractional coordinates
     1   6 C        0.3149849     0.2925333     0.4775269
     2   6 C        0.9725242     0.2929532     0.4791294
     3   6 C        0.9680601     0.1997954     0.4743891
     4   6 C        0.9441236     0.2350184     0.4563330
     5   6 C        0.8249112     0.3900575     0.4180411
     6   6 C        0.9871176     0.3596946     0.2878739
     7   6 C        0.8205654     0.2363930     0.5037288
     8   6 C        0.8259013     0.2189253     0.6231007
     9   6 C        0.8495417     0.2554059     0.5666942
    10   6 C        0.3215778     0.0293369     0.4760935
    11   6 C        0.2342971     0.0363001     0.4689676
    12   6 C        0.2933218     0.0584608     0.4514278
    13   6 C        0.5672035     0.1763376     0.4182492
    14   6 C        0.7500021     0.5975816     0.5682423
    15   6 C        0.3770368     0.0213918     0.2873574
    16   6 C        0.4058167     0.1508229     0.5658839
    17   6 C        0.2939316     0.3196332     0.9728931
    18   6 C        0.2015161     0.2298642     0.9744020
    19   6 C        0.2349693     0.2886512     0.9539889
    20   6 C        0.3849847     0.5650108     0.9168761
    21   6 C        0.3542210     0.3780972     0.7821225
    22   6 C        0.2367986     0.4123596     0.0078232
    23   6 C        0.2284339     0.3859497     0.1263778
    24   6 C        0.2592795     0.3984325     0.0647353
    25   6 C        0.0239055     0.7058569     0.9711760
    26   6 C        0.0267494     0.7983322     0.9718845
    27   6 C        0.0514391     0.7644551     0.9508920
    28   6 C        0.4165774     0.1802908     0.5031607
    29   6 C        0.1760728     0.6139132     0.9149626
    30   6 C        0.7864960     0.6088391     0.6241051
    31   6 C        0.6402610     0.6248172     0.2880618
    32   6 C        0.2852476     0.2328210     0.0319653
    33   6 C        0.5623765     0.3865167     0.0816696
    34   6 C        0.3745838     0.3591611     0.2118269
    35   6 C        0.4135906     0.2296638     0.9962326
    36   6 C        0.3916056     0.2120267     0.8766996
    37   6 C        0.4024142     0.2477967     0.9331729
    38   6 C        0.7097488     0.0231143     0.0135391
    39   6 C        0.7985652     0.0186655     0.0078835
    40   6 C        0.7691594     0.0466584     0.0312352
    41   6 C        0.6181163     0.1770401     0.0796954
    42   6 C        0.6417914     0.0155105     0.2125513
    43   6 C        0.7727994     0.1840244     0.9956008
    44   6 C        0.7679122     0.5870962     0.5046622
    45   6 C        0.7905814     0.1809317     0.8759272
    46   6 C        0.9731082     0.6817250     0.0144198
    47   6 C        0.9745468     0.7735368     0.0111817
    48   6 C        0.9477797     0.7158015     0.0332306
    49   6 C        0.8247742     0.4376509     0.0811764
    50   6 C        0.9870366     0.6258838     0.2129111
    51   6 C        0.8179266     0.5836870     0.9967640
    52   6 C        0.8242567     0.6072358     0.8775830
    53   6 C        0.8474382     0.5940520     0.9341228
    54   6 C        0.7060070     0.6787556     0.4804107
    55   6 C        0.7991548     0.7675947     0.4779475
    56   6 C        0.7644686     0.7084781     0.4594923
    57   6 C        0.6101682     0.4340791     0.4181527
    58   6 C        0.7547579     0.1553127     0.9322067
    59   6 C        0.0141165     0.6403269     0.7854575
    60   6 C        0.1741435     0.7628299     0.9996349
    61   6 C        0.1574551     0.7671983     0.1192881
    62   6 C        0.9185701     0.4589107     0.0886738
    63   6 C        0.5452742     0.0833917     0.0859802
    64   6 C        0.4382502     0.3313343     0.2459922
    65   6 C        0.6702522     0.1072193     0.2463891
    66   6 C        0.8953238     0.5623984     0.2466732
    67   6 C        0.5557904     0.6699486     0.7522699
    68   6 C        0.3303461     0.8925537     0.7529226
    69   6 C        0.1076212     0.4364050     0.7533667
    70   6 C        0.3316344     0.4455786     0.7476655
    71   6 C        0.1040710     0.6649054     0.7479823
    72   6 C        0.5541586     0.8871636     0.7472666
    73   6 C        0.6668376     0.5601443     0.2540476
    74   6 C        0.5416356     0.4593438     0.0898587
    75   6 C        0.8963415     0.3347862     0.2535728
    76   6 C        0.4409177     0.2156244     0.3960949
    77   6 C        0.7862063     0.2246105     0.3960992
    78   6 C        0.7772064     0.5623181     0.3974076
    79   6 C        0.5585598     0.7795702     0.9060718
    80   6 C        0.2190886     0.7819759     0.8977189
    81   6 C        0.2202025     0.4411629     0.9063379
    82   6 C        0.2227249     0.4400970     0.5935801
    83   6 C        0.2132545     0.7744198     0.6042562
    84   6 C        0.5564360     0.7812064     0.5939322
    85   6 C        0.7828026     0.5603471     0.1039979
    86   6 C        0.7823522     0.2182244     0.1028627
    87   6 C        0.4399444     0.2203323     0.1027294
    88   6 C        0.4470454     0.1097972     0.2515499
    89   6 C        0.4530476     0.9163419     0.5879228
    90   6 C        0.0820846     0.5363337     0.5894508
    91   6 C        0.4583605     0.5448910     0.5861751
    92   6 C        0.1382210     0.7385103     0.0565902
    93   6 C        0.6812923     0.9723030     0.9704394
    94   6 C        0.7695856     0.9669588     0.9679438
    95   6 C        0.7108104     0.9436183     0.9484781
    96   6 C        0.4365572     0.8223496     0.9180866
    97   6 C        0.6227680     0.9770488     0.7808919
    98   6 C        0.5882287     0.8254043     0.0073165
    99   6 C        0.6148036     0.8434103     0.1258645
   100   6 C        0.6025487     0.8619400     0.0641873
   101   6 C        0.3863283     0.3862282     0.4937434
   102   6 C        0.6128703     0.9998734     0.4957023
   103   6 C        0.9951215     0.6092955     0.4957823
   104   6 C        0.6121343     0.6145473     0.0042966
   105   6 C        0.3863514     0.9980642     0.0040525
   106   6 C        0.0078007     0.3917183     0.0049677
   107   6 C        0.6114678     0.6139272     0.5036248
   108   6 C        0.3840636     0.9977800     0.5038751
   109   6 C        0.0025837     0.3872981     0.5042622
   110   6 C        0.3873854     0.3871784     0.9973584
   111   6 C        0.6161447     0.0008382     0.9970531
   112   6 C        0.9982732     0.6125483     0.9963287
   113   6 C        0.5375671     0.4552029     0.4105041
   114   6 C        0.5470978     0.0827980     0.4132047
   115   6 C        0.9185973     0.4629802     0.4116014
   116   6 C        0.4580812     0.5443474     0.9135067
   117   6 C        0.4567358     0.9159641     0.9142996
   118   6 C        0.0826334     0.5400744     0.9111709
   119   6 C        0.2271033     0.2020236     0.0114035
   120   6 C        0.3188526     0.2924884     0.0140665
   121   6 C        0.3922525     0.1740203     0.6221279
   122   6 C        0.1578299     0.3849841     0.3739427
   123   6 C        0.2920894     0.9732417     0.9866609
   124   6 C        0.2020252     0.9752740     0.9898569
   125   6 C        0.2326446     0.9480666     0.9681158
   126   6 C        0.3838984     0.8221855     0.9194074
   127   6 C        0.3596415     0.9844246     0.7868074
   128   6 C        0.2291036     0.8166897     0.0047580
   129   6 C        0.2119659     0.8201942     0.1245379
   130   6 C        0.2476621     0.8454092     0.0680835
   131   6 C        0.0274093     0.3185170     0.9857094
   132   6 C        0.0173949     0.2227121     0.9872979
   133   6 C        0.0484251     0.2809728     0.9662316
   134   6 C        0.1765610     0.5615976     0.9171023
   135   6 C        0.6007920     0.7529087     0.0737781
   136   6 C        0.0158107     0.3747222     0.7879588
   137   6 C        0.1748790     0.3864988     0.1308381
   138   6 C        0.1514946     0.3991765     0.0741703
   139   6 C        0.2925691     0.3212034     0.5201342
   140   6 C        0.1998890     0.2319961     0.5255351
   141   6 C        0.2347524     0.2912680     0.5433095
   142   6 C        0.3854171     0.5656924     0.5811335
   143   6 C        0.3527429     0.3776789     0.7114260
   144   6 C        0.2317308     0.4126748     0.4873197
   145   6 C        0.2123444     0.3864909     0.3685372
   146   6 C        0.2490976     0.3997545     0.4246482
   147   6 C        0.0295661     0.7046400     0.5187965
   148   6 C        0.0392663     0.7999392     0.5239159
   149   6 C        0.1824972     0.4126853     0.0119459
   150   6 C        0.6137816     0.7890818     0.1303885
   151   6 C        0.5874501     0.7705699     0.0115777
   152   6 C        0.6228848     0.6478328     0.7888993
   153   6 C        0.2229133     0.2028629     0.4864202
   154   6 C        0.2799126     0.2325338     0.4618070
   155   6 C        0.5575138     0.3816453     0.4154510
   156   6 C        0.3747263     0.3586283     0.2825419
   157   6 C        0.4135864     0.2329591     0.4978982
   158   6 C        0.3885890     0.2255497     0.6162787
   159   6 C        0.3993198     0.2552889     0.5546043
   160   6 C        0.7065100     0.0222834     0.4790180
   161   6 C        0.7963684     0.0202198     0.4871952
   162   6 C        0.7664624     0.0474183     0.4629732
   163   6 C        0.6199527     0.1767547     0.4153048
   164   6 C        0.6418323     0.0162309     0.2832582
   165   6 C        0.1394962     0.3966025     0.4361318
   166   6 C        0.7743365     0.1637499     0.6172160
   167   6 C        0.7449110     0.1445741     0.5553903
   168   6 C        0.9791339     0.6847406     0.4759233
   169   6 C        0.9879201     0.7797512     0.4842645
   170   6 C        0.9576928     0.7225651     0.4596198
   171   6 C        0.8249052     0.4426099     0.4154991
   172   6 C        0.9860651     0.6259829     0.2836142
   173   6 C        0.8232525     0.5890993     0.4986275
   174   6 C        0.8410600     0.6105724     0.6180904
   175   6 C        0.8597687     0.6011106     0.5550809
   176   6 C        0.6820783     0.7082872     0.9848845
   177   6 C        0.7744343     0.7980975     0.9877846
   178   6 C        0.7166707     0.7675534     0.9657496
   179   6 C        0.4376217     0.6174971     0.9188972
   180   6 C        0.0601571     0.7625369     0.5415646
   181   6 C        0.1754942     0.6098777     0.5829064
   182   6 C        0.7677556     0.1808502     0.4985165
   183   6 C        0.1788393     0.7622545     0.4966403
   184   6 C        0.5655249     0.1769949     0.0817296
   185   6 C        0.4131576     0.1750234     0.0010834
   186   6 C        0.3907226     0.1577993     0.8817311
   187   6 C        0.4012197     0.1390065     0.9441519
   188   6 C        0.6827525     0.7073652     0.5217964
   189   6 C        0.7752747     0.7968538     0.5153432
   190   6 C        0.7176474     0.7673018     0.5379767
   191   6 C        0.4380292     0.6182067     0.5829157
   192   6 C        0.6224910     0.6461323     0.7182144
   193   6 C        0.5867661     0.7649565     0.4932236
   194   6 C        0.6138744     0.7730282     0.3749204
   195   6 C        0.6013251     0.7425065     0.4367819
   196   6 C        0.2885197     0.0523459     0.0493047
   197   6 C        0.2915313     0.9791299     0.5198272
   198   6 C        0.2318609     0.9566871     0.5355203
   199   6 C        0.3793453     0.8228782     0.5853690
   200   6 C        0.3587240     0.9835511     0.7160989
   201   6 C        0.2312137     0.8181566     0.5018732
   202   6 C        0.2244845     0.8350424     0.3831451
   203   6 C        0.2537033     0.8545439     0.4450345
   204   6 C        0.0234414     0.3150126     0.5219695
   205   6 C        0.0202258     0.2225453     0.5135029
   206   6 C        0.0479044     0.2795921     0.5380057
   207   6 C        0.1760386     0.5575919     0.5848189
   208   6 C        0.0161434     0.3749391     0.7172186
   209   6 C        0.1764214     0.4108190     0.4925967
   210   6 C        0.2037431     0.9851594     0.5095661
   211   6 C        0.2298641     0.0277403     0.0286536
   212   6 C        0.3771832     0.0207453     0.2166603
   213   6 C        0.8632919     0.2631371     0.9441337
   214   6 C        0.1732115     0.7796370     0.3772688
   215   6 C        0.1498808     0.7430817     0.4336692
   216   6 C        0.6779851     0.9711077     0.5214927
   217   6 C        0.7673975     0.9679274     0.5261399
   218   6 C        0.7081490     0.9433278     0.5442219
   219   6 C        0.4316780     0.8224211     0.5833398
   220   6 C        0.6224974     0.9756698     0.7101914
   221   6 C        0.5854296     0.8186965     0.4883183
   222   6 C        0.6128997     0.8263339     0.3698632
   223   6 C        0.5992953     0.8495551     0.4259752
   224   6 C        0.3192796     0.0244233     0.0292761
   225   6 C        0.7987521     0.7705464     0.0275814
   226   6 C        0.0128467     0.6392689     0.7147548
   227   6 C        0.7060150     0.6812583     0.0278359
   228   6 C        0.6149431     0.4390238     0.0846500
   229   6 C        0.8446782     0.2343387     0.8814218
   230   6 C        0.7645759     0.7119593     0.0482935
   231   6 C        0.9864801     0.3590369     0.2171626
   232   6 C        0.8250139     0.3852325     0.0841071
   233   6 C        0.9452860     0.2382815     0.0473963
   234   6 C        0.8272905     0.2383348     0.0009240
   235   6 C        0.9765516     0.2970422     0.0281082
   236   6 C        0.7426012     0.6000126     0.9445697
   237   6 C        0.7727295     0.6109505     0.8831441
   238   6 C        0.7648194     0.5859236     0.0015138
   239   6 C        0.6409824     0.6247175     0.2173444
   240   6 C        0.9657009     0.2012121     0.0266694
   241  17 Cl       0.9320509     0.1269329     0.4503324
   242  17 Cl       0.8064154     0.9307863     0.9446101
   243  17 Cl       0.1133386     0.7357729     0.1900045
   244  17 Cl       0.0624565     0.8721949     0.9522728
   245  17 Cl       0.2578078     0.3706447     0.1971305
   246  17 Cl       0.1270484     0.1922358     0.9581544
   247  17 Cl       0.1991604     0.0734220     0.4426414
   248  17 Cl       0.8728546     0.8042051     0.4575557
   249  17 Cl       0.6300341     0.8879580     0.1967256
   250  17 Cl       0.6294981     0.7433932     0.3046154
   251  17 Cl       0.3772686     0.1133088     0.8111640
   252  17 Cl       0.1920541     0.0637992     0.0481853
   253  17 Cl       0.8892033     0.2659802     0.8110721
   254  17 Cl       0.8720656     0.8090390     0.0496223
   255  17 Cl       0.8048184     0.9323202     0.5494411
   256  17 Cl       0.1270058     0.1947328     0.5494377
   257  17 Cl       0.8858695     0.6233025     0.6881658
   258  17 Cl       0.1128037     0.3700268     0.3036056
   259   1 H        0.9037147     0.2173848     0.4273524
   260   1 H        0.7873531     0.3460019     0.4133152
   261   1 H        0.0242264     0.3695352     0.3207162
   262   1 H        0.8468642     0.2322042     0.6728699
   263   1 H        0.8897936     0.2973988     0.5697774
   264   1 H        0.3169151     0.0979866     0.4210718
   265   1 H        0.5602480     0.2135949     0.4131388
   266   1 H        0.3412065     0.5588309     0.9100990
   267   1 H        0.3841557     0.1528137     0.6717852
   268   1 H        0.4075367     0.1105576     0.5689061
   269   1 H        0.2150320     0.3103544     0.9272660
   270   1 H        0.7083039     0.5963549     0.5723568
   271   1 H        0.3643481     0.3512730     0.8154527
   272   1 H        0.2991338     0.3960751     0.0611100
   273   1 H        0.0922029     0.7837668     0.9224049
   274   1 H        0.3457875     0.9872798     0.3211055
   275   1 H        0.7729932     0.6152405     0.6741736
   276   1 H        0.8876936     0.5922938     0.9313581
   277   1 H        0.6542069     0.4403898     0.4143316
   278   1 H        0.3484871     0.3705930     0.1790266
   279   1 H        0.3849823     0.2258985     0.8269308
   280   1 H        0.4028762     0.2891654     0.9298757
   281   1 H        0.8448933     0.0367854     0.0195885
   282   1 H        0.7913473     0.0864398     0.0615351
   283   1 H        0.6620608     0.2146579     0.0849484
   284   1 H        0.6302654     0.9779048     0.1798516
   285   1 H        0.6294148     0.6514044     0.3207968
   286   1 H        0.7767791     0.1609391     0.8259213
   287   1 H        0.9553361     0.8006450     0.0232222
   288   1 H        0.9076761     0.6962083     0.0630623
   289   1 H        0.7870823     0.4439811     0.0853687
   290   1 H        0.0247018     0.6518628     0.1802548
   291   1 H        0.8456100     0.6152108     0.8280269
   292   1 H        0.2133980     0.6579468     0.9087808
   293   1 H        0.7830043     0.6857433     0.4321370
   294   1 H        0.7133910     0.1144394     0.9284534
   295   1 H        0.9779178     0.6291150     0.8204418
   296   1 H        0.6503355     0.0139934     0.8138817
   297   1 H        0.6882413     0.9032438     0.9193782
   298   1 H        0.2351760     0.4612594     0.6432577
   299   1 H        0.2221438     0.7628101     0.6543396
   300   1 H        0.5346110     0.7720406     0.6432377
   301   1 H        0.7740953     0.5398342     0.1540617
   302   1 H        0.7693959     0.2265146     0.1524184
   303   1 H        0.4621011     0.2334183     0.1517794
   304   1 H        0.9475850     0.7822168     0.8262601
   305   1 H        0.9413880     0.7262726     0.8576959
   306   1 H        0.2065637     0.3318274     0.6985334
   307   1 H        0.2282548     0.3175364     0.7641522
   308   1 H        0.7360090     0.9726161     0.7245329
   309   1 H        0.7759759     0.9829464     0.7857885
   310   1 H        0.7301735     0.3862995     0.2736075
   311   1 H        0.7174820     0.3278312     0.3045773
   312   1 H        0.5558471     0.3423833     0.0851944
   313   1 H        0.2291390     0.4624846     0.8567522
   314   1 H        0.2318578     0.7732718     0.8482736
   315   1 H        0.5366152     0.7669957     0.8568263
   316   1 H        0.7643033     0.5408019     0.3479990
   317   1 H        0.4430826     0.7849627     0.9112114
   318   1 H        0.6054142     0.9043830     0.0605569
   319   1 H        0.4286128     0.4264948     0.4915848
   320   1 H        0.5724716     0.0016402     0.4934824
   321   1 H        0.9899104     0.5655840     0.4959231
   322   1 H        0.5703901     0.5736335     0.0030014
   323   1 H        0.4276172     0.9979984     0.0013711
   324   1 H        0.0958290     0.6989446     0.0525039
   325   1 H        0.0102623     0.4342433     0.0034907
   326   1 H        0.4234068     0.9941066     0.5061073
   327   1 H        0.0052496     0.4298996     0.5059061
   328   1 H        0.4285742     0.4286094     0.9998388
   329   1 H        0.5756107     0.0023377     0.9996051
   330   1 H        0.9983461     0.5712663     0.9986070
   331   1 H        0.4620831     0.2247262     0.3463870
   332   1 H        0.7775519     0.2363846     0.3459808
   333   1 H        0.5690801     0.5737133     0.5046201
   334   1 H        0.3055279     0.2120219     0.0599370
   335   1 H        0.9053847     0.3030550     0.9484520
   336   1 H        0.0970115     0.3935627     0.4403793
   337   1 H        0.6225375     0.7758903     0.1795957
   338   1 H        0.6004746     0.7115810     0.0761909
   339   1 H        0.1557026     0.9562441     0.9779151
   340   1 H        0.2118542     0.9077329     0.9387166
   341   1 H        0.3400504     0.7845657     0.9133728
   342   1 H        0.3718453     0.0221624     0.8195451
   343   1 H        0.2262205     0.8401090     0.1745024
   344   1 H        0.2893124     0.8859969     0.0716057
   345   1 H        0.0330080     0.1927571     0.9740333
   346   1 H        0.0884946     0.2980397     0.9365305
   347   1 H        0.2143696     0.5554742     0.9127452
   348   1 H        0.9781922     0.3495474     0.8209823
   349   1 H        0.1528471     0.3775264     0.1800126
   350   1 H        0.1101967     0.3989134     0.0765001
   351   1 H        0.2169587     0.3137510     0.5725699
   352   1 H        0.6527395     0.6431074     0.8231379
   353   1 H        0.4441795     0.6615281     0.9136046
   354   1 H        0.6975711     0.7882775     0.9354273
   355   1 H        0.8020519     0.8442363     0.9752712
   356   1 H        0.1949888     0.1562312     0.4767213
   357   1 H        0.2983216     0.2104949     0.4327047
   358   1 H        0.5510447     0.3377021     0.4093857
   359   1 H        0.3509890     0.3717707     0.3170270
   360   1 H        0.3947711     0.2938295     0.5500303
   361   1 H        0.8430541     0.0392730     0.4774998
   362   1 H        0.7882447     0.0879519     0.4339952
   363   1 H        0.3414812     0.5593372     0.5867508
   364   1 H        0.6635233     0.2144094     0.4076014
   365   1 H        0.6279556     0.9793050     0.3178636
   366   1 H        0.7063004     0.1015423     0.5507753
   367   1 H        0.9716851     0.8097708     0.4743246
   368   1 H        0.9174313     0.7062104     0.4304546
   369   1 H        0.7873638     0.4489517     0.4091297
   370   1 H        0.0227627     0.6498400     0.3183341
   371   1 H        0.9021404     0.6039836     0.5505575
   372   1 H        0.2002072     0.1556028     0.0230897
   373   1 H        0.3570378     0.3474348     0.6774131
   374   1 H        0.8127632     0.1299263     0.2491563
   375   1 H        0.2905619     0.4004015     0.4215738
   376   1 H        0.3489574     0.9845232     0.1831332
   377   1 H        0.3988886     0.0968283     0.9480640
   378   1 H        0.8030266     0.8434685     0.5253340
   379   1 H        0.6986299     0.7893891     0.5658363
   380   1 H        0.4443998     0.6620329     0.5899287
   381   1 H        0.6489065     0.6353041     0.6850848
   382   1 H        0.6039122     0.7027988     0.4407883
   383   1 H        0.5591254     0.2144774     0.0884435
   384   1 H        0.9789122     0.3524975     0.6828601
   385   1 H        0.0883381     0.2978274     0.5671205
   386   1 H        0.0387943     0.1944818     0.5231091
   387   1 H        0.2251581     0.3778122     0.3190454
   388   1 H        0.3721258     0.0203932     0.6814755
   389   1 H        0.3353854     0.7855793     0.5920196
   390   1 H        0.2084423     0.9171680     0.5660616
   391   1 H        0.1572139     0.9677647     0.5193764
   392   1 H        0.2138906     0.5516905     0.5906058
   393   1 H        0.3102611     0.0933380     0.0773280
   394   1 H        0.2919258     0.8978356     0.4496728
   395   1 H        0.0229985     0.3702794     0.1827192
   396   1 H        0.1002070     0.7784722     0.5708738
   397   1 H        0.8750967     0.1795832     0.2348958
   398   1 H        0.2127900     0.6540882     0.5875528
   399   1 H        0.1522449     0.7662316     0.3275121
   400   1 H        0.1098210     0.7009164     0.4306073
   401   1 H        0.6858943     0.9030581     0.5735279
   402   1 H        0.4378535     0.7846630     0.5881507
   403   1 H        0.6527276     0.0099485     0.6759032
   404   1 H        0.9753540     0.6290012     0.6824127
   405   1 H        0.5991266     0.8906245     0.4231508
   406   1 H        0.7835199     0.6903251     0.0771137
   407   1 H        0.6588316     0.4452872     0.0904545
   408   1 H        0.6287138     0.6491141     0.1827817
   409   1 H        0.7041205     0.6046915     0.9489322
   410   1 H        0.7875859     0.3413093     0.0905455
   411   1 H        0.6222329     0.8482579     0.3206018
   412   1 H        0.9043512     0.2212511     0.0751359
   413   7 N        0.3404177     0.4200435     0.8041785
   414   7 N        0.2583979     0.4299710     0.9405466
   415   7 N        0.0373873     0.6605892     0.9608167
   416   7 N        0.1176838     0.6000588     0.9117826
   417   7 N        0.6230239     0.9605640     0.9612159
   418   7 N        0.1697120     0.7430328     0.9315438
   419   7 N        0.4813317     0.8806311     0.9152737
   420   7 N        0.5805178     0.9216046     0.8034490
   421   7 N        0.5703254     0.8292248     0.9400957
   422   7 N        0.3981894     0.5200146     0.9139873
   423   7 N        0.0710455     0.6567901     0.8054046
   424   7 N        0.3389004     0.3786218     0.9630762
   425   7 N        0.7408869     0.5708065     0.4400226
   426   7 N        0.4204841     0.0767334     0.3085848
   427   7 N        0.5224098     0.1179729     0.4170697
   428   7 N        0.3791177     0.0388935     0.4673396
   429   7 N        0.8309105     0.2619133     0.4379454
   430   7 N        0.8831430     0.4031851     0.4157742
   431   7 N        0.9618062     0.3400882     0.4689526
   432   7 N        0.6566663     0.5847643     0.3105057
   433   7 N        0.5973330     0.4793658     0.4152619
   434   7 N        0.6594602     0.6207021     0.4697857
   435   7 N        0.8280316     0.5684949     0.0626013
   436   7 N        0.9304078     0.5865527     0.1903418
   437   7 N        0.8829005     0.4829666     0.0839031
   438   7 N        0.4330958     0.1706980     0.4377918
   439   7 N        0.5065844     0.4873388     0.3985895
   440   7 N        0.3155315     0.4909697     0.7484306
   441   7 N        0.4895398     0.5127047     0.9017120
   442   7 N        0.0729636     0.8611184     0.5472418
   443   7 N        0.9303216     0.1391068     0.0460850
   444   7 N        0.3699780     0.2476851     0.6743769
   445   7 N        0.7519719     0.1230098     0.6753147
   446   7 N        0.2473817     0.8753465     0.3246659
   447   7 N        0.7514165     0.6305380     0.8251723
   448   7 N        0.4926685     0.1712945     0.2509978
   449   7 N        0.8347740     0.3188101     0.2531641
   450   7 N        0.6828624     0.5146119     0.2539103
   451   7 N        0.5083629     0.8258413     0.7487431
   452   7 N        0.1657021     0.6810758     0.7479340
   453   7 N        0.9593458     0.6239286     0.0294434
   454   7 N        0.5153910     0.0194740     0.4028215
   455   7 N        0.1694091     0.4811631     0.7528446
   456   7 N        0.5105871     0.6862984     0.7513625
   457   7 N        0.8335677     0.5172899     0.2468739
   458   7 N        0.6867181     0.1688828     0.2464095
   459   7 N        0.4836289     0.3151079     0.2462647
   460   7 N        0.5138271     0.0203456     0.0982157
   461   7 N        0.9816623     0.4910853     0.1007217
   462   7 N        0.5098738     0.4907171     0.1016710
   463   7 N        0.4853870     0.9796596     0.5982863
   464   7 N        0.0188587     0.5045307     0.6005853
   465   7 N        0.4897511     0.5131237     0.5975736
   466   7 N        0.0193834     0.5078365     0.9003023
   467   7 N        0.4882538     0.9791025     0.9026900
   468   7 N        0.3135938     0.8308073     0.7530421
   469   7 N        0.7464614     0.1728144     0.0606326
   470   7 N        0.9818221     0.4941679     0.4004783
   471   7 N        0.6051213     0.1188336     0.0821989
   472   7 N        0.1171020     0.5962021     0.5856584
   473   7 N        0.0375406     0.6561034     0.5302318
   474   7 N        0.2588306     0.4305702     0.5518659
   475   7 N        0.3386966     0.4196398     0.6903879
   476   7 N        0.3985247     0.5205733     0.5828504
   477   7 N        0.3390824     0.3794879     0.5293263
   478   7 N        0.1735485     0.4302316     0.9470514
   479   7 N        0.0729253     0.4127844     0.8100820
   480   7 N        0.1185023     0.5161546     0.9149345
   481   7 N        0.0448978     0.3778476     0.9720036
   482   7 N        0.2553494     0.8273881     0.9396914
   483   7 N        0.3415494     0.9276160     0.8093358
   484   7 N        0.3968753     0.8803923     0.9172289
   485   7 N        0.3357164     0.9589667     0.9715771
   486   7 N        0.5694569     0.7438587     0.9468880
   487   7 N        0.5814899     0.6627362     0.8096592
   488   7 N        0.4826180     0.6042095     0.9170838
   489   7 N        0.3732475     0.3349366     0.4617416
   490   7 N        0.5128138     0.3952240     0.4112123
   491   7 N        0.4138400     0.3405727     0.3031694
   492   7 N        0.4286336     0.2533214     0.4300992
   493   7 N        0.6640890     0.0381444     0.4635802
   494   7 N        0.6069779     0.1185921     0.4126318
   495   7 N        0.0689827     0.6548086     0.6918123
   496   7 N        0.6603098     0.0735310     0.3036890
   497   7 N        0.6598920     0.0723139     0.1899902
   498   7 N        0.9597313     0.6250075     0.4620931
   499   7 N        0.8831332     0.4874526     0.4119788
   500   7 N        0.9287849     0.5869723     0.3038986
   501   7 N        0.8272568     0.5738054     0.4304091
   502   7 N        0.6237703     0.6649154     0.9710313
   503   7 N        0.7480039     0.1750535     0.4304043
   504   7 N        0.1686839     0.7367611     0.5624699
   505   7 N        0.9308838     0.3443573     0.3101109
   506   7 N        0.4770641     0.8805195     0.5846170
   507   7 N        0.0399816     0.3735602     0.5370335
   508   7 N        0.1179656     0.5123530     0.5883961
   509   7 N        0.0735294     0.4128438     0.6963158
   510   7 N        0.1725378     0.4276510     0.5602975
   511   7 N        0.3767363     0.3364059     0.0287740
   512   7 N        0.5172318     0.3995546     0.0847674
   513   7 N        0.4139035     0.3417676     0.1894689
   514   7 N        0.4297678     0.2561594     0.0611282
   515   7 N        0.6672995     0.0388938     0.0294137
   516   7 N        0.2511499     0.8240973     0.5699068
   517   7 N        0.3397701     0.9261507     0.6956344
   518   7 N        0.3930395     0.8812665     0.5877939
   519   7 N        0.3324134     0.9613877     0.5364445
   520   7 N        0.5689874     0.7435922     0.5605130
   521   7 N        0.5811181     0.6606660     0.6959053
   522   7 N        0.6196556     0.9592460     0.5309091
   523   7 N        0.6240484     0.6650064     0.5358077
   524   7 N        0.4829029     0.6048071     0.5856487
   525   7 N        0.5667870     0.8273921     0.5526717
   526   7 N        0.6603630     0.6228583     0.0389688
   527   7 N        0.6015785     0.4838472     0.0891845
   528   7 N        0.5798085     0.9197694     0.6896578
   529   7 N        0.7444586     0.5712973     0.0693942
   530   7 N        0.9662142     0.3441008     0.0391191
   531   7 N        0.6581519     0.5848943     0.1968155
   532   7 N        0.9298017     0.3429991     0.1964935
   533   7 N        0.8315574     0.2577325     0.0691796
   534   7 N        0.3780500     0.0377360     0.0392514
   535   7 N        0.5207060     0.1187613     0.0851478
   536   7 N        0.4204362     0.0760700     0.1949844
   537   7 N        0.8833415     0.3989675     0.0882529
   538   7 N        0.4295202     0.1709901     0.0688202
   539   8 O        0.4610333     0.9921961     0.4101793
   540   8 O        0.7320683     0.6642800     0.8371754
   541   8 O        0.7533007     0.6129142     0.7667125
   542   8 O        0.4922074     0.8010755     0.8052438
   543   8 O        0.5428323     0.0049968     0.8981981
   544   8 O        0.3063607     0.5071400     0.8046171
   545   8 O        0.9931767     0.5361063     0.8939901
   546   8 O        0.4605989     0.4583727     0.8942634
   547   8 O        0.5138308     0.1958290     0.3065512
   548   8 O        0.8107229     0.3177213     0.3083189
   549   8 O        0.1926865     0.6940969     0.8032483
   550   8 O        0.2660200     0.9285248     0.3352825
   551   8 O        0.8858010     0.1240690     0.0821462
   552   8 O        0.7539943     0.1428354     0.7336421
   553   8 O        0.7315847     0.0697175     0.6635375
   554   8 O        0.3864680     0.2442283     0.7329669
   555   8 O        0.3381964     0.2693144     0.6623472
   556   8 O        0.9450057     0.1034208     0.0253946
   557   8 O        0.0587737     0.8972191     0.5266793
   558   8 O        0.1155673     0.8750347     0.5862275
   559   8 O        0.9543286     0.7500370     0.8168877
   560   8 O        0.2012544     0.3294462     0.7474626
   561   8 O        0.0082243     0.4658642     0.4027844
   562   8 O        0.7148253     0.3624352     0.3141020
   563   8 O        0.8361975     0.1721259     0.2459767
   564   8 O        0.2477431     0.8552898     0.2671603
   565   8 O        0.7409754     0.9530513     0.7635320
   566   8 O        0.6845763     0.4923047     0.3093046
   567   8 O        0.8097299     0.4939834     0.1917745
   568   8 O        0.3109725     0.5112661     0.6927749
   569   8 O        0.5349863     0.5420570     0.4004498
   570   8 O        0.4616961     0.4584287     0.5954489
   571   8 O        0.1939941     0.5027085     0.8082441
   572   8 O        0.9937004     0.4531420     0.8982140
   573   8 O        0.3114455     0.8067794     0.8085667
   574   8 O        0.4595787     0.0050073     0.8980906
   575   8 O        0.4909945     0.6919513     0.8069811
   576   8 O        0.5442405     0.5410417     0.8999151
   577   8 O        0.8065877     0.5040201     0.3021869
   578   8 O        0.0072965     0.5480948     0.3895797
   579   8 O        0.6979044     0.1952769     0.3020245
   580   8 O        0.5438023     0.9947810     0.3874755
   581   8 O        0.4982444     0.3033053     0.3018875
   582   8 O        0.4526918     0.4589321     0.3874657
   583   8 O        0.9918870     0.5322678     0.5981577
   584   8 O        0.1894286     0.6819390     0.6926273
   585   8 O        0.0075088     0.4627583     0.1098120
   586   8 O        0.4877330     0.8005358     0.6933844
   587   8 O        0.4593596     0.9946420     0.1042459
   588   8 O        0.5081279     0.1972584     0.1951062
   589   8 O        0.5436377     0.5418498     0.6085882
   590   8 O        0.4938383     0.6945867     0.6951030
   591   8 O        0.4572055     0.0054301     0.6090490
   592   8 O        0.8081715     0.3061324     0.1976108
   593   8 O        0.5400600     0.0058254     0.5955941
   594   8 O        0.9939311     0.4506431     0.6115995
   595   8 O        0.3015428     0.8041248     0.6975913
   596   8 O        0.4551433     0.4622175     0.1028113
   597   8 O        0.5058019     0.3130452     0.1909345
   598   8 O        0.5424434     0.9943270     0.1017979
   599   8 O        0.6895157     0.1931281     0.1908590
   600   8 O        0.0076180     0.5458101     0.1010251
   601   8 O        0.6948859     0.5000614     0.1983607
   602   8 O        0.5385781     0.5450126     0.1096918
   603   8 O        0.1953814     0.4958831     0.6969289
   604  30 Zn       0.5632644     0.8968610     0.9020526
   605  30 Zn       0.1010939     0.6658717     0.9011302
Note: The following floating-point exceptions are signalling: IEEE_UNDERFLOW_FLAG IEEE_DENORMAL
normal termination of xtb
   606  30 Zn       0.3332723     0.4372810     0.9029677
   607  30 Zn       0.4398334     0.1009961     0.4070222
   608  30 Zn       0.8999398     0.5656682     0.0937792
   609  30 Zn       0.6635747     0.5625195     0.4077291
   610  30 Zn       0.4307028     0.3282017     0.4001416
   611  30 Zn       0.6730279     0.1024836     0.4007597
   612  30 Zn       0.8975607     0.5687686     0.3993760
   613  30 Zn       0.5654926     0.6701877     0.9093266
   614  30 Zn       0.3312948     0.8978848     0.9068808
   615  30 Zn       0.1043708     0.4342329     0.9068551
   616  30 Zn       0.3334440     0.4374675     0.5907203
   617  30 Zn       0.9010715     0.3380646     0.4065309
   618  30 Zn       0.0982755     0.6606982     0.5948633
   619  30 Zn       0.9011239     0.3343209     0.0999740
   620  30 Zn       0.4383818     0.1022070     0.0975520
   621  30 Zn       0.5654985     0.6700842     0.5971046
   622  30 Zn       0.3263284     0.8972878     0.5983731
   623  30 Zn       0.1027688     0.4304917     0.5992139
   624  30 Zn       0.4344502     0.3323217     0.0922192
   625  30 Zn       0.6708513     0.1011581     0.0920630
   626  30 Zn       0.6682157     0.5660163     0.0999527
   627  30 Zn       0.5596319     0.8954752     0.5906173

 * volume of direct unit cell/Å³ = 10313.8194296

 * mass density of direct unit cell/g·cm⁻³ =     1.2960329


optimized geometry written to: xtbopt.poscar


           -------------------------------------------------
          | TOTAL ENERGY             -132.607193776803 Eh   |
          | GRADIENT NORM               0.009057044126 Eh/α |
           -------------------------------------------------
########################################################################
[WARNING] Runtime exception occurred
-1- gfnff_setup: Could not read topology file.
########################################################################

------------------------------------------------------------------------
 * finished run on 2026/09/03 at 05:26:49.045     
------------------------------------------------------------------------
 total:
 * wall-time:     0 d,  2 h,  9 min, 56.295 sec
 *  cpu-time:     0 d,  3 h,  7 min, 54.441 sec
 * ratio c/w:     1.446 speedup
 SCF:
 * wall-time:     0 d,  0 h,  0 min, 18.635 sec
 *  cpu-time:     0 d,  0 h,  0 min, 28.871 sec
 * ratio c/w:     1.549 speedup
 ANC optimizer:
 * wall-time:     0 d,  2 h,  9 min, 26.202 sec
 *  cpu-time:     0 d,  3 h,  7 min, 11.244 sec
 * ratio c/w:     1.446 speedup

