 energy: -132.607193776803 gnorm: 0.009057044126 xtb: 6.7.1 (edcfbbe)
    1.00000000000000
   47.55895545938746   -1.25876017821695    0.11217380139283
  -23.46999535983846   40.67102166801086    0.62600964104684
   -0.32205012821891    0.22899571486333   36.54420677255528
 C    Cl   H    N    O    Zn  
 240 18 154 126 65 24
Direct
    0.31970381702461    0.30655550142404    0.47132486375374
    1.00870923211156    0.31599994545045    0.45575740666123
    0.98380358834502    0.21104509583072    0.43849142728473
    0.97374585115552    0.25969528854337    0.42188321040221
    0.86965200470702    0.43828777521586    0.44699273700366
    1.02846585521936    0.39027888142180    0.29211665200485
    0.87517844697947    0.28923961844494    0.52060194078375
    0.88326265085077    0.26253635229731    0.63760760027362
    0.90413072552229    0.30720973627483    0.58467053344846
    0.34241279415260    0.06635518703898    0.44391803248342
    0.26086211243506    0.08679529330459    0.42803542116001
    0.31933166411132    0.09896691131062    0.40913733433381
    0.61159482083313    0.21558014268011    0.39876535687452
    0.75265188286891    0.64044150142818    0.56137626875127
    0.39214208800671    0.05796148127496    0.27798787453044
    0.43473557050041    0.16541441621248    0.56773808832274
    0.31037156281650    0.34647703779808    0.94829883374572
    0.20396548319905    0.26458941008336    0.94205551296058
    0.25222668544619    0.32351875375041    0.91955095204615
    0.43284367015420    0.61385659031986    0.89584261857127
    0.35791168018878    0.38916688664073    0.77693737747061
    0.28449976328108    0.45450241990615    0.00425593631706
    0.27084663493877    0.42397078232127    0.12317529236547
    0.30846902082017    0.44449087365010    0.06434695030421
    0.05419691279041    0.74865667252812    0.95044097226369
    0.07921542363223    0.85429724947158    0.93412671212795
    0.08876902454286    0.80622477750435    0.91621350475806
    0.44650896461231    0.19860264689072    0.50502935917948
    0.19477754288458    0.63716991955786    0.90691865335381
    0.79291927208760    0.66412504902984    0.61620872589189
    0.67160065644781    0.68344147790884    0.26643630598274
    0.27145112864401    0.25189749462743    0.02165493993629
    0.57088062713641    0.41650656539343    0.07324560653515
    0.37598444114878    0.36319086082834    0.20670028125621
    0.43316034708522    0.25027664366604    0.98376294133683
    0.39997124180689    0.23059259100978    0.86699064375108
    0.40910435473988    0.26427345282100    0.92563760991680
    0.74659988207894    0.05164579009726   -0.00514156767084
    0.82253947991634    0.02540240355785   -0.03077499589209
    0.80261223265228    0.05570091963704    0.01061719417738
    0.65910224176506    0.20467601577359    0.07544886604548
    0.70214071628272    0.05770503460665    0.22092460033289
    0.81620993444777    0.22857475432530    0.99731052443831
    0.77307461970196    0.62635744668836    0.50125348652142
    0.83126403041629    0.21895443944761    0.87826266188381
    1.01190313772542    0.73934604808433    0.00433159113218
    1.03689367956890    0.84507998635023   -0.01338418902367
    1.00331254397067    0.78837161402766    0.02199259331149
    0.85464407785936    0.48217260399679    0.08769609345563
    0.99895827933075    0.67786844499283    0.20843318999016
    0.84198668696568    0.64009142073202    0.98024314384001
    0.87177451856863    0.69500263916228    0.87190251029227
    0.88528749324586    0.66835193057954    0.92682889689231
    0.75009024658002    0.73802077819063    0.44202285199640
    0.85690108349536    0.81931554124721    0.43634424299538
    0.80849482005317    0.76178247196804    0.41328275940708
    0.62313543091948    0.47341655199818    0.40796009625284
    0.79725450853278    0.19292510775735    0.93767760985286
    0.03222604084339    0.68620168775349    0.77389365499887
    0.18544267745493    0.77661034704968    1.00003027233433
    0.16767462701791    0.78768947269207    0.11768528844043
    0.95583999827804    0.51561206628360    0.08390110375793
    0.58097907831965    0.10433184894572    0.07653381991229
    0.44678815113833    0.34124753322518    0.24179813858863
    0.72683709238127    0.15383410853637    0.25050159818721
    0.90222843050812    0.60925314438449    0.24365336972598
    0.61594388705936    0.74743543686714    0.73415434890633
    0.32764011716987    0.91955980836135    0.73989146591261
    0.14870265863026    0.45676798329973    0.74506828576514
    0.36091929657594    0.47540478460145    0.73721361098631
    0.11839103903895    0.69124367471127    0.73759026554675
    0.58561847667186    0.94061181365022    0.73796969260592
    0.68519893567325    0.60583235774344    0.23522967857195
    0.54469538934610    0.48948331887197    0.07054933445896
    0.93903968036743    0.38022363405517    0.25888138139499
    0.47532764966443    0.24271719475732    0.39899379599452
    0.83844383296638    0.28109825779550    0.41311241444191
    0.78658199360780    0.59600705570017    0.39820480927523
    0.58746722430608    0.84358267354707    0.89130607925569
    0.22755870352665    0.79938116666636    0.89423326947992
    0.26603117629558    0.47949487423101    0.89890781693603
    0.27576774939066    0.48918958019169    0.57625152211888
    0.22389633017698    0.79471384112359    0.58291937263888
    0.58777798733072    0.83341534501062    0.58096450766558
    0.78983403291792    0.59609607019272    0.07848551925373
    0.82799447151507    0.26873356913099    0.10224363610027
    0.47133795315426    0.24424000838468    0.08609647089386
    0.47696902066918    0.14515884097282    0.23923631877218
    0.47290860552985    0.96659166575928    0.57455792704697
    0.09621115069430    0.54830655677405    0.57380693065704
    0.51624574322892    0.58821960402417    0.56788289047359
    0.15161967367957    0.74985820242834    0.06020359250517
    0.71174119876781    1.01700965646324    0.93659975950399
    0.78759948857038    0.99068670570622    0.91223974085873
    0.73183152847023    0.98633236759471    0.89546785687343
    0.45245697749591    0.87352605859962    0.91338380279692
    0.66682337794584    1.03322518305809    0.76842918238835
    0.60793686902970    0.88113499028173   -0.00180247655795
    0.63434710669997    0.89143820073435    0.11722442827050
    0.61467237828516    0.91102335636226    0.05988064674174
    0.40412675935430    0.39784470384039    0.50043934131997
    0.66882436492830    1.05486077712760    0.50217450983086
    1.00229711767702    0.65127071821847    0.49965665324395
    0.64808893815563    0.68567666158110   -0.00247083899753
    0.38828156632279    1.01852702148708    0.00281694904149
    0.05241546584113    0.42214771836514    0.01599842649882
    0.65000758138089    0.68190961212993    0.47439081896127
    0.39422791510488    1.02065361134682    0.48020268255153
    0.05521869483914    0.41446021508885    0.49479881826857
    0.41035200743401    0.40122284185531    0.97928795206287
    0.66228473860574    0.05954063878674    0.98502913231516
    1.00524612248904    0.64749927964977    0.98537089978724
    0.54297089220033    0.48819014414608    0.40741123714759
    0.59125105286140    0.11705356151578    0.41043503209198
    0.95991963885684    0.52275602565789    0.41339275107258
    0.51263894188865    0.59895193598173    0.90255015454740
    0.47040123380047    0.97144651054257    0.91120469158640
    0.09900552844668    0.55186089007710    0.91350104225867
    0.21392485259985    0.22924635815523   -0.00754055571886
    0.32023199554340    0.31112392620204    0.00014498574200
    0.40795381575176    0.17975733267848    0.62052226497325
    0.20285757055636    0.40998940331853    0.36390926980624
    0.30077778913444    1.01882082556029    0.98370820916758
    0.22041291883223    1.04120273057951    0.99485324487982
    0.24280535765823    1.00791935617301    0.96352087182096
    0.39600595560692    0.86945446125448    0.91444871798651
    0.35430674231751    1.01602804866646    0.76996030112550
    0.23601435336233    0.84045586902885   -0.00203819758151
    0.21677626352331    0.85093666068074    0.11535879290053
    0.25125660907385    0.87760643224806    0.05624773133132
    0.04919123127830    0.33323581473060    0.99074781382645
    0.01998622655978    0.22583188283101    0.99200910188953
    0.05667876714715    0.28599181591064    0.96493196559938
    0.20012031105405    0.58501083536664    0.90820660996296
    0.64008717787668    0.81273096823553    0.05282981208355
    0.05245286931584    0.38718831940725    0.78020489405637
    0.21081685410792    0.41445692848457    0.12269262702769
    0.18663491251838    0.42406470138536    0.06332025068297
    0.30237745949289    0.33399818204754    0.52350903918029
    0.20035997112839    0.24230652999911    0.52460249689628
    0.24237369019876    0.30161449352427    0.55002345071721
    0.43676643536485    0.60346431162803    0.55972943431412
    0.35622829287899    0.38756835160743    0.70607545253346
    0.28512865954510    0.45628702993632    0.47300035611590
    0.26375374829479    0.42231693062197    0.35679753125057
    0.30510970530453    0.44514746666097    0.41067650868951
    0.04981309368792    0.75135880183361    0.53312210068031
    0.07680193134040    0.85762272625294    0.54382309973395
    0.22337016370042    0.44434577209206    0.00354896044832
    0.64645265026669    0.84252053586726    0.11374342116946
    0.62058102587369    0.83173184572985   -0.00543379292855
    0.70399457658146    0.75789012420705    0.77256194187189
    0.21785274625775    0.21563358951696    0.47318407517644
    0.27713747856385    0.24710067205483    0.44639692260531
    0.56931688716485    0.41520499771879    0.40961794201369
    0.37595337817040    0.36232014503599    0.27772466977320
    0.43213715054446    0.24650471296392    0.49724985934429
    0.39168751926216    0.22537426658334    0.61157684641962
    0.40423948629998    0.25917983518012    0.55034446391167
    0.75595646186875    0.05395576565894    0.48297455516348
    0.83702128010840    0.03265493629131    0.49742888455224
    0.81478395573779    0.06645612149245    0.46460117341142
    0.66736611805001    0.21832527137860    0.40090095912853
    0.70387786442047    0.05962732390943    0.29177607569386
    0.18211800883866    0.41957000926930    0.42598042558253
    0.83505333794128    0.20014069650867    0.62747215119475
    0.80531301500159    0.18232970621224    0.56476220023785
    1.00611615769595    0.74242633928687    0.48113978258131
    1.03310632104345    0.84858447697754    0.49339146061539
    0.99762984633213    0.79153274451121    0.46175937749464
    0.86127831918008    0.48849222219666    0.44147637414311
    0.99821930524755    0.67805697633986    0.27936596416433
    0.83319943374545    0.63413697807127    0.49888178719907
    0.85316742666361    0.67413103623199    0.61259247985110
    0.87319013708066    0.65831616563138    0.55425717609198
    0.73672918770401    0.77682269566769    0.97435810217940
    0.84355184653778    0.85818765143867    0.97495928347345
    0.78468284328237    0.83514530740198    0.94942205894838
    0.48673901847542    0.67199379497179    0.89479517264384
    0.08542728065336    0.80915186742481    0.56413104859096
    0.19265461981291    0.63243419554358    0.56902369235306
    0.82451015237441    0.22673666802639    0.51153432441681
    0.18234328877607    0.78076010281989    0.47747119788405
    0.60436515908091    0.20406242759129    0.07202260793439
    0.44690808607596    0.20153413161183   -0.01808001833526
    0.41447363402223    0.18325396153883    0.86514401693400
    0.43789566687688    0.16808714721009    0.92251804134991
    0.74026514322058    0.77100293049026    0.49462001780056
    0.84692783607705    0.85234175548971    0.48747868408037
    0.78918034585850    0.82871210455871    0.51681995940731
    0.49071913488931    0.66153232570785    0.56048926342683
    0.70317154370943    0.75266803493364    0.70208388724140
    0.62251982625118    0.82587984659307    0.47804368569945
    0.64870188926088    0.84061548998698    0.35852923432892
    0.64293337465482    0.80938351727645    0.42084625241070
    0.31271711794504    0.09668480517361    0.06665277940635
    0.30751108153558    1.02232480140511    0.49811342346390
    0.24950713905641    1.01162904139862    0.51732780178795
    0.39613229645168    0.86557181328494    0.58154598146159
    0.35301118923128    1.01452595552176    0.69904836442652
    0.23293640082266    0.84395532152811    0.48222675279613
    0.21497382537338    0.86446028918311    0.36676336869933
    0.24857010521995    0.88570849176146    0.42687371329786
    0.05315226014081    0.32359969871993    0.50653419999477
    0.02820690488286    0.21888213718154    0.48785126775841
    0.06293660968042    0.27446153391048    0.52209740923794
    0.19697299342381    0.57966204662518    0.57339926382232
    0.05366068464270    0.38559134419584    0.70935658824289
    0.22333240777304    0.44354800740519    0.48039285109552
    0.22672024505449    1.04383493864934    0.48201282039921
    0.25479966988400    0.08520574520511    0.04597817154189
    0.39172558996357    0.05646329533340    0.20715000342975
    0.90354489039081    0.31676330878781    0.93574345623941
    0.16672419267583    0.80153757919065    0.36097420938134
    0.14959445598024    0.75934537928117    0.41591072190689
    0.72015915432372    1.00734670634602    0.53472063319925
    0.80175349673659    0.98666061082470    0.54852335770390
    0.74277073413659    0.97327242569218    0.56721615608424
    0.45158634639222    0.86752309729248    0.58142762952500
    0.66780835992550    1.02985722312685    0.69784667529660
    0.60933945305608    0.87496901491893    0.47349852201824
    0.63543539823845    0.88893839810652    0.35387692480944
    0.61628893909252    0.90687031888795    0.41061838833643
    0.33546132974041    0.06303095389149    0.03590665886914
    0.85561950251464    0.82412999253454    0.02503141538250
    0.03085093466943    0.68485925967392    0.70301318311261
    0.74871338644302    0.74281553856292    0.02591301971522
    0.62471920000668    0.47469002938628    0.07075681507997
    0.88404459128553    0.28004732527471    0.87710396439861
    0.80816959374547    0.76618986494542    0.05101495314159
    1.02612934739238    0.38781674224303    0.22133836260193
    0.86021208107960    0.43015028598147    0.08996111424416
    0.96896745672246    0.25862107558997    0.07114072627299
    0.86973941771874    0.29069304043394   -0.00387644466332
    1.00587721413383    0.31955725341710    0.04478044779472
    0.77107138991382    0.66402815425012    0.92073871054362
    0.81552930159326    0.69331998299652    0.86902547688320
    0.78446774573806    0.63766378609453   -0.02293798050223
    0.67187739043050    0.68262817043112    0.19552682406511
    0.97612784475232    0.21179695676102    0.04403241991408
    0.94185875502440    0.14066831203868    0.39765615919959
    0.81419468128765    0.95373886654935    0.86208919870022
    0.12518536231390    0.75692167526853    0.19186341100558
    0.11457381352471    0.92287241561830    0.88589284299061
    0.29702835538129    0.40686185723007    0.19679493574649
    0.13164891002271    0.23454996333008    0.90676907263290
    0.22885535832432    0.12249333972591    0.38224862368165
    0.92956150414051    0.85060977082212    0.40099187424051
    0.64658200149055    0.92945974755653    0.19300699263752
    0.66991737459308    0.81702844372982    0.28661738328643
    0.40251399429769    0.14250361621964    0.79134437403792
    0.22400337691828    0.12385664533517    0.08537361497150
    0.92692124532816    0.30836408553213    0.80298301274277
    0.92989175733586    0.85391483090238    0.05446849574587
    0.83304306078625    0.94844874919023    0.59070642939414
    0.12647259715892    0.20011690517204    0.55793013803559
    0.90473470652774    0.70964405855605    0.67875414932202
    0.15407341610524    0.38725893590138    0.29420850005164
    0.94051478409312    0.25401998114713    0.38315459689733
    0.83461817393424    0.38941413100681    0.45689812251257
    0.06535057527490    0.39465982625514    0.32461574139744
    0.90265293080196    0.27543069091526    0.68867189545884
    0.94034098547894    0.35569069873622    0.59201315964043
    0.34500898127328    0.13123564255594    0.36721651944547
    0.60436572051348    0.25390072203778    0.38638425944831
    0.38607487999736    0.60347529376502    0.88673907374437
    0.40086318426296    0.15764528394979    0.67095875605314
    0.44805368158212    0.13082860802539    0.57424692958155
    0.24458982212859    0.35041190610572    0.88084169674890
    0.70563116524302    0.63049661590786    0.56471029939617
    0.35890888493024    0.35563048979151    0.81241874251205
    0.35537328637492    0.45398981582634    0.06615436198639
    0.12042746389584    0.81287161933502    0.87529536381067
    0.35623303407300    1.02491626562820    0.31305266263771
    0.77895207914308    0.67524202179170    0.66367162230491
    0.92930863010031    0.67142538115908    0.93062202460278
    0.67006727784035    0.48365327974062    0.40101916254495
    0.35068719976998    0.37728498611083    0.17292059808090
    0.38131692519315    0.23952228199814    0.82087386480878
    0.39775025891817    0.30023221677991    0.92814427626107
    0.86656637543918    0.02936650894353   -0.02068469807063
    0.82989883123397    0.08321778934700    0.05349419742193
    0.70545946193867    0.24490662155812    0.08236888116049
    0.68507365612982    1.01644417231851    0.18911383354738
    0.66639772588425    0.71553399622771    0.29813459629893
    0.81778949004676    0.19300369381043    0.83103834764764
    1.02934428672405    0.88292358414315   -0.00287479151918
    0.96910555907550    0.78047486212198    0.06031514257067
    0.81285476081145    0.48347380256462    0.09505382807306
    0.03949421011472    0.70154319732902    0.17475364685777
    0.90560338037272    0.71990908137156    0.83130163243920
    0.23102344600975    0.68557411027093    0.89638969011850
    0.81629564917804    0.73633666623802    0.37454566966319
    0.75728852232397    0.14590039640842    0.93924498475365
    0.99829751392519    0.68559300964141    0.80808937561503
    0.70031212402930    0.07144858009263    0.79974168143974
    0.70551329261698    0.96104354679060    0.85107848135754
    0.28715405227854    0.50965233684567    0.62672119101647
    0.23402524372588    0.78411496878491    0.63382670166515
    0.56844897381163    0.82166526111498    0.63258021120314
    0.77726145288467    0.57261912974573    0.12846282090763
    0.81766191981181    0.27601678010482    0.15396944457940
    0.49226757631781    0.25673009061296    0.13645594766959
    0.99013087078183    0.80221843295957    0.74714868925757
    1.02684393202987    0.82174108235811    0.81583005636590
    0.21345253536100    0.39951675847604    0.62769296881511
    0.25865632190351    0.39214210985959    0.67574884398133
    0.77073955726477    1.01407493624669    0.70625715240421
    0.77168261370643    0.96721672228204    0.76035104242874
    0.76839841277739    0.43842915500313    0.33118350181451
    0.78502153462406    0.38691774193977    0.33432083959341
    0.56640668297263    0.37117530117172    0.08135013923837
    0.27443061948923    0.50006107708736    0.84749077148867
    0.23934888328411    0.79251534523440    0.84309697856941
    0.56877820826273    0.83335562454164    0.83976077040911
    0.77644321839056    0.57436017357453    0.34836652854602
    0.46106701354139    0.83571338667588    0.90679385332443
    0.60354372655507    0.94718293082221    0.06411648909331
    0.45176330249209    0.43671780911697    0.50243683266688
    0.63341543214777    0.06680767728298    0.49895702165676
    0.99018417295862    0.60300414823562    0.49567639537131
    0.60045767344893    0.64704882060872   -0.00499832219981
    0.42428858827087    1.00761719354450   -0.00112469894139
    0.11427638392479    0.70118061619516    0.06298688992352
    0.06270019293502    0.47000970157190    0.01339883957390
    0.43012840413301    1.00960699078083    0.48550214607482
    0.06628370447016    0.46195342347093    0.50313401886851
    0.45827311613021    0.43892608800621    0.98295362291790
    0.62780651537005    0.07175330717123    0.99445782131105
    0.99221851753769    0.59880249873232    0.98967162539119
    0.49704477583289    0.25525223179414    0.34856787370594
    0.83025099759510    0.29393336172703    0.36229511913154
    0.60202193251469    0.64413387588033    0.47854916477980
    0.27993790924656    0.22458721887101    0.05897529091099
    0.94289862319086    0.36443712475538    0.93350401484294
    0.13505300127981    0.40849238722094    0.43130222126227
    0.66010474009655    0.82856690652205    0.16047511832622
    0.65014936993411    0.77595994682815    0.04876146439686
    0.17550484778188    1.03342630226811    0.98090561946640
    0.21612152242269    0.97301614725702    0.92560824223429
    0.35040283146531    0.82765575618397    0.90931222174158
    0.36982195894346    0.05683587917454    0.80210394785223
    0.22600052733506    0.87821508989058    0.16117091010162
    0.28840607099126    0.92613816499992    0.05335134024460
    0.02471410521318    0.18802122745425    0.97336042129604
    0.09113411297872    0.29713956507091    0.92564336595337
    0.24162742325855    0.58349604399755    0.89954601146338
    1.01193604761741    0.36286549425966    0.81401798404562
    0.18456587103560    0.40020845164974    0.17041190447442
    0.14035043625465    0.41579700851089    0.06162235915434
    0.22886195973827    0.32050664072348    0.59096171379580
    0.74031605310389    0.76411797418357    0.80722145473189
    0.49151366224356    0.71731875851152    0.88535896865780
    0.77499352890623    0.86070293984102    0.91090862405665
    0.88173736715654    0.90283423336390    0.95616209177839
    0.18418912873481    0.16903562187101    0.45601836719254
    0.29165697157537    0.22615095081319    0.40878105084226
    0.56466585564158    0.36973719649586    0.40473942539965
    0.35009371335974    0.37416232243448    0.31182576136027
    0.39178446710132    0.29414812089182    0.54385949460506
    0.88285114854061    0.04216589822859    0.48528838031113
    0.84226816063392    0.10315333431460    0.42705881770943
    0.38964284389350    0.59343985130831    0.56232675926638
    0.71300200931044    0.25927458151511    0.39063106900150
    0.69068578700573    1.02128130848232    0.32831398403689
    0.76844607146982    0.13458366761631    0.55707745632330
    1.02739404460597    0.88754289825509    0.47979325775365
    0.96315616635209    0.78408752556363    0.42390291147738
    0.81836955182073    0.48794357252093    0.44689801711925
    0.03729920642431    0.70220763652847    0.31366799173154
    0.91950763989892    0.66685291997851    0.55155076311520
    0.17548267682527    0.18332803932505    0.00755767658816
    0.35387065537141    0.35160866148066    0.67381668855159
    0.81912529995049    0.16941406101090    0.21544178518001
    0.35267088441313    0.45707717369660    0.40518987269839
    0.35710369913179    1.02031526508406    0.17466321692246
    0.44957577629640    0.13219544081412    0.92011976515881
    0.88558474368221    0.89710536203785    0.50325011660424
    0.78061820730036    0.85396137552778    0.55511334050543
    0.49540653305115    0.70709837041637    0.56409979196261
    0.73765815843322    0.75174346090594    0.67025316754038
    0.65449807944765    0.77355939882635    0.42431466891824
    0.59812424561363    0.24365010509477    0.07637180545520
    1.01510935653246    0.35892396932637    0.67509002183028
    0.09786513570463    0.28102657886573    0.55894022209329
    0.03551347864728    0.18042627163907    0.49764135958671
    0.27796670912745    0.41531685190866    0.30708118118750
    0.36556938067295    0.05284165480204    0.66268996183892
    0.35003544839071    0.82486289184795    0.59012713274818
    0.22329532029842    0.97805996865769    0.55817368450783
    0.18115210022940    1.03510584761731    0.49434958340663
    0.23852958648116    0.57765402061991    0.58020570459161
    0.33901487360058    0.13060698358718    0.10551380056531
    0.28569484945860    0.93395203511646    0.43072665242559
    0.06098550910605    0.39114343351765    0.18652666223538
    0.11908137450227    0.81634781159255    0.60296763257557
    0.87679170204229    0.17174672159074    0.18375892126254
    0.22994455921593    0.68101547766719    0.57288226694068
    0.14449079752483    0.78640776752748    0.31145265796777
    0.11317359456801    0.71051042568020    0.41167344477245
    0.71689096615938    0.93978122916783    0.60825646372548
    0.45875734907711    0.82874475060036    0.59053914068996
    0.70294341486372    0.06373466816234    0.66248483631567
    0.99551918300518    0.68323959772231    0.66989659662426
    0.60508638603418    0.94321170660709    0.40745383006182
    0.81762915584141    0.73956737769335    0.08826480401434
    0.67179933158650    0.48513801823775    0.07693368509644
    0.66577340933564    0.71279769658853    0.15972500871911
    0.72819083107103    0.66362749809703    0.91864479222409
    0.82392210733487    0.38170682567039    0.10011905787477
    0.63899287051753    0.91050723574470    0.30385164880893
    0.93522394536674    0.24816588145547    0.11103111573947
    0.36092064802414    0.44397677978079    0.79571636861606
    0.30875794251883    0.47551191654459    0.93707132041169
    0.04842050106659    0.69007037704679    0.94099259311336
    0.13208852811012    0.61604933935610    0.91008857244720
    0.65939056718178    1.02292538156435    0.93322985451725
    0.18129308248442    0.75358179573067    0.93327881787808
    0.49804591693456    0.93680491606356    0.91133745813046
    0.61549515571252    0.97767017751788    0.79282482891910
    0.58821388555864    0.88729345871886    0.93177024706098
    0.44939271595250    0.56901466698743    0.90057369924195
    0.08662348524417    0.69000488633360    0.79476485133697
    0.36814067590258    0.40251106633452    0.93746484947865
    0.74640874397837    0.60405212437140    0.43652096654990
    0.44534971235997    0.11276973672271    0.29746937687355
    0.56488360197506    0.15280096470141    0.40481236482457
    0.39671503505254    0.06423081089652    0.43567005340425
    0.88292290970475    0.32111181771795    0.45699844907588
    0.93072562281625    0.45999008009835    0.42936846934082
    1.01182565245654    0.37409687372451    0.45069403876134
    0.67987509215741    0.63551914381991    0.29060840190899
    0.60628436443851    0.51812161225555    0.40658572728489
    0.69220379707697    0.68260895370494    0.43153340401801
    0.84347935295709    0.61393764674009    0.04458950620930
    0.93924458687172    0.63569446524175    0.18670861497149
    0.91403588906587    0.53479548323554    0.08358348047970
    0.47234026081796    0.19717294735550    0.44141248520609
    0.50736703506692    0.51889753797619    0.40472161910254
    0.36052199635807    0.53324399839848    0.73492173967522
    0.54794291277082    0.56799903630033    0.90483971337832
    0.11464272431263    0.91900398464418    0.57502467960744
    0.93649337941831    0.14650067214885    0.06795218804565
    0.36013573569780    0.23830388785603    0.66571470677110
    0.81462949670064    0.15125527178948    0.68189436833399
    0.23091765642624    0.90973633705308    0.30980550825450
    0.80738034522834    0.73014082202718    0.81460931430519
    0.53096741754052    0.20829614575072    0.23703864071329
    0.87804331728527    0.37242255462030    0.25972543617831
    0.69571146495797    0.55402068899485    0.23729506797698
    0.53233280906656    0.87694611717850    0.74061827898824
    0.18016314603423    0.70097024786787    0.73744648418770
    0.98269728658587    0.67569602208878    0.02456417922844
    0.55733073716784    0.04864370942421    0.41024132707277
    0.21122380344841    0.51106143709853    0.74373601243159
    0.55790848179920    0.74598352397757    0.73182700046758
    0.83958142053049    0.55491901902861    0.24396675398526
    0.74031079234501    0.21784093141272    0.24742933211081
    0.50090135035500    0.33549952610622    0.24210663830688
    0.54585659738781    0.03602547198417    0.07814352979896
    1.02312980874652    0.55544318182355    0.08496653229967
    0.50895746562791    0.51994969634811    0.07231389824519
    0.50745774989787    1.03495399616193    0.57493025468819
    0.02887896484711    0.51026821346391    0.57768363567559
    0.55190462858037    0.55770310406042    0.56978980398827
    0.03171353771298    0.51211085587587    0.91373460358924
    0.50265320307233    1.03971092128346    0.90877384804092
    0.31829332749142    0.85714849649744    0.74273849694468
    0.79186684246570    0.21689324567390    0.06419003295882
    1.02571852378557    0.56341306107006    0.39799948870806
    0.64417734039748    0.14277298908898    0.07839699360906
    0.13016154936894    0.61245532216837    0.56970500876598
    0.04602567978366    0.69331930863119    0.54233049476851
    0.31539433314031    0.48280295045197    0.53501109442790
    0.35825850615666    0.44128662007429    0.68184178026916
    0.45297953325395    0.55836959082508    0.56468114371731
    0.35700510261695    0.39168091127484    0.53923801045912
    0.21381741649477    0.46021172848638    0.93694939480722
    0.11161667093723    0.43094033518740    0.80203587096407
    0.14064422841079    0.53253604002186    0.91221994837059
    0.07668619809353    0.39754552870839    0.97419121248637
    0.26088248417239    0.85244706501444    0.93128668784444
    0.33799315369420    0.95690922957770    0.79492214546052
    0.40757764621041    0.93022587590944    0.91273392888578
    0.33579132698473    0.99282064797410    0.96434578131825
    0.60734734064035    0.80998484448308    0.92720602689716
    0.64964823647656    0.75426537756694    0.79211515307895
    0.53593556235271    0.66235382775289    0.89894039184306
    0.38296305171550    0.34774166258494    0.45873703399474
    0.52006548786064    0.42485566811864    0.40907993813395
    0.41972179128011    0.34810487446329    0.29884770389907
    0.45109393750546    0.27292080346418    0.43066035702329
    0.72215322618216    0.08209130580752    0.46437960809487
    0.65431314187236    0.15715609300142    0.40856223098105
    0.08439265387944    0.68763002359377    0.68098805161690
    0.72036509933456    0.11986365215202    0.30926616599351
    0.71757970581184    0.11652249025472    0.19577520485462
    0.97770883855586    0.67924685521852    0.46170093067598
    0.91734428953792    0.54045195633442    0.42064010815498
    0.93790926023648    0.63572613921555    0.30054539980566
    0.83916549459892    0.61411685329453    0.43369070285579
    0.67374487053780    0.73921233476119    0.95799263566676
    0.80281386065480    0.22401694336614    0.44399885301058
    0.17771352553909    0.75225371550584    0.54235701128676
    0.97438370487503    0.38588528387853    0.31492340123304
    0.49867619667919    0.93018158136454    0.57677716881063
    0.08079550080609    0.38545056630747    0.52939264346227
    0.13703639088715    0.52779925823525    0.57595602197378
    0.11380540185465    0.42866009307332    0.68822651974974
    0.21934290219655    0.46370764314631    0.54657234018095
    0.38295838456414    0.34729302116270    0.01821167108342
    0.52161562819303    0.42611954537546    0.07297761839087
    0.41954914538227    0.34942812368573    0.18478108561946
    0.44923292885832    0.27563413779835    0.04962063333939
    0.71396027170286    0.07737202077074    0.02342430442958
    0.25783414447812    0.85044641670011    0.54873028323863
    0.33594683086842    0.95426141654742    0.68105849634301
    0.40975902013508    0.92705406727711    0.57707758832829
    0.34149149551461    0.99492277754022    0.51877197390093
    0.60839589449463    0.80152487470178    0.54613301984655
    0.64830930474389    0.74629225932913    0.67871092110153
    0.66594760551762    1.00946678364416    0.54402033230682
    0.67756925315734    0.73411868027556    0.51348259727119
    0.53964106779364    0.65163675472588    0.56581858983693
    0.58872555830632    0.87846277347852    0.53921061894955
    0.69183903033265    0.68599791000514    0.03802491982851
    0.60801084967714    0.51949014579931    0.06912677640639
    0.61709101545277    0.97244871272681    0.67953983449766
    0.75370457631620    0.61036021016606    0.04022900686558
    1.00951162162364    0.37660085161932    0.05846399813746
    0.68047619960253    0.63441955332935    0.17677206367368
    0.97054985112159    0.38174399377763    0.20133801720083
    0.87549388184862    0.31324918562484    0.06343900364983
    0.39004308777606    0.06136879857667    0.04546591861486
    0.55634437058322    0.14172939160668    0.07263518089819
    0.44466501237032    0.11076659194708    0.18366260005127
    0.92297206226654    0.45142894247973    0.08765083060724
    0.46950471008006    0.19890154209478    0.04761179406452
    0.50087215590382    1.01933451562278    0.42376198577820
    0.82280582058172    0.78504965477632    0.82716258645039
    0.78531418168310    0.70542903957057    0.75849791041317
    0.50549390993861    0.85500538799309    0.79665327902336
    0.55888652532104    0.07013970898614    0.92274202480847
    0.35346953583784    0.55321065149954    0.78979567142757
    1.00071484900177    0.53617232247430    0.92699951831516
    0.52012889728379    0.51080154083507    0.91902812357191
    0.55148631970326    0.23532602250598    0.29231358232885
    0.85769190551855    0.37889798830970    0.31478694488655
    0.20802079709627    0.71150235986102    0.79293742088398
    0.27045981161917    0.96569980129157    0.32007051144824
    0.90002832091940    0.13451920612898    0.11662811404382
    0.80044272302081    0.16076867229703    0.73945889013688
    0.81075490664307    0.10098678533147    0.66771860628813
    0.35440814897103    0.21436263999653    0.72393380171921
    0.34021645237492    0.27329894903390    0.65111765460016
    0.93991710389185    0.10497357267135    0.03780112482624
    0.10933381353058    0.96329647983551    0.55357690601428
    0.15154233106519    0.92487456252256    0.62117315624902
    0.99573058462516    0.78550173144728    0.79048897341327
    0.21440043013358    0.37174289607272    0.66381599101648
    0.05922705979828    0.54073882763495    0.40259318416137
    0.75523732953413    0.39717844732441    0.35214132207700
    0.86474207277064    0.19389863695376    0.21498605995771
    0.20476409158406    0.89094609543973    0.25358777476727
    0.74841436717467    0.96977950785903    0.72142188648873
    0.70099634556831    0.53371850870938    0.29412863886451
    0.81374863001961    0.53486551921129    0.18788036416806
    0.36626562293171    0.55965474118729    0.67823606461539
    0.53479470698639    0.57618143314270    0.41548647405983
    0.52421646940896    0.50022456029671    0.56024137063450
    0.23393271325148    0.53811873267942    0.79847098456051
    1.00773235814787    0.45542109224885    0.90101584275150
    0.32133977597339    0.83510528612295    0.79940332005851
    0.47280858305101    0.06503617871852    0.89356157368586
    0.54007830955717    0.75883528771568    0.78474394857565
    0.60459844665489    0.59993412634071    0.89289407524848
    0.81456394740761    0.53048868826804    0.30021491674598
    0.04615351972894    0.61948855634634    0.38188311976885
    0.76111176038737    0.24992708134558    0.29965922145921
    0.58581293114350    1.02200268618237    0.39641482632184
    0.52391254056285    0.33440872045996    0.29824943621481
    0.45094356845727    0.48682787694181    0.39222661311139
    0.99897653923061    0.53580845978302    0.56379695742912
    0.20312614293094    0.69949837116880    0.68187638487409
    0.05441131377355    0.53181060835233    0.07122206360838
    0.51635516149365    0.84680249109268    0.68669751987851
    0.48937481915812    1.00814459409747    0.06571911969430
    0.55357318508569    0.23296606069099    0.18009972622193
    0.60868024388185    0.59030599722054    0.57997434955713
    0.52897911556420    0.73299964898804    0.67689586350895
    0.47910725467147    0.06205838695816    0.58717592296119
    0.84837811349552    0.35911354794422    0.20529188711490
    0.56420260515447    0.06364058065866    0.56294127769228
    1.00380503565691    0.45359168739848    0.59420673272635
    0.30757976169501    0.82831163959235    0.68835972939615
    0.45256699161768    0.48733030389958    0.08575650307341
    0.52193030776183    0.33172172411388    0.18625624680124
    0.57365900560692    1.00814367566645    0.09114933288335
    0.73093118058619    0.23801480264012    0.19270436051749
    0.04686564907244    0.61177040711139    0.09928939500705
    0.69980532889391    0.53258503655958    0.18199580363405
    0.53612282241430    0.57744600424789    0.05996813195694
    0.23933895885250    0.52817618743162    0.68787252694923
    0.58314811366466    0.95810454329516    0.88884630160369
    0.10902251907540    0.67926300842504    0.89036391064483
    0.38095491567873    0.47972926650951    0.89012003402486
    0.47711999097358    0.12977199421283    0.39375189751174
    0.91653645671556    0.61564852556900    0.08828849119222
    0.67628357898429    0.60520853241261    0.38790251834885
    0.44143396304962    0.34349279778309    0.39618685902032
    0.72889801437432    0.14973468262786    0.40408067424341
    0.91468301036791    0.61735000588353    0.39905156059719
    0.61799554186800    0.74286059206609    0.88872035124358
    0.33195562592241    0.93397711332928    0.89521627443832
    0.13552920627214    0.45135244432281    0.90069972269082
    0.37964888469111    0.47206572391765    0.58356191660505
    0.95408996318871    0.39687762682729    0.41084657592460
    0.10611210593175    0.67559693073056    0.58617037061236
    0.94723180163600    0.38845776635991    0.10522125807376
    0.47097416314608    0.12505114422571    0.08584189519783
    0.61934398991916    0.73253485600014    0.58168593102829
    0.33180178503023    0.92870614822026    0.58429161679570
    0.14189510597095    0.45087765113951    0.59081192156146
    0.44055032919394    0.34535582631093    0.08645439827894
    0.71802506219288    0.13504473688164    0.09525701630939
    0.67912038077804    0.60721706947508    0.08054783114272
    0.58451847968014    0.94700872601629    0.58486584528074
