# mIm075_nIm025__closed
1.000000
 33.9819999999999993   0.0000000000000000         0.0000000000
  0.0000000000000021  33.9819999999999993         0.0000000000
  0.0000000000000021   0.0000000000000021        33.9820000000
C C H C N Zn C C H C N Zn C C H N C C H C H H H N C C H C N Zn C C H N Zn C C H C H H H N C C H C H H H N C C H C N Zn C C H C H H H N Zn C C H C N Zn C C H C H H H N Zn C H N C H H H H N C H N C H H H H N C H H H H N Zn C H N Zn C H H H H N Zn C H N C H N Zn C H N C H H H H N C H N C C H C H H H N C C H C N C C H C H H H N C C H C H H H N C C H N C C H N C C H C N C C H C N C C H N C C H N C C H C N C C H C H H H N C H N C H N C H N C H H H H N C H H H H N C H H H H N C H N C H N C H H H H N C H N C H N C H N O N O O N O O N O O N O O N O O N O 
8 8 8 8 8 8 8 8 8 8 8 8 8 8 8 8 8 8 8 8 8 8 8 8 8 8 8 8 8 8 8 8 8 8 8 8 8 8 8 8 8 8 8 8 8 8 8 8 8 8 8 8 8 8 8 8 8 8 8 8 8 8 8 8 8 8 8 8 8 8 8 8 8 8 8 8 8 8 8 8 8 8 8 8 8 8 8 8 8 8 8 8 8 8 8 8 8 8 8 8 8 8 8 8 8 8 8 8 8 8 8 8 8 8 8 8 8 8 8 8 8 8 8 8 8 8 8 8 8 8 8 8 8 8 8 8 8 8 8 8 8 8 8 8 8 8 8 8 8 8 8 8 8 8 8 8 8 8 8 8 8 8 8 8 8 8 8 8 8 8 8 8 8 8 8 8 8 8 8 8 8 8 8 8 8 8 8 8 8 8 8 8 8 8 8 8 8 8 8 8 8 8 8 8 8 8 8 8 8 8 8 8 8 8 8 8 8 8 8 8 8 8 8 8 8 8 8 8 8 8 8 8 8 8 8 8 8 8 8 8 8 8 8 8 8 8 8 8 8 8 8 8 8 8 8 8 8 8 8 8 8 8 8 8 8 8 8 8 8 8 
Direct
0.1885250000000000 0.0039500000000000 0.3114750000000000
0.1885250000000000 0.0039500000000000 0.8114749999999999
0.1885250000000000 0.5039500000000000 0.3114750000000000
0.1885250000000000 0.5039500000000000 0.8114749999999999
0.6885250000000001 0.0039500000000000 0.3114750000000000
0.6885250000000001 0.0039500000000000 0.8114749999999999
0.6885250000000001 0.5039500000000000 0.3114750000000000
0.6885250000000001 0.5039500000000000 0.8114749999999999
0.1842550000000000 0.4495700000000000 0.3437500000000000
0.1842550000000000 0.4495700000000000 0.8437500000000000
0.1842550000000000 0.9495699999999999 0.3437500000000000
0.1842550000000000 0.9495699999999999 0.8437500000000000
0.6842550000000001 0.4495700000000000 0.3437500000000000
0.6842550000000001 0.4495700000000000 0.8437500000000000
0.6842550000000001 0.9495699999999999 0.3437500000000000
0.6842550000000001 0.9495699999999999 0.8437500000000000
0.1888500000000000 0.4294500000000000 0.3617000000000000
0.1888500000000000 0.4294500000000000 0.8617000000000000
0.1888500000000000 0.9294499999999999 0.3617000000000000
0.1888500000000000 0.9294500000000000 0.8617000000000000
0.6888500000000000 0.4294500000000000 0.3617000000000000
0.6888500000000001 0.4294500000000000 0.8617000000000000
0.6888500000000000 0.9294499999999999 0.3617000000000000
0.6888500000000000 0.9294500000000000 0.8617000000000000
0.2030499999999999 0.0427500000000000 0.2969500000000000
0.2030499999999999 0.0427500000000000 0.7969499999999999
0.2030499999999999 0.5427500000000000 0.2969500000000000
0.2030499999999999 0.5427500000000000 0.7969499999999999
0.7030500000000000 0.0427500000000000 0.2969500000000000
0.7030500000000000 0.0427500000000000 0.7969499999999999
0.7030500000000000 0.5427500000000000 0.2969500000000000
0.7030500000000000 0.5427500000000000 0.7969499999999999
0.2048650000000000 0.4841600000000000 0.3413900000000000
0.2048650000000000 0.4841599999999999 0.8413900000000001
0.2048650000000000 0.9841599999999999 0.3413900000000000
0.2048650000000000 0.9841599999999999 0.8413900000000001
0.7048650000000000 0.4841600000000000 0.3413900000000000
0.7048650000000000 0.4841599999999999 0.8413900000000001
0.7048650000000000 0.9841599999999999 0.3413900000000000
0.7048650000000000 0.9841599999999999 0.8413900000000001
0.2500000000000000 0.0000000000000000 0.3750000000000000
0.2500000000000000 0.0000000000000000 0.8750000000000000
0.2500000000000000 0.5000000000000000 0.3750000000000000
0.2500000000000000 0.5000000000000001 0.8750000000000000
0.7500000000000000 0.0000000000000000 0.3750000000000000
0.7500000000000001 0.0000000000000000 0.8750000000000000
0.7500000000000000 0.5000000000000000 0.3750000000000000
0.7500000000000001 0.5000000000000001 0.8750000000000000
0.0039500000000000 0.3114750000000000 0.1885250000000000
0.0039500000000000 0.3114750000000000 0.6885250000000001
0.0039500000000000 0.8114749999999999 0.1885250000000000
0.0039500000000000 0.8114749999999999 0.6885250000000001
0.5039500000000000 0.3114750000000000 0.1885250000000000
0.5039500000000000 0.3114750000000000 0.6885250000000001
0.5039500000000000 0.8114749999999999 0.1885250000000000
0.5039500000000000 0.8114749999999999 0.6885250000000001
0.4495700000000000 0.3157450000000000 0.1562500000000000
0.4495700000000000 0.3157450000000000 0.6562500000000000
0.4495700000000000 0.8157449999999999 0.1562500000000000
0.4495700000000000 0.8157449999999999 0.6562500000000000
0.9495699999999999 0.3157450000000000 0.1562500000000000
0.9495699999999999 0.3157450000000000 0.6562500000000000
0.9495699999999999 0.8157449999999999 0.1562500000000000
0.9495699999999999 0.8157449999999999 0.6562500000000000
0.4294500000000000 0.3111500000000000 0.1383000000000000
0.4294500000000000 0.3111500000000000 0.6383000000000000
0.4294500000000000 0.8111500000000000 0.1383000000000000
0.4294500000000000 0.8111500000000000 0.6383000000000000
0.9294499999999999 0.3111500000000000 0.1383000000000000
0.9294499999999999 0.3111500000000000 0.6383000000000000
0.9294499999999999 0.8111500000000000 0.1383000000000000
0.9294499999999999 0.8111500000000000 0.6383000000000000
0.0427500000000000 0.2969500000000000 0.2030500000000000
0.0427500000000000 0.2969500000000000 0.7030500000000000
0.0427500000000000 0.7969499999999999 0.2030500000000000
0.0427500000000000 0.7969499999999999 0.7030500000000000
0.5427500000000000 0.2969500000000000 0.2030500000000000
0.5427500000000000 0.2969500000000000 0.7030500000000000
0.5427500000000000 0.7969499999999999 0.2030500000000000
0.5427500000000000 0.7969499999999999 0.7030500000000000
0.4841600000000000 0.2951350000000000 0.1586100000000000
0.4841599999999999 0.2951350000000000 0.6586100000000000
0.4841599999999999 0.7951349999999999 0.1586100000000000
0.4841599999999999 0.7951349999999999 0.6586100000000000
0.9841599999999999 0.2951350000000000 0.1586100000000000
0.9841599999999999 0.2951350000000000 0.6586100000000000
0.9841599999999999 0.7951349999999999 0.1586100000000000
0.9841599999999999 0.7951349999999999 0.6586100000000000
0.0000000000000000 0.2500000000000000 0.1250000000000000
0.0000000000000000 0.2500000000000000 0.6250000000000000
0.0000000000000000 0.7500000000000000 0.1250000000000000
0.0000000000000000 0.7500000000000000 0.6250000000000000
0.5000000000000000 0.2500000000000000 0.1250000000000000
0.4999999999999999 0.2500000000000000 0.6250000000000000
0.4999999999999999 0.7500000000000000 0.1250000000000000
0.4999999999999999 0.7500000000000000 0.6250000000000000
0.3114750000000000 0.4960500000000000 0.3114750000000000
0.3114750000000000 0.4960499999999999 0.8114749999999999
0.3114750000000000 0.9960499999999999 0.3114750000000000
0.3114750000000000 0.9960499999999999 0.8114749999999999
0.8114749999999999 0.4960500000000000 0.3114750000000000
0.8114749999999999 0.4960499999999999 0.8114749999999999
0.8114749999999999 0.9960499999999999 0.3114750000000000
0.8114749999999999 0.9960499999999999 0.8114749999999999
0.3157450000000000 0.0504300000000000 0.3437500000000000
0.3157450000000000 0.0504300000000000 0.8437500000000000
0.3157450000000000 0.5504299999999999 0.3437500000000000
0.3157450000000000 0.5504299999999999 0.8437500000000000
0.8157449999999999 0.0504300000000000 0.3437500000000000
0.8157449999999999 0.0504300000000000 0.8437500000000000
0.8157449999999999 0.5504299999999999 0.3437500000000000
0.8157449999999999 0.5504299999999999 0.8437500000000000
0.3111500000000000 0.0705500000000000 0.3617000000000000
0.3111500000000000 0.0705500000000000 0.8617000000000000
0.3111500000000000 0.5705500000000000 0.3617000000000000
0.3111500000000000 0.5705500000000001 0.8617000000000000
0.8111500000000000 0.0705500000000000 0.3617000000000000
0.8111500000000001 0.0705500000000000 0.8617000000000000
0.8111500000000000 0.5705500000000000 0.3617000000000000
0.8111500000000001 0.5705500000000001 0.8617000000000000
0.2951350000000000 0.0158400000000000 0.3413900000000000
0.2951350000000000 0.0158400000000000 0.8413900000000001
0.2951350000000000 0.5158400000000000 0.3413900000000000
0.2951350000000000 0.5158400000000000 0.8413900000000001
0.7951349999999999 0.0158400000000000 0.3413900000000000
0.7951349999999999 0.0158400000000000 0.8413900000000001
0.7951349999999999 0.5158400000000000 0.3413900000000000
0.7951349999999999 0.5158400000000000 0.8413900000000001
0.4960500000000000 0.1885250000000000 0.1885250000000000
0.4960499999999999 0.1885250000000000 0.6885250000000001
0.4960499999999999 0.6885250000000001 0.1885250000000000
0.4960499999999999 0.6885250000000001 0.6885250000000001
0.9960499999999999 0.1885250000000000 0.1885250000000000
0.9960499999999999 0.1885250000000000 0.6885250000000001
0.9960499999999999 0.6885250000000001 0.1885250000000000
0.9960499999999999 0.6885250000000001 0.6885250000000001
0.0504300000000000 0.1842550000000000 0.1562500000000000
0.0504300000000000 0.1842550000000000 0.6562500000000000
0.0504300000000000 0.6842550000000001 0.1562500000000000
0.0504300000000000 0.6842550000000001 0.6562500000000000
0.5504299999999999 0.1842550000000000 0.1562500000000000
0.5504299999999999 0.1842550000000000 0.6562500000000000
0.5504299999999999 0.6842550000000001 0.1562500000000000
0.5504299999999999 0.6842550000000001 0.6562500000000000
0.0705500000000000 0.1888500000000000 0.1383000000000000
0.0705500000000000 0.1888500000000000 0.6383000000000000
0.0705500000000000 0.6888500000000000 0.1383000000000000
0.0705500000000000 0.6888500000000000 0.6383000000000000
0.5705500000000000 0.1888500000000000 0.1383000000000000
0.5705500000000000 0.1888500000000000 0.6383000000000000
0.5705500000000000 0.6888500000000000 0.1383000000000000
0.5705500000000000 0.6888500000000000 0.6383000000000000
0.4572500000000000 0.2030500000000000 0.2030500000000000
0.4572500000000000 0.2030499999999999 0.7030500000000000
0.4572500000000000 0.7030500000000000 0.2030500000000000
0.4572500000000000 0.7030500000000000 0.7030500000000000
0.9572499999999999 0.2030500000000000 0.2030500000000000
0.9572499999999999 0.2030499999999999 0.7030500000000000
0.9572499999999999 0.7030500000000000 0.2030500000000000
0.9572499999999999 0.7030500000000000 0.7030500000000000
0.4601000000000000 0.2293500000000000 0.2128500000000000
0.4601000000000000 0.2293500000000000 0.7128500000000000
0.4601000000000000 0.7293499999999999 0.2128500000000000
0.4601000000000000 0.7293499999999999 0.7128500000000000
0.9601000000000000 0.2293500000000000 0.2128500000000000
0.9601000000000000 0.2293500000000000 0.7128500000000000
0.9601000000000000 0.7293499999999999 0.2128500000000000
0.9601000000000000 0.7293499999999999 0.7128500000000000
0.4386000000000000 0.2029000000000000 0.1818000000000000
0.4386000000000000 0.2029000000000000 0.6818000000000000
0.4386000000000000 0.7028999999999999 0.1818000000000000
0.4385999999999999 0.7028999999999999 0.6818000000000000
0.9386000000000000 0.2029000000000000 0.1818000000000000
0.9386000000000000 0.2029000000000000 0.6818000000000000
0.9386000000000000 0.7028999999999999 0.1818000000000000
0.9386000000000000 0.7028999999999999 0.6818000000000000
0.4480500000000000 0.1862000000000000 0.2237499999999999
0.4480500000000000 0.1861999999999999 0.7237499999999998
0.4480500000000000 0.6861999999999999 0.2237499999999999
0.4480500000000000 0.6861999999999999 0.7237499999999998
0.9480500000000002 0.1862000000000000 0.2237499999999999
0.9480500000000002 0.1861999999999999 0.7237499999999998
0.9480500000000002 0.6861999999999999 0.2237499999999999
0.9480500000000002 0.6861999999999999 0.7237499999999998
0.0158400000000000 0.2048650000000000 0.1586100000000000
0.0158400000000000 0.2048650000000000 0.6586100000000000
0.0158400000000000 0.7048650000000000 0.1586100000000000
0.0158400000000000 0.7048650000000000 0.6586100000000000
0.5158400000000000 0.2048650000000000 0.1586100000000000
0.5158400000000000 0.2048650000000000 0.6586100000000000
0.5158400000000000 0.7048650000000000 0.1586100000000000
0.5158400000000000 0.7048650000000000 0.6586100000000000
0.1885250000000000 0.4960500000000000 0.1885250000000000
0.1885250000000000 0.4960499999999999 0.6885250000000001
0.1885250000000000 0.9960499999999999 0.1885250000000000
0.1885250000000000 0.9960499999999999 0.6885250000000001
0.6885250000000001 0.4960500000000000 0.1885250000000000
0.6885250000000001 0.4960499999999999 0.6885250000000001
0.6885250000000001 0.9960499999999999 0.1885250000000000
0.6885250000000001 0.9960499999999999 0.6885250000000001
0.1842550000000000 0.0504300000000000 0.1562500000000000
0.1842550000000000 0.0504300000000000 0.6562500000000000
0.1842550000000000 0.5504299999999999 0.1562500000000000
0.1842550000000000 0.5504299999999999 0.6562500000000000
0.6842550000000001 0.0504300000000000 0.1562500000000000
0.6842550000000001 0.0504300000000000 0.6562500000000000
0.6842550000000001 0.5504299999999999 0.1562500000000000
0.6842550000000001 0.5504299999999999 0.6562500000000000
0.1888500000000000 0.0705500000000000 0.1383000000000000
0.1888500000000000 0.0705500000000000 0.6383000000000000
0.1888500000000000 0.5705500000000000 0.1383000000000000
0.1888500000000000 0.5705500000000000 0.6383000000000000
0.6888500000000000 0.0705500000000000 0.1383000000000000
0.6888500000000000 0.0705500000000000 0.6383000000000000
0.6888500000000000 0.5705500000000000 0.1383000000000000
0.6888500000000000 0.5705500000000000 0.6383000000000000
0.2030499999999999 0.4572500000000000 0.2030500000000000
0.2030499999999999 0.4572500000000000 0.7030500000000000
0.2030499999999999 0.9572499999999999 0.2030500000000000
0.2030499999999999 0.9572499999999999 0.7030500000000000
0.7030500000000000 0.4572500000000000 0.2030500000000000
0.7030500000000000 0.4572500000000000 0.7030500000000000
0.7030500000000000 0.9572499999999999 0.2030500000000000
0.7030500000000000 0.9572499999999999 0.7030500000000000
0.2048650000000000 0.0158400000000000 0.1586100000000000
0.2048650000000000 0.0158400000000000 0.6586100000000000
0.2048650000000000 0.5158400000000000 0.1586100000000000
0.2048650000000000 0.5158400000000000 0.6586100000000000
0.7048650000000000 0.0158400000000000 0.1586100000000000
0.7048650000000000 0.0158400000000000 0.6586100000000000
0.7048650000000000 0.5158400000000000 0.1586100000000000
0.7048650000000000 0.5158400000000000 0.6586100000000000
0.2500000000000000 0.0000000000000000 0.1250000000000000
0.2500000000000000 0.0000000000000000 0.6250000000000000
0.2500000000000000 0.5000000000000000 0.1250000000000000
0.2500000000000000 0.4999999999999999 0.6250000000000000
0.7500000000000000 0.0000000000000000 0.1250000000000000
0.7500000000000000 0.0000000000000000 0.6250000000000000
0.7500000000000000 0.5000000000000000 0.1250000000000000
0.7500000000000000 0.4999999999999999 0.6250000000000000
0.4960500000000000 0.3114750000000000 0.3114750000000000
0.4960499999999999 0.3114750000000000 0.8114749999999999
0.4960499999999999 0.8114749999999999 0.3114750000000000
0.4960499999999999 0.8114749999999999 0.8114749999999999
0.9960499999999999 0.3114750000000000 0.3114750000000000
0.9960499999999999 0.3114750000000000 0.8114749999999999
0.9960499999999999 0.8114749999999999 0.3114750000000000
0.9960499999999999 0.8114749999999999 0.8114749999999999
0.0504300000000000 0.3157450000000000 0.3437500000000000
0.0504300000000000 0.3157450000000000 0.8437500000000000
0.0504300000000000 0.8157449999999999 0.3437500000000000
0.0504300000000000 0.8157449999999999 0.8437500000000000
0.5504299999999999 0.3157450000000000 0.3437500000000000
0.5504299999999999 0.3157450000000000 0.8437500000000000
0.5504299999999999 0.8157449999999999 0.3437500000000000
0.5504299999999999 0.8157449999999999 0.8437500000000000
0.0705500000000000 0.3111500000000000 0.3617000000000000
0.0705500000000000 0.3111500000000000 0.8617000000000000
0.0705500000000000 0.8111500000000000 0.3617000000000000
0.0705500000000000 0.8111500000000001 0.8617000000000000
0.5705500000000000 0.3111500000000000 0.3617000000000000
0.5705500000000001 0.3111500000000000 0.8617000000000000
0.5705500000000000 0.8111500000000000 0.3617000000000000
0.5705500000000001 0.8111500000000001 0.8617000000000000
0.0158400000000000 0.2951350000000000 0.3413900000000000
0.0158400000000000 0.2951350000000000 0.8413900000000001
0.0158400000000000 0.7951349999999999 0.3413900000000000
0.0158400000000000 0.7951349999999999 0.8413900000000001
0.5158400000000000 0.2951350000000000 0.3413900000000000
0.5158400000000000 0.2951350000000000 0.8413900000000001
0.5158400000000000 0.7951349999999999 0.3413900000000000
0.5158400000000000 0.7951349999999999 0.8413900000000001
0.0000000000000000 0.2500000000000000 0.3750000000000000
0.0000000000000000 0.2500000000000000 0.8750000000000000
0.0000000000000000 0.7500000000000000 0.3750000000000000
0.0000000000000000 0.7500000000000001 0.8750000000000000
0.5000000000000000 0.2500000000000000 0.3750000000000000
0.5000000000000001 0.2500000000000000 0.8750000000000000
0.4999999999999999 0.7500000000000000 0.3750000000000000
0.5000000000000001 0.7500000000000001 0.8750000000000000
0.3114750000000000 0.0039500000000000 0.1885250000000000
0.3114750000000000 0.0039500000000000 0.6885250000000001
0.3114750000000000 0.5039500000000000 0.1885250000000000
0.3114750000000000 0.5039500000000000 0.6885250000000001
0.8114749999999999 0.0039500000000000 0.1885250000000000
0.8114749999999999 0.0039500000000000 0.6885250000000001
0.8114749999999999 0.5039500000000000 0.1885250000000000
0.8114749999999999 0.5039500000000000 0.6885250000000001
0.3157450000000001 0.4495700000000000 0.1562500000000000
0.3157450000000001 0.4495700000000000 0.6562500000000000
0.3157450000000000 0.9495699999999999 0.1562500000000000
0.3157450000000000 0.9495699999999999 0.6562500000000000
0.8157449999999999 0.4495700000000000 0.1562500000000000
0.8157449999999999 0.4495700000000000 0.6562500000000000
0.8157449999999999 0.9495699999999999 0.1562500000000000
0.8157449999999999 0.9495699999999999 0.6562500000000000
0.3111500000000000 0.4294500000000000 0.1383000000000000
0.3111500000000000 0.4294500000000000 0.6383000000000000
0.3111500000000000 0.9294499999999999 0.1383000000000000
0.3111500000000000 0.9294499999999999 0.6383000000000000
0.8111500000000000 0.4294500000000000 0.1383000000000000
0.8111500000000000 0.4294500000000000 0.6383000000000000
0.8111500000000000 0.9294499999999999 0.1383000000000000
0.8111500000000000 0.9294499999999999 0.6383000000000000
0.2969500000000000 0.0427500000000000 0.2030500000000000
0.2969500000000000 0.0427500000000000 0.7030500000000000
0.2969500000000000 0.5427500000000000 0.2030500000000000
0.2969500000000000 0.5427500000000000 0.7030500000000000
0.7969499999999999 0.0427500000000000 0.2030500000000000
0.7969499999999999 0.0427500000000000 0.7030500000000000
0.7969499999999999 0.5427500000000000 0.2030500000000000
0.7969499999999999 0.5427500000000000 0.7030500000000000
0.2706499999999998 0.0399000000000000 0.2128500000000000
0.2706499999999998 0.0399000000000000 0.7128500000000000
0.2706499999999998 0.5399000000000000 0.2128500000000000
0.2706499999999998 0.5399000000000000 0.7128500000000000
0.7706499999999998 0.0399000000000000 0.2128500000000000
0.7706499999999998 0.0399000000000000 0.7128500000000000
0.7706499999999998 0.5399000000000000 0.2128500000000000
0.7706499999999998 0.5399000000000000 0.7128500000000000
0.2971000000000000 0.0614000000000000 0.1818000000000000
0.2971000000000000 0.0614000000000000 0.6818000000000000
0.2971000000000000 0.5614000000000000 0.1818000000000000
0.2971000000000000 0.5614000000000000 0.6818000000000000
0.7970999999999998 0.0614000000000000 0.1818000000000000
0.7970999999999998 0.0614000000000000 0.6818000000000000
0.7970999999999998 0.5614000000000000 0.1818000000000000
0.7970999999999998 0.5614000000000000 0.6818000000000000
0.3138000000000000 0.0519500000000000 0.2237499999999999
0.3137999999999999 0.0519500000000000 0.7237499999999998
0.3137999999999999 0.5519499999999999 0.2237499999999999
0.3137999999999999 0.5519499999999999 0.7237499999999998
0.8138000000000000 0.0519500000000000 0.2237499999999999
0.8138000000000000 0.0519500000000000 0.7237499999999998
0.8138000000000000 0.5519499999999999 0.2237499999999999
0.8138000000000000 0.5519499999999999 0.7237499999999998
0.2951350000000000 0.4841600000000000 0.1586100000000000
0.2951350000000000 0.4841599999999999 0.6586100000000000
0.2951350000000000 0.9841599999999999 0.1586100000000000
0.2951350000000000 0.9841599999999999 0.6586100000000000
0.7951349999999999 0.4841600000000000 0.1586100000000000
0.7951349999999999 0.4841599999999999 0.6586100000000000
0.7951349999999999 0.9841599999999999 0.1586100000000000
0.7951349999999999 0.9841599999999999 0.6586100000000000
0.0039500000000000 0.1885250000000000 0.3114750000000000
0.0039500000000000 0.1885250000000000 0.8114749999999999
0.0039500000000000 0.6885250000000001 0.3114750000000000
0.0039500000000000 0.6885250000000001 0.8114749999999999
0.5039500000000000 0.1885250000000000 0.3114750000000000
0.5039500000000000 0.1885250000000000 0.8114749999999999
0.5039500000000000 0.6885250000000001 0.3114750000000000
0.5039500000000000 0.6885250000000001 0.8114749999999999
0.4495700000000000 0.1842550000000000 0.3437500000000000
0.4495700000000000 0.1842550000000000 0.8437500000000000
0.4495700000000000 0.6842550000000001 0.3437500000000000
0.4495700000000000 0.6842550000000001 0.8437500000000000
0.9495699999999999 0.1842550000000000 0.3437500000000000
0.9495699999999999 0.1842550000000000 0.8437500000000000
0.9495699999999999 0.6842550000000001 0.3437500000000000
0.9495699999999999 0.6842550000000001 0.8437500000000000
0.4294500000000000 0.1888500000000000 0.3617000000000000
0.4294500000000000 0.1888500000000000 0.8617000000000000
0.4294500000000000 0.6888500000000000 0.3617000000000000
0.4294500000000000 0.6888500000000001 0.8617000000000000
0.9294499999999999 0.1888500000000000 0.3617000000000000
0.9294500000000000 0.1888500000000000 0.8617000000000000
0.9294499999999999 0.6888500000000000 0.3617000000000000
0.9294500000000000 0.6888500000000001 0.8617000000000000
0.0427500000000000 0.2030499999999999 0.2969500000000000
0.0427500000000000 0.2030499999999999 0.7969499999999999
0.0427500000000000 0.7030500000000000 0.2969500000000000
0.0427500000000000 0.7030500000000000 0.7969499999999999
0.5427500000000000 0.2030499999999999 0.2969500000000000
0.5427500000000000 0.2030499999999999 0.7969499999999999
0.5427500000000000 0.7030500000000000 0.2969500000000000
0.5427500000000000 0.7030500000000000 0.7969499999999999
0.0399000000000000 0.2293500000000000 0.2871500000000000
0.0399000000000000 0.2293500000000000 0.7871499999999999
0.0399000000000000 0.7293499999999999 0.2871500000000000
0.0399000000000000 0.7293499999999999 0.7871499999999999
0.5399000000000000 0.2293500000000000 0.2871500000000000
0.5399000000000000 0.2293500000000000 0.7871499999999999
0.5399000000000000 0.7293499999999999 0.2871500000000000
0.5399000000000000 0.7293499999999999 0.7871499999999999
0.0614000000000000 0.2029000000000000 0.3182000000000000
0.0614000000000000 0.2029000000000000 0.8181999999999999
0.0614000000000000 0.7028999999999999 0.3182000000000000
0.0614000000000000 0.7028999999999999 0.8181999999999999
0.5614000000000000 0.2029000000000000 0.3182000000000000
0.5614000000000000 0.2029000000000000 0.8181999999999999
0.5614000000000000 0.7028999999999999 0.3182000000000000
0.5614000000000000 0.7028999999999999 0.8181999999999999
0.0519500000000000 0.1861999999999999 0.2762500000000000
0.0519500000000000 0.1861999999999999 0.7762500000000000
0.0519500000000000 0.6861999999999999 0.2762500000000000
0.0519500000000000 0.6861999999999999 0.7762500000000000
0.5519499999999999 0.1861999999999999 0.2762500000000000
0.5519499999999999 0.1861999999999999 0.7762500000000000
0.5519499999999999 0.6861999999999999 0.2762500000000000
0.5519499999999999 0.6861999999999999 0.7762500000000000
0.4841600000000000 0.2048650000000000 0.3413900000000000
0.4841599999999999 0.2048650000000000 0.8413900000000001
0.4841599999999999 0.7048650000000000 0.3413900000000000
0.4841599999999999 0.7048650000000000 0.8413900000000001
0.9841599999999999 0.2048650000000000 0.3413900000000000
0.9841599999999999 0.2048650000000000 0.8413900000000001
0.9841599999999999 0.7048650000000000 0.3413900000000000
0.9841599999999999 0.7048650000000000 0.8413900000000001
0.3114750000000000 0.1885250000000000 0.0039500000000000
0.3114750000000000 0.1885250000000000 0.5039500000000000
0.3114750000000000 0.6885250000000001 0.0039500000000000
0.3114750000000000 0.6885250000000001 0.5039500000000000
0.8114749999999999 0.1885250000000000 0.0039500000000000
0.8114749999999999 0.1885250000000000 0.5039500000000000
0.8114749999999999 0.6885250000000001 0.0039500000000000
0.8114749999999999 0.6885250000000001 0.5039500000000000
0.3437500000000001 0.1842550000000000 0.4495700000000000
0.3437500000000000 0.1842550000000000 0.9495699999999999
0.3437500000000001 0.6842550000000001 0.4495700000000000
0.3437500000000000 0.6842550000000001 0.9495699999999999
0.8437500000000000 0.1842550000000000 0.4495700000000000
0.8437500000000000 0.1842550000000000 0.9495699999999999
0.8437500000000000 0.6842550000000001 0.4495700000000000
0.8437500000000000 0.6842550000000001 0.9495699999999999
0.3617000000000001 0.1888500000000000 0.4294500000000000
0.3617000000000000 0.1888500000000000 0.9294499999999999
0.3617000000000000 0.6888500000000000 0.4294500000000000
0.3617000000000000 0.6888500000000000 0.9294499999999999
0.8617000000000000 0.1888500000000000 0.4294500000000000
0.8617000000000000 0.1888500000000000 0.9294499999999999
0.8617000000000000 0.6888500000000000 0.4294500000000000
0.8617000000000000 0.6888500000000000 0.9294499999999999
0.2969500000000000 0.2030500000000000 0.0427500000000000
0.2969500000000000 0.2030499999999999 0.5427500000000000
0.2969500000000000 0.7030500000000000 0.0427500000000000
0.2969500000000000 0.7030500000000000 0.5427500000000000
0.7969499999999999 0.2030500000000000 0.0427500000000000
0.7969499999999999 0.2030499999999999 0.5427500000000000
0.7969499999999999 0.7030500000000000 0.0427500000000000
0.7969499999999999 0.7030500000000000 0.5427500000000000
0.3413900000000000 0.2048650000000000 0.4841600000000000
0.3413900000000000 0.2048650000000000 0.9841599999999999
0.3413900000000000 0.7048650000000000 0.4841600000000000
0.3413900000000000 0.7048650000000000 0.9841599999999999
0.8413900000000001 0.2048650000000000 0.4841600000000000
0.8413900000000001 0.2048650000000000 0.9841599999999999
0.8413900000000001 0.7048650000000000 0.4841600000000000
0.8413900000000001 0.7048650000000000 0.9841599999999999
0.3750000000000000 0.2500000000000000 0.0000000000000000
0.3750000000000000 0.2500000000000000 0.5000000000000000
0.3750000000000000 0.7500000000000000 0.0000000000000000
0.3750000000000000 0.7500000000000000 0.5000000000000000
0.8750000000000000 0.2500000000000000 0.0000000000000000
0.8750000000000000 0.2500000000000000 0.5000000000000000
0.8750000000000000 0.7500000000000000 0.0000000000000000
0.8750000000000000 0.7500000000000000 0.5000000000000000
0.1885250000000000 0.1885250000000000 0.4960500000000000
0.1885250000000000 0.1885250000000000 0.9960499999999999
0.1885250000000000 0.6885250000000001 0.4960500000000000
0.1885250000000000 0.6885250000000001 0.9960499999999999
0.6885250000000001 0.1885250000000000 0.4960500000000000
0.6885250000000001 0.1885250000000000 0.9960499999999999
0.6885250000000001 0.6885250000000001 0.4960500000000000
0.6885250000000001 0.6885250000000001 0.9960499999999999
0.1842550000000000 0.1562500000000000 0.0504300000000000
0.1842550000000000 0.1562500000000000 0.5504299999999999
0.1842550000000000 0.6562500000000000 0.0504300000000000
0.1842550000000000 0.6562500000000000 0.5504299999999999
0.6842550000000001 0.1562500000000000 0.0504300000000000
0.6842550000000001 0.1562500000000000 0.5504299999999999
0.6842550000000001 0.6562500000000000 0.0504300000000000
0.6842550000000001 0.6562500000000000 0.5504299999999999
0.1888500000000000 0.1383000000000000 0.0705500000000000
0.1888500000000000 0.1383000000000000 0.5705500000000000
0.1888500000000000 0.6383000000000000 0.0705500000000000
0.1888500000000000 0.6383000000000000 0.5705500000000000
0.6888500000000000 0.1383000000000000 0.0705500000000000
0.6888500000000000 0.1383000000000000 0.5705500000000000
0.6888500000000000 0.6383000000000000 0.0705500000000000
0.6888500000000000 0.6383000000000000 0.5705500000000000
0.2030499999999999 0.2030499999999999 0.4572500000000000
0.2030499999999999 0.2030499999999999 0.9572499999999999
0.2030499999999999 0.7030500000000000 0.4572500000000000
0.2030499999999999 0.7030500000000000 0.9572499999999999
0.7030500000000000 0.2030499999999999 0.4572500000000000
0.7030500000000000 0.2030499999999999 0.9572499999999999
0.7030500000000000 0.7030500000000000 0.4572500000000000
0.7030500000000000 0.7030500000000000 0.9572499999999999
0.2293500000000000 0.2128500000000000 0.4601000000000000
0.2293500000000000 0.2128500000000000 0.9601000000000000
0.2293500000000000 0.7128500000000000 0.4601000000000000
0.2293500000000000 0.7128500000000000 0.9601000000000000
0.7293499999999999 0.2128500000000000 0.4601000000000000
0.7293499999999998 0.2128500000000000 0.9601000000000000
0.7293499999999999 0.7128500000000000 0.4601000000000000
0.7293499999999998 0.7128500000000000 0.9601000000000000
0.2029000000000000 0.1818000000000000 0.4386000000000000
0.2029000000000000 0.1818000000000000 0.9386000000000000
0.2029000000000000 0.6818000000000000 0.4386000000000000
0.2029000000000000 0.6818000000000000 0.9386000000000000
0.7028999999999999 0.1818000000000000 0.4386000000000000
0.7028999999999999 0.1818000000000000 0.9386000000000000
0.7028999999999999 0.6818000000000000 0.4386000000000000
0.7028999999999999 0.6818000000000000 0.9386000000000000
0.1862000000000000 0.2237499999999999 0.4480500000000000
0.1862000000000000 0.2237499999999999 0.9480500000000002
0.1861999999999999 0.7237499999999998 0.4480500000000000
0.1861999999999999 0.7237499999999998 0.9480500000000002
0.6861999999999999 0.2237499999999999 0.4480500000000000
0.6861999999999999 0.2237499999999999 0.9480500000000002
0.6861999999999999 0.7237499999999998 0.4480500000000000
0.6861999999999999 0.7237499999999998 0.9480500000000002
0.2048650000000000 0.1586100000000000 0.0158400000000000
0.2048650000000000 0.1586100000000000 0.5158400000000000
0.2048650000000000 0.6586100000000000 0.0158400000000000
0.2048650000000000 0.6586100000000000 0.5158400000000000
0.7048650000000000 0.1586100000000000 0.0158400000000000
0.7048650000000000 0.1586100000000000 0.5158400000000000
0.7048650000000000 0.6586100000000000 0.0158400000000000
0.7048650000000000 0.6586100000000000 0.5158400000000000
0.2500000000000000 0.1250000000000000 0.0000000000000000
0.2500000000000000 0.1250000000000000 0.5000000000000000
0.2500000000000000 0.6250000000000000 0.0000000000000000
0.2500000000000000 0.6250000000000000 0.5000000000000000
0.7500000000000000 0.1250000000000000 0.0000000000000000
0.7500000000000000 0.1250000000000000 0.5000000000000000
0.7500000000000000 0.6250000000000000 0.0000000000000000
0.7500000000000000 0.6250000000000000 0.5000000000000000
0.1885250000000000 0.3114750000000000 0.0039500000000000
0.1885250000000000 0.3114750000000000 0.5039500000000000
0.1885250000000000 0.8114749999999999 0.0039500000000000
0.1885250000000000 0.8114749999999999 0.5039500000000000
0.6885250000000001 0.3114750000000000 0.0039500000000000
0.6885250000000001 0.3114750000000000 0.5039500000000000
0.6885250000000001 0.8114749999999999 0.0039500000000000
0.6885250000000001 0.8114749999999999 0.5039500000000000
0.1562500000000000 0.3157450000000001 0.4495700000000000
0.1562500000000000 0.3157450000000000 0.9495699999999999
0.1562500000000000 0.8157449999999999 0.4495700000000000
0.1562500000000000 0.8157449999999999 0.9495699999999999
0.6562500000000000 0.3157450000000001 0.4495700000000000
0.6562499999999999 0.3157450000000000 0.9495699999999999
0.6562500000000000 0.8157449999999999 0.4495700000000000
0.6562499999999999 0.8157449999999999 0.9495699999999999
0.1383000000000000 0.3111500000000000 0.4294500000000000
0.1383000000000000 0.3111500000000000 0.9294499999999999
0.1383000000000000 0.8111500000000000 0.4294500000000000
0.1383000000000000 0.8111500000000000 0.9294499999999999
0.6383000000000000 0.3111500000000000 0.4294500000000000
0.6383000000000000 0.3111500000000000 0.9294499999999999
0.6383000000000000 0.8111500000000000 0.4294500000000000
0.6383000000000000 0.8111500000000000 0.9294499999999999
0.2030499999999999 0.2969500000000000 0.0427500000000000
0.2030499999999999 0.2969500000000000 0.5427500000000000
0.2030499999999999 0.7969499999999999 0.0427500000000000
0.2030499999999999 0.7969499999999999 0.5427500000000000
0.7030500000000000 0.2969500000000000 0.0427500000000000
0.7030500000000000 0.2969500000000000 0.5427500000000000
0.7030500000000000 0.7969499999999999 0.0427500000000000
0.7030500000000000 0.7969499999999999 0.5427500000000000
0.1586100000000000 0.2951350000000000 0.4841600000000000
0.1586100000000000 0.2951350000000000 0.9841599999999999
0.1586100000000000 0.7951349999999999 0.4841600000000000
0.1586100000000000 0.7951349999999999 0.9841599999999999
0.6586100000000000 0.2951350000000000 0.4841600000000000
0.6586100000000000 0.2951350000000000 0.9841599999999999
0.6586100000000000 0.7951349999999999 0.4841600000000000
0.6586100000000000 0.7951349999999999 0.9841599999999999
0.1250000000000000 0.2500000000000000 0.0000000000000000
0.1250000000000000 0.2500000000000000 0.5000000000000000
0.1250000000000000 0.7500000000000000 0.0000000000000000
0.1250000000000000 0.7500000000000000 0.5000000000000000
0.6250000000000000 0.2500000000000000 0.0000000000000000
0.6250000000000000 0.2500000000000000 0.5000000000000000
0.6250000000000000 0.7500000000000000 0.0000000000000000
0.6250000000000000 0.7500000000000000 0.5000000000000000
0.3114750000000000 0.3114750000000000 0.4960500000000000
0.3114750000000000 0.3114750000000000 0.9960499999999999
0.3114750000000000 0.8114749999999999 0.4960500000000000
0.3114750000000000 0.8114749999999999 0.9960499999999999
0.8114749999999999 0.3114750000000000 0.4960500000000000
0.8114749999999999 0.3114750000000000 0.9960499999999999
0.8114749999999999 0.8114749999999999 0.4960500000000000
0.8114749999999999 0.8114749999999999 0.9960499999999999
0.3157450000000000 0.3437500000000000 0.0504300000000000
0.3157450000000000 0.3437500000000000 0.5504299999999999
0.3157450000000000 0.8437500000000000 0.0504300000000000
0.3157450000000000 0.8437500000000000 0.5504299999999999
0.8157449999999999 0.3437500000000000 0.0504300000000000
0.8157449999999999 0.3437500000000000 0.5504299999999999
0.8157449999999999 0.8437500000000000 0.0504300000000000
0.8157449999999999 0.8437500000000000 0.5504299999999999
0.3111500000000000 0.3617000000000000 0.0705500000000000
0.3111500000000000 0.3617000000000000 0.5705500000000000
0.3111500000000000 0.8617000000000000 0.0705500000000000
0.3111500000000000 0.8617000000000000 0.5705500000000000
0.8111500000000000 0.3617000000000000 0.0705500000000000
0.8111500000000000 0.3617000000000000 0.5705500000000000
0.8111500000000001 0.8617000000000000 0.0705500000000000
0.8111500000000001 0.8617000000000000 0.5705500000000000
0.2969500000000000 0.2969500000000000 0.4572500000000000
0.2969500000000000 0.2969500000000000 0.9572499999999999
0.2969500000000000 0.7969499999999999 0.4572500000000000
0.2969500000000000 0.7969499999999999 0.9572499999999999
0.7969499999999999 0.2969500000000000 0.4572500000000000
0.7969499999999999 0.2969500000000000 0.9572499999999999
0.7969499999999999 0.7969499999999999 0.4572500000000000
0.7969499999999999 0.7969499999999999 0.9572499999999999
0.2706499999999998 0.2871500000000000 0.4601000000000000
0.2706499999999998 0.2871500000000000 0.9601000000000000
0.2706499999999998 0.7871499999999999 0.4601000000000000
0.2706499999999998 0.7871499999999999 0.9601000000000000
0.7706499999999998 0.2871500000000000 0.4601000000000000
0.7706499999999998 0.2871500000000000 0.9601000000000000
0.7706499999999998 0.7871499999999999 0.4601000000000000
0.7706499999999998 0.7871499999999999 0.9601000000000000
0.2971000000000000 0.3182000000000000 0.4386000000000000
0.2971000000000000 0.3182000000000000 0.9386000000000000
0.2971000000000000 0.8181999999999999 0.4386000000000000
0.2971000000000000 0.8181999999999999 0.9386000000000000
0.7970999999999998 0.3182000000000000 0.4386000000000000
0.7970999999999998 0.3182000000000000 0.9386000000000000
0.7970999999999998 0.8181999999999999 0.4386000000000000
0.7970999999999998 0.8181999999999999 0.9386000000000000
0.3138000000000000 0.2762500000000000 0.4480500000000000
0.3137999999999999 0.2762499999999999 0.9480500000000002
0.3138000000000000 0.7762500000000000 0.4480500000000000
0.3137999999999999 0.7762500000000000 0.9480500000000002
0.8138000000000000 0.2762500000000000 0.4480500000000000
0.8138000000000000 0.2762499999999999 0.9480500000000002
0.8138000000000000 0.7762500000000000 0.4480500000000000
0.8138000000000000 0.7762500000000000 0.9480500000000002
0.2951350000000000 0.3413900000000000 0.0158400000000000
0.2951350000000000 0.3413900000000000 0.5158400000000000
0.2951350000000000 0.8413900000000001 0.0158400000000000
0.2951350000000000 0.8413900000000001 0.5158400000000000
0.7951349999999999 0.3413900000000000 0.0158400000000000
0.7951349999999999 0.3413900000000000 0.5158400000000000
0.7951349999999999 0.8413900000000001 0.0158400000000000
0.7951349999999999 0.8413900000000001 0.5158400000000000
0.2500000000000000 0.3750000000000000 0.0000000000000000
0.2500000000000000 0.3750000000000000 0.5000000000000000
0.2500000000000000 0.8750000000000000 0.0000000000000000
0.2500000000000000 0.8750000000000000 0.5000000000000000
0.7500000000000000 0.3750000000000000 0.0000000000000000
0.7500000000000000 0.3750000000000000 0.5000000000000000
0.7500000000000001 0.8750000000000000 0.0000000000000000
0.7500000000000001 0.8750000000000000 0.5000000000000000
0.3437500000000000 0.3157450000000000 0.0504300000000000
0.3437500000000000 0.3157450000000000 0.5504299999999999
0.3437500000000000 0.8157449999999999 0.0504300000000000
0.3437500000000000 0.8157449999999999 0.5504299999999999
0.8437500000000000 0.3157450000000000 0.0504300000000000
0.8437500000000000 0.3157450000000000 0.5504299999999999
0.8437500000000000 0.8157449999999999 0.0504300000000000
0.8437500000000000 0.8157449999999999 0.5504299999999999
0.3617000000000000 0.3111500000000000 0.0705500000000000
0.3617000000000000 0.3111500000000000 0.5705500000000000
0.3617000000000000 0.8111500000000000 0.0705500000000000
0.3617000000000000 0.8111500000000000 0.5705500000000000
0.8617000000000000 0.3111500000000000 0.0705500000000000
0.8617000000000000 0.3111500000000000 0.5705500000000000
0.8617000000000000 0.8111500000000000 0.0705500000000000
0.8617000000000000 0.8111500000000000 0.5705500000000000
0.3413900000000000 0.2951350000000000 0.0158400000000000
0.3413900000000000 0.2951350000000000 0.5158400000000000
0.3413900000000000 0.7951349999999999 0.0158400000000000
0.3413900000000000 0.7951349999999999 0.5158400000000000
0.8413900000000001 0.2951350000000000 0.0158400000000000
0.8413900000000001 0.2951350000000000 0.5158400000000000
0.8413900000000001 0.7951349999999999 0.0158400000000000
0.8413900000000001 0.7951349999999999 0.5158400000000000
0.3157450000000001 0.1562500000000000 0.4495700000000000
0.3157450000000000 0.1562500000000000 0.9495699999999999
0.3157450000000001 0.6562500000000000 0.4495700000000000
0.3157450000000000 0.6562499999999999 0.9495699999999999
0.8157449999999999 0.1562500000000000 0.4495700000000000
0.8157449999999999 0.1562500000000000 0.9495699999999999
0.8157449999999999 0.6562500000000000 0.4495700000000000
0.8157449999999999 0.6562499999999999 0.9495699999999999
0.3111500000000000 0.1383000000000000 0.4294500000000000
0.3111500000000000 0.1383000000000000 0.9294499999999999
0.3111500000000000 0.6383000000000000 0.4294500000000000
0.3111500000000000 0.6383000000000000 0.9294499999999999
0.8111500000000000 0.1383000000000000 0.4294500000000000
0.8111500000000000 0.1383000000000000 0.9294499999999999
0.8111500000000000 0.6383000000000000 0.4294500000000000
0.8111500000000000 0.6383000000000000 0.9294499999999999
0.2706499999999998 0.2128500000000000 0.0399000000000000
0.2706499999999998 0.2128500000000000 0.5399000000000000
0.2706499999999998 0.7128500000000000 0.0399000000000000
0.2706499999999998 0.7128500000000000 0.5399000000000000
0.7706499999999998 0.2128500000000000 0.0399000000000000
0.7706499999999998 0.2128500000000000 0.5399000000000000
0.7706499999999998 0.7128500000000000 0.0399000000000000
0.7706499999999998 0.7128500000000000 0.5399000000000000
0.2971000000000000 0.1818000000000000 0.0614000000000000
0.2971000000000000 0.1818000000000000 0.5614000000000000
0.2971000000000000 0.6818000000000000 0.0614000000000000
0.2971000000000000 0.6818000000000000 0.5614000000000000
0.7970999999999998 0.1818000000000000 0.0614000000000000
0.7970999999999998 0.1818000000000000 0.5614000000000000
0.7970999999999998 0.6818000000000000 0.0614000000000000
0.7970999999999998 0.6818000000000000 0.5614000000000000
0.3138000000000000 0.2237499999999999 0.0519500000000000
0.3137999999999999 0.2237499999999999 0.5519499999999999
0.3137999999999999 0.7237499999999998 0.0519500000000000
0.3137999999999999 0.7237499999999998 0.5519499999999999
0.8138000000000000 0.2237499999999999 0.0519500000000000
0.8138000000000000 0.2237499999999999 0.5519499999999999
0.8138000000000000 0.7237499999999998 0.0519500000000000
0.8138000000000000 0.7237499999999998 0.5519499999999999
0.2951350000000000 0.1586100000000000 0.4841600000000000
0.2951350000000000 0.1586100000000000 0.9841599999999999
0.2951350000000000 0.6586100000000000 0.4841600000000000
0.2951350000000000 0.6586100000000000 0.9841599999999999
0.7951349999999999 0.1586100000000000 0.4841600000000000
0.7951349999999999 0.1586100000000000 0.9841599999999999
0.7951349999999999 0.6586100000000000 0.4841600000000000
0.7951349999999999 0.6586100000000000 0.9841599999999999
0.1562500000000000 0.1842550000000000 0.0504300000000000
0.1562500000000000 0.1842550000000000 0.5504299999999999
0.1562500000000000 0.6842550000000001 0.0504300000000000
0.1562500000000000 0.6842550000000001 0.5504299999999999
0.6562500000000000 0.1842550000000000 0.0504300000000000
0.6562500000000000 0.1842550000000000 0.5504299999999999
0.6562500000000000 0.6842550000000001 0.0504300000000000
0.6562500000000000 0.6842550000000001 0.5504299999999999
0.1383000000000000 0.1888500000000000 0.0705500000000000
0.1383000000000000 0.1888500000000000 0.5705500000000000
0.1383000000000000 0.6888500000000000 0.0705500000000000
0.1383000000000000 0.6888500000000000 0.5705500000000000
0.6383000000000000 0.1888500000000000 0.0705500000000000
0.6383000000000000 0.1888500000000000 0.5705500000000000
0.6383000000000000 0.6888500000000000 0.0705500000000000
0.6383000000000000 0.6888500000000000 0.5705500000000000
0.1586100000000000 0.2048650000000000 0.0158400000000000
0.1586100000000000 0.2048650000000000 0.5158400000000000
0.1586100000000000 0.7048650000000000 0.0158400000000000
0.1586100000000000 0.7048650000000000 0.5158400000000000
0.6586100000000000 0.2048650000000000 0.0158400000000000
0.6586100000000000 0.2048650000000000 0.5158400000000000
0.6586100000000000 0.7048650000000000 0.0158400000000000
0.6586100000000000 0.7048650000000000 0.5158400000000000
0.1842550000000000 0.3437500000000001 0.4495700000000000
0.1842550000000000 0.3437500000000000 0.9495699999999999
0.1842550000000000 0.8437500000000000 0.4495700000000000
0.1842550000000000 0.8437500000000000 0.9495699999999999
0.6842550000000001 0.3437500000000001 0.4495700000000000
0.6842550000000001 0.3437500000000000 0.9495699999999999
0.6842550000000001 0.8437500000000000 0.4495700000000000
0.6842550000000001 0.8437500000000000 0.9495699999999999
0.1888500000000000 0.3617000000000001 0.4294500000000000
0.1888500000000000 0.3617000000000000 0.9294499999999999
0.1888500000000000 0.8617000000000000 0.4294500000000000
0.1888500000000000 0.8617000000000000 0.9294499999999999
0.6888500000000000 0.3617000000000001 0.4294500000000000
0.6888500000000000 0.3617000000000000 0.9294499999999999
0.6888500000000001 0.8617000000000000 0.4294500000000000
0.6888500000000000 0.8617000000000000 0.9294499999999999
0.2293500000000000 0.2871500000000000 0.0399000000000000
0.2293500000000000 0.2871500000000000 0.5399000000000000
0.2293500000000000 0.7871499999999999 0.0399000000000000
0.2293500000000000 0.7871499999999999 0.5399000000000000
0.7293499999999999 0.2871500000000000 0.0399000000000000
0.7293499999999999 0.2871500000000000 0.5399000000000000
0.7293499999999999 0.7871499999999999 0.0399000000000000
0.7293499999999999 0.7871499999999999 0.5399000000000000
0.2029000000000000 0.3182000000000000 0.0614000000000000
0.2029000000000000 0.3182000000000000 0.5614000000000000
0.2029000000000000 0.8181999999999999 0.0614000000000000
0.2029000000000000 0.8181999999999999 0.5614000000000000
0.7028999999999999 0.3182000000000000 0.0614000000000000
0.7028999999999999 0.3182000000000000 0.5614000000000000
0.7028999999999999 0.8181999999999999 0.0614000000000000
0.7028999999999999 0.8181999999999999 0.5614000000000000
0.1861999999999999 0.2762500000000000 0.0519500000000000
0.1861999999999999 0.2762499999999999 0.5519499999999999
0.1861999999999999 0.7762500000000000 0.0519500000000000
0.1861999999999999 0.7762500000000000 0.5519499999999999
0.6861999999999999 0.2762500000000000 0.0519500000000000
0.6861999999999999 0.2762499999999999 0.5519499999999999
0.6861999999999999 0.7762500000000000 0.0519500000000000
0.6861999999999999 0.7762500000000000 0.5519499999999999
0.2048650000000000 0.3413900000000000 0.4841600000000000
0.2048650000000000 0.3413900000000000 0.9841599999999999
0.2048650000000000 0.8413900000000001 0.4841600000000000
0.2048650000000000 0.8413900000000001 0.9841599999999999
0.7048650000000000 0.3413900000000000 0.4841600000000000
0.7048650000000000 0.3413900000000000 0.9841599999999999
0.7048650000000000 0.8413900000000001 0.4841600000000000
0.7048650000000000 0.8413900000000001 0.9841599999999999
0.4495700000000000 0.3437500000000000 0.1842550000000000
0.4495700000000000 0.3437500000000000 0.6842550000000001
0.4495700000000000 0.8437500000000000 0.1842550000000000
0.4495700000000000 0.8437500000000000 0.6842550000000001
0.9495699999999999 0.3437500000000000 0.1842550000000000
0.9495699999999999 0.3437500000000000 0.6842550000000001
0.9495699999999999 0.8437500000000000 0.1842550000000000
0.9495699999999999 0.8437500000000000 0.6842550000000001
0.4294500000000000 0.3617000000000000 0.1888500000000000
0.4294500000000000 0.3617000000000000 0.6888500000000000
0.4294500000000000 0.8617000000000000 0.1888500000000000
0.4294500000000000 0.8617000000000000 0.6888500000000000
0.9294499999999999 0.3617000000000000 0.1888500000000000
0.9294499999999999 0.3617000000000000 0.6888500000000000
0.9294500000000000 0.8617000000000000 0.1888500000000000
0.9294500000000000 0.8617000000000000 0.6888500000000000
0.0399000000000000 0.2871500000000000 0.2293500000000000
0.0399000000000000 0.2871500000000000 0.7293499999999999
0.0399000000000000 0.7871499999999999 0.2293500000000000
0.0399000000000000 0.7871499999999999 0.7293499999999999
0.5399000000000000 0.2871500000000000 0.2293500000000000
0.5399000000000000 0.2871500000000000 0.7293499999999999
0.5399000000000000 0.7871499999999999 0.2293500000000000
0.5399000000000000 0.7871499999999999 0.7293499999999999
0.0614000000000000 0.3182000000000000 0.2029000000000000
0.0614000000000000 0.3182000000000000 0.7028999999999999
0.0614000000000000 0.8181999999999999 0.2029000000000000
0.0614000000000000 0.8181999999999999 0.7028999999999999
0.5614000000000000 0.3182000000000000 0.2029000000000000
0.5614000000000000 0.3182000000000000 0.7028999999999999
0.5614000000000000 0.8181999999999999 0.2029000000000000
0.5614000000000000 0.8181999999999999 0.7028999999999999
0.0519500000000000 0.2762500000000000 0.1862000000000000
0.0519500000000000 0.2762499999999999 0.6861999999999999
0.0519500000000000 0.7762500000000000 0.1862000000000000
0.0519500000000000 0.7762500000000000 0.6861999999999999
0.5519499999999999 0.2762500000000000 0.1862000000000000
0.5519499999999999 0.2762499999999999 0.6861999999999999
0.5519499999999999 0.7762500000000000 0.1862000000000000
0.5519499999999999 0.7762500000000000 0.6861999999999999
0.4841600000000000 0.3413900000000000 0.2048650000000000
0.4841599999999999 0.3413900000000000 0.7048650000000000
0.4841599999999999 0.8413900000000001 0.2048650000000000
0.4841599999999999 0.8413900000000001 0.7048650000000000
0.9841599999999999 0.3413900000000000 0.2048650000000000
0.9841599999999999 0.3413900000000000 0.7048650000000000
0.9841599999999999 0.8413900000000001 0.2048650000000000
0.9841599999999999 0.8413900000000001 0.7048650000000000
0.0000000000000000 0.3750000000000000 0.2500000000000000
0.0000000000000000 0.3750000000000000 0.7500000000000000
0.0000000000000000 0.8750000000000000 0.2500000000000000
0.0000000000000000 0.8750000000000000 0.7500000000000000
0.5000000000000000 0.3750000000000000 0.2500000000000000
0.4999999999999999 0.3750000000000000 0.7500000000000000
0.5000000000000001 0.8750000000000000 0.2500000000000000
0.5000000000000001 0.8750000000000000 0.7500000000000000
0.4495700000000000 0.1562500000000000 0.3157450000000000
0.4495700000000000 0.1562500000000000 0.8157449999999999
0.4495700000000000 0.6562500000000000 0.3157450000000000
0.4495700000000000 0.6562500000000000 0.8157449999999999
0.9495699999999999 0.1562500000000000 0.3157450000000000
0.9495699999999999 0.1562500000000000 0.8157449999999999
0.9495699999999999 0.6562500000000000 0.3157450000000000
0.9495699999999999 0.6562500000000000 0.8157449999999999
0.4294500000000000 0.1383000000000000 0.3111500000000000
0.4294500000000000 0.1383000000000000 0.8111500000000000
0.4294500000000000 0.6383000000000000 0.3111500000000000
0.4294500000000000 0.6383000000000000 0.8111500000000000
0.9294499999999999 0.1383000000000000 0.3111500000000000
0.9294499999999999 0.1383000000000000 0.8111500000000000
0.9294499999999999 0.6383000000000000 0.3111500000000000
0.9294499999999999 0.6383000000000000 0.8111500000000000
0.4841600000000000 0.1586100000000000 0.2951350000000000
0.4841599999999999 0.1586100000000000 0.7951349999999999
0.4841599999999999 0.6586100000000000 0.2951350000000000
0.4841599999999999 0.6586100000000000 0.7951349999999999
0.9841599999999999 0.1586100000000000 0.2951350000000000
0.9841599999999999 0.1586100000000000 0.7951349999999999
0.9841599999999999 0.6586100000000000 0.2951350000000000
0.9841599999999999 0.6586100000000000 0.7951349999999999
0.0000000000000000 0.1250000000000000 0.2500000000000000
0.0000000000000000 0.1250000000000000 0.7500000000000000
0.0000000000000000 0.6250000000000000 0.2500000000000000
0.0000000000000000 0.6250000000000000 0.7500000000000000
0.5000000000000000 0.1250000000000000 0.2500000000000000
0.4999999999999999 0.1250000000000000 0.7500000000000000
0.4999999999999999 0.6250000000000000 0.2500000000000000
0.4999999999999999 0.6250000000000000 0.7500000000000000
0.1562500000000000 0.0504300000000000 0.1842550000000000
0.1562500000000000 0.0504300000000000 0.6842550000000001
0.1562500000000000 0.5504299999999999 0.1842550000000000
0.1562500000000000 0.5504299999999999 0.6842550000000001
0.6562500000000000 0.0504300000000000 0.1842550000000000
0.6562500000000000 0.0504300000000000 0.6842550000000001
0.6562500000000000 0.5504299999999999 0.1842550000000000
0.6562500000000000 0.5504299999999999 0.6842550000000001
0.1383000000000000 0.0705500000000000 0.1888500000000000
0.1383000000000000 0.0705500000000000 0.6888500000000000
0.1383000000000000 0.5705500000000000 0.1888500000000000
0.1383000000000000 0.5705500000000000 0.6888500000000000
0.6383000000000000 0.0705500000000000 0.1888500000000000
0.6383000000000000 0.0705500000000000 0.6888500000000000
0.6383000000000000 0.5705500000000000 0.1888500000000000
0.6383000000000000 0.5705500000000000 0.6888500000000000
0.2128500000000000 0.4601000000000000 0.2293500000000000
0.2128500000000000 0.4601000000000000 0.7293499999999999
0.2128500000000000 0.9601000000000000 0.2293500000000000
0.2128500000000000 0.9601000000000000 0.7293499999999999
0.7128500000000000 0.4601000000000000 0.2293500000000000
0.7128500000000000 0.4601000000000000 0.7293499999999999
0.7128500000000000 0.9601000000000000 0.2293500000000000
0.7128500000000000 0.9601000000000000 0.7293499999999999
0.1818000000000000 0.4386000000000000 0.2029000000000000
0.1818000000000000 0.4386000000000000 0.7028999999999999
0.1818000000000000 0.9386000000000000 0.2029000000000000
0.1818000000000000 0.9386000000000000 0.7028999999999999
0.6818000000000000 0.4386000000000000 0.2029000000000000
0.6818000000000000 0.4386000000000000 0.7028999999999999
0.6818000000000000 0.9386000000000000 0.2029000000000000
0.6818000000000000 0.9386000000000000 0.7028999999999999
0.2237499999999999 0.4480500000000000 0.1862000000000000
0.2237499999999999 0.4480500000000000 0.6861999999999999
0.2237499999999999 0.9480500000000002 0.1862000000000000
0.2237499999999999 0.9480500000000002 0.6861999999999999
0.7237499999999998 0.4480500000000000 0.1862000000000000
0.7237499999999998 0.4480500000000000 0.6861999999999999
0.7237499999999998 0.9480500000000002 0.1862000000000000
0.7237499999999998 0.9480500000000002 0.6861999999999999
0.1586100000000000 0.0158400000000000 0.2048650000000000
0.1586100000000000 0.0158400000000000 0.7048650000000000
0.1586100000000000 0.5158400000000000 0.2048650000000000
0.1586100000000000 0.5158400000000000 0.7048650000000000
0.6586100000000000 0.0158400000000000 0.2048650000000000
0.6586100000000000 0.0158400000000000 0.7048650000000000
0.6586100000000000 0.5158400000000000 0.2048650000000000
0.6586100000000000 0.5158400000000000 0.7048650000000000
0.1250000000000000 0.0000000000000000 0.2500000000000000
0.1250000000000000 0.0000000000000000 0.7500000000000000
0.1250000000000000 0.5000000000000000 0.2500000000000000
0.1250000000000000 0.4999999999999999 0.7500000000000000
0.6250000000000000 0.0000000000000000 0.2500000000000000
0.6250000000000000 0.0000000000000000 0.7500000000000000
0.6250000000000000 0.5000000000000000 0.2500000000000000
0.6250000000000000 0.4999999999999999 0.7500000000000000
0.0504300000000000 0.3437500000000000 0.3157450000000000
0.0504300000000000 0.3437500000000000 0.8157449999999999
0.0504300000000000 0.8437500000000000 0.3157450000000000
0.0504300000000000 0.8437500000000000 0.8157449999999999
0.5504299999999999 0.3437500000000000 0.3157450000000000
0.5504299999999999 0.3437500000000000 0.8157449999999999
0.5504299999999999 0.8437500000000000 0.3157450000000000
0.5504299999999999 0.8437500000000000 0.8157449999999999
0.0705500000000000 0.3617000000000000 0.3111500000000000
0.0705500000000000 0.3617000000000000 0.8111500000000000
0.0705500000000000 0.8617000000000000 0.3111500000000000
0.0705500000000000 0.8617000000000000 0.8111500000000000
0.5705500000000000 0.3617000000000000 0.3111500000000000
0.5705500000000000 0.3617000000000000 0.8111500000000000
0.5705500000000001 0.8617000000000000 0.3111500000000000
0.5705500000000001 0.8617000000000000 0.8111500000000000
0.0158400000000000 0.3413900000000000 0.2951350000000000
0.0158400000000000 0.3413900000000000 0.7951349999999999
0.0158400000000000 0.8413900000000001 0.2951350000000000
0.0158400000000000 0.8413900000000001 0.7951349999999999
0.5158400000000000 0.3413900000000000 0.2951350000000000
0.5158400000000000 0.3413900000000000 0.7951349999999999
0.5158400000000000 0.8413900000000001 0.2951350000000000
0.5158400000000000 0.8413900000000001 0.7951349999999999
0.3437500000000001 0.4495700000000000 0.1842550000000000
0.3437500000000001 0.4495700000000000 0.6842550000000001
0.3437500000000000 0.9495699999999999 0.1842550000000000
0.3437500000000000 0.9495699999999999 0.6842550000000001
0.8437500000000000 0.4495700000000000 0.1842550000000000
0.8437500000000000 0.4495700000000000 0.6842550000000001
0.8437500000000000 0.9495699999999999 0.1842550000000000
0.8437500000000000 0.9495699999999999 0.6842550000000001
0.3617000000000001 0.4294500000000000 0.1888500000000000
0.3617000000000000 0.4294500000000000 0.6888500000000000
0.3617000000000000 0.9294499999999999 0.1888500000000000
0.3617000000000000 0.9294499999999999 0.6888500000000000
0.8617000000000000 0.4294500000000000 0.1888500000000000
0.8617000000000000 0.4294500000000000 0.6888500000000000
0.8617000000000000 0.9294499999999999 0.1888500000000000
0.8617000000000000 0.9294499999999999 0.6888500000000000
0.3413900000000000 0.4841600000000000 0.2048650000000000
0.3413900000000000 0.4841599999999999 0.7048650000000000
0.3413900000000000 0.9841599999999999 0.2048650000000000
0.3413900000000000 0.9841599999999999 0.7048650000000000
0.8413900000000001 0.4841600000000000 0.2048650000000000
0.8413900000000001 0.4841599999999999 0.7048650000000000
0.8413900000000001 0.9841599999999999 0.2048650000000000
0.8413900000000001 0.9841599999999999 0.7048650000000000
0.3750000000000000 0.0000000000000000 0.2500000000000000
0.3750000000000000 0.0000000000000000 0.7500000000000000
0.3750000000000000 0.5000000000000000 0.2500000000000000
0.3750000000000000 0.4999999999999999 0.7500000000000000
0.8750000000000000 0.0000000000000000 0.2500000000000000
0.8750000000000000 0.0000000000000000 0.7500000000000000
0.8750000000000000 0.5000000000000000 0.2500000000000000
0.8750000000000000 0.4999999999999999 0.7500000000000000
0.0504300000000000 0.1562500000000000 0.1842550000000000
0.0504300000000000 0.1562500000000000 0.6842550000000001
0.0504300000000000 0.6562500000000000 0.1842550000000000
0.0504300000000000 0.6562500000000000 0.6842550000000001
0.5504299999999999 0.1562500000000000 0.1842550000000000
0.5504299999999999 0.1562500000000000 0.6842550000000001
0.5504299999999999 0.6562500000000000 0.1842550000000000
0.5504299999999999 0.6562500000000000 0.6842550000000001
0.0705500000000000 0.1383000000000000 0.1888500000000000
0.0705500000000000 0.1383000000000000 0.6888500000000000
0.0705500000000000 0.6383000000000000 0.1888500000000000
0.0705500000000000 0.6383000000000000 0.6888500000000000
0.5705500000000000 0.1383000000000000 0.1888500000000000
0.5705500000000000 0.1383000000000000 0.6888500000000000
0.5705500000000000 0.6383000000000000 0.1888500000000000
0.5705500000000000 0.6383000000000000 0.6888500000000000
0.0158400000000000 0.1586100000000000 0.2048650000000000
0.0158400000000000 0.1586100000000000 0.7048650000000000
0.0158400000000000 0.6586100000000000 0.2048650000000000
0.0158400000000000 0.6586100000000000 0.7048650000000000
0.5158400000000000 0.1586100000000000 0.2048650000000000
0.5158400000000000 0.1586100000000000 0.7048650000000000
0.5158400000000000 0.6586100000000000 0.2048650000000000
0.5158400000000000 0.6586100000000000 0.7048650000000000
0.1562500000000000 0.4495700000000000 0.3157450000000000
0.1562500000000000 0.4495700000000000 0.8157449999999999
0.1562500000000000 0.9495699999999999 0.3157450000000000
0.1562500000000000 0.9495699999999999 0.8157449999999999
0.6562500000000000 0.4495700000000000 0.3157450000000000
0.6562500000000000 0.4495700000000000 0.8157449999999999
0.6562499999999999 0.9495699999999999 0.3157450000000000
0.6562499999999999 0.9495699999999999 0.8157449999999999
0.1383000000000000 0.4294500000000000 0.3111500000000000
0.1383000000000000 0.4294500000000000 0.8111500000000000
0.1383000000000000 0.9294499999999999 0.3111500000000000
0.1383000000000000 0.9294499999999999 0.8111500000000000
0.6383000000000000 0.4294500000000000 0.3111500000000000
0.6383000000000000 0.4294500000000000 0.8111500000000000
0.6383000000000000 0.9294499999999999 0.3111500000000000
0.6383000000000000 0.9294499999999999 0.8111500000000000
0.2128500000000000 0.0399000000000000 0.2706499999999998
0.2128500000000000 0.0399000000000000 0.7706499999999998
0.2128500000000000 0.5399000000000000 0.2706499999999998
0.2128500000000000 0.5399000000000000 0.7706499999999998
0.7128500000000000 0.0399000000000000 0.2706499999999998
0.7128500000000000 0.0399000000000000 0.7706499999999998
0.7128500000000000 0.5399000000000000 0.2706499999999998
0.7128500000000000 0.5399000000000000 0.7706499999999998
0.1818000000000000 0.0614000000000000 0.2971000000000000
0.1818000000000000 0.0614000000000000 0.7970999999999998
0.1818000000000000 0.5614000000000000 0.2971000000000000
0.1818000000000000 0.5614000000000000 0.7970999999999998
0.6818000000000000 0.0614000000000000 0.2971000000000000
0.6818000000000000 0.0614000000000000 0.7970999999999998
0.6818000000000000 0.5614000000000000 0.2971000000000000
0.6818000000000000 0.5614000000000000 0.7970999999999998
0.2237499999999999 0.0519500000000000 0.3138000000000000
0.2237499999999999 0.0519500000000000 0.8138000000000000
0.2237499999999999 0.5519499999999999 0.3138000000000000
0.2237499999999999 0.5519499999999999 0.8138000000000000
0.7237499999999998 0.0519500000000000 0.3138000000000000
0.7237499999999998 0.0519500000000000 0.8138000000000000
0.7237499999999998 0.5519499999999999 0.3138000000000000
0.7237499999999998 0.5519499999999999 0.8138000000000000
0.1586100000000000 0.4841600000000000 0.2951350000000000
0.1586100000000000 0.4841599999999999 0.7951349999999999
0.1586100000000000 0.9841599999999999 0.2951350000000000
0.1586100000000000 0.9841599999999999 0.7951349999999999
0.6586100000000000 0.4841600000000000 0.2951350000000000
0.6586100000000000 0.4841599999999999 0.7951349999999999
0.6586100000000000 0.9841599999999999 0.2951350000000000
0.6586100000000000 0.9841599999999999 0.7951349999999999
0.3437500000000000 0.0504300000000000 0.3157450000000000
0.3437500000000000 0.0504300000000000 0.8157449999999999
0.3437500000000000 0.5504299999999999 0.3157450000000000
0.3437500000000000 0.5504299999999999 0.8157449999999999
0.8437500000000000 0.0504300000000000 0.3157450000000000
0.8437500000000000 0.0504300000000000 0.8157449999999999
0.8437500000000000 0.5504299999999999 0.3157450000000000
0.8437500000000000 0.5504299999999999 0.8157449999999999
0.3617000000000000 0.0705500000000000 0.3111500000000000
0.3617000000000000 0.0705500000000000 0.8111500000000000
0.3617000000000000 0.5705500000000000 0.3111500000000000
0.3617000000000000 0.5705500000000000 0.8111500000000000
0.8617000000000000 0.0705500000000000 0.3111500000000000
0.8617000000000000 0.0705500000000000 0.8111500000000000
0.8617000000000000 0.5705500000000000 0.3111500000000000
0.8617000000000000 0.5705500000000000 0.8111500000000000
0.3413900000000000 0.0158400000000000 0.2951350000000000
0.3413900000000000 0.0158400000000000 0.7951349999999999
0.3413900000000000 0.5158400000000000 0.2951350000000000
0.3413900000000000 0.5158400000000000 0.7951349999999999
0.8413900000000001 0.0158400000000000 0.2951350000000000
0.8413900000000001 0.0158400000000000 0.7951349999999999
0.8413900000000001 0.5158400000000000 0.2951350000000000
0.8413900000000001 0.5158400000000000 0.7951349999999999
0.4385250000000000 0.2539500000000000 0.0614750000000000
0.4385250000000000 0.2539500000000000 0.5614749999999999
0.4385250000000000 0.7539500000000000 0.0614750000000000
0.4385250000000000 0.7539500000000000 0.5614749999999999
0.9385250000000001 0.2539500000000000 0.0614750000000000
0.9385250000000001 0.2539500000000000 0.5614749999999999
0.9385250000000001 0.7539500000000000 0.0614750000000000
0.9385250000000001 0.7539500000000000 0.5614749999999999
0.4342550000000000 0.1995700000000000 0.0937500000000000
0.4342550000000000 0.1995699999999999 0.5937500000000000
0.4342550000000000 0.6995700000000000 0.0937500000000000
0.4342550000000000 0.6995700000000000 0.5937500000000000
0.9342550000000001 0.1995700000000000 0.0937500000000000
0.9342550000000001 0.1995699999999999 0.5937500000000000
0.9342550000000001 0.6995700000000000 0.0937500000000000
0.9342550000000001 0.6995700000000000 0.5937500000000000
0.4388499999999999 0.1794500000000000 0.1117000000000000
0.4388499999999999 0.1794500000000000 0.6117000000000000
0.4388499999999999 0.6794499999999999 0.1117000000000000
0.4388499999999999 0.6794499999999999 0.6117000000000000
0.9388500000000000 0.1794500000000000 0.1117000000000000
0.9388500000000000 0.1794500000000000 0.6117000000000000
0.9388500000000000 0.6794499999999999 0.1117000000000000
0.9388500000000000 0.6794499999999999 0.6117000000000000
0.4530500000000000 0.2927499999999998 0.0469500000000000
0.4530500000000000 0.2927499999999998 0.5469499999999999
0.4530500000000000 0.7927499999999998 0.0469500000000000
0.4530500000000000 0.7927499999999998 0.5469499999999999
0.9530500000000000 0.2927499999999998 0.0469500000000000
0.9530500000000000 0.2927499999999998 0.5469499999999999
0.9530500000000000 0.7927499999999998 0.0469500000000000
0.9530500000000000 0.7927499999999998 0.5469499999999999
0.4793500000000000 0.2898999999999998 0.0371500000000000
0.4793499999999999 0.2898999999999998 0.5371500000000000
0.4793499999999999 0.7898999999999998 0.0371500000000000
0.4793499999999999 0.7898999999999998 0.5371500000000000
0.9793499999999999 0.2898999999999998 0.0371500000000000
0.9793499999999999 0.2898999999999998 0.5371500000000000
0.9793499999999999 0.7898999999999998 0.0371500000000000
0.9793499999999999 0.7898999999999998 0.5371500000000000
0.4529000000000000 0.3114000000000000 0.0682000000000000
0.4529000000000000 0.3114000000000000 0.5681999999999999
0.4529000000000000 0.8114000000000000 0.0682000000000000
0.4529000000000000 0.8114000000000000 0.5681999999999999
0.9529000000000001 0.3114000000000000 0.0682000000000000
0.9529000000000001 0.3114000000000000 0.5681999999999999
0.9529000000000001 0.8114000000000000 0.0682000000000000
0.9529000000000001 0.8114000000000000 0.5681999999999999
0.4362000000000000 0.3019500000000000 0.0262500000000000
0.4362000000000000 0.3019500000000000 0.5262500000000000
0.4362000000000000 0.8019499999999999 0.0262500000000000
0.4362000000000000 0.8019499999999999 0.5262500000000000
0.9361999999999999 0.3019500000000000 0.0262500000000000
0.9361999999999999 0.3019500000000000 0.5262500000000000
0.9361999999999999 0.8019499999999999 0.0262500000000000
0.9361999999999999 0.8019499999999999 0.5262500000000000
0.4548650000000000 0.2341600000000000 0.0913900000000000
0.4548649999999999 0.2341600000000000 0.5913900000000000
0.4548649999999999 0.7341600000000000 0.0913900000000000
0.4548649999999999 0.7341600000000000 0.5913900000000000
0.9548650000000001 0.2341600000000000 0.0913900000000000
0.9548650000000001 0.2341600000000000 0.5913900000000000
0.9548650000000001 0.7341600000000000 0.0913900000000000
0.9548650000000001 0.7341600000000000 0.5913900000000000
0.2539500000000001 0.0614750000000000 0.4385250000000000
0.2539500000000000 0.0614750000000000 0.9385250000000001
0.2539500000000001 0.5614749999999999 0.4385250000000000
0.2539500000000000 0.5614749999999999 0.9385250000000001
0.7539500000000000 0.0614750000000000 0.4385250000000000
0.7539500000000000 0.0614750000000000 0.9385250000000001
0.7539500000000000 0.5614749999999999 0.4385250000000000
0.7539500000000000 0.5614749999999999 0.9385250000000001
0.1995699999999999 0.0657450000000000 0.4062499999999998
0.1995699999999999 0.0657450000000000 0.9062499999999999
0.1995699999999999 0.5657449999999999 0.4062499999999998
0.1995699999999999 0.5657450000000001 0.9062499999999999
0.6995700000000000 0.0657450000000000 0.4062499999999998
0.6995700000000001 0.0657450000000000 0.9062499999999999
0.6995700000000000 0.5657449999999999 0.4062499999999998
0.6995700000000001 0.5657450000000001 0.9062499999999999
0.1794500000000000 0.0611500000000000 0.3883000000000000
0.1794500000000000 0.0611500000000000 0.8883000000000000
0.1794500000000000 0.5611500000000000 0.3883000000000000
0.1794500000000000 0.5611500000000001 0.8883000000000000
0.6794499999999999 0.0611500000000000 0.3883000000000000
0.6794500000000000 0.0611500000000000 0.8883000000000000
0.6794499999999999 0.5611500000000000 0.3883000000000000
0.6794500000000000 0.5611500000000001 0.8883000000000000
0.2927499999999999 0.0469500000000000 0.4530500000000000
0.2927499999999998 0.0469500000000000 0.9530500000000000
0.2927499999999999 0.5469499999999999 0.4530500000000000
0.2927499999999998 0.5469499999999999 0.9530500000000000
0.7927499999999998 0.0469500000000000 0.4530500000000000
0.7927499999999998 0.0469500000000000 0.9530500000000000
0.7927499999999998 0.5469499999999999 0.4530500000000000
0.7927499999999998 0.5469499999999999 0.9530500000000000
0.2341600000000000 0.0451350000000000 0.4086100000000000
0.2341600000000000 0.0451350000000000 0.9086099999999999
0.2341600000000000 0.5451350000000000 0.4086100000000000
0.2341600000000000 0.5451350000000000 0.9086099999999999
0.7341600000000000 0.0451350000000000 0.4086100000000000
0.7341600000000000 0.0451350000000000 0.9086099999999999
0.7341600000000000 0.5451350000000000 0.4086100000000000
0.7341600000000000 0.5451350000000000 0.9086099999999999
0.0614750000000000 0.2460500000000000 0.0614750000000000
0.0614750000000000 0.2460500000000000 0.5614749999999999
0.0614750000000000 0.7460500000000000 0.0614750000000000
0.0614750000000000 0.7460500000000000 0.5614749999999999
0.5614749999999999 0.2460500000000000 0.0614750000000000
0.5614749999999999 0.2460500000000000 0.5614749999999999
0.5614749999999999 0.7460500000000000 0.0614750000000000
0.5614749999999999 0.7460500000000000 0.5614749999999999
0.0657450000000000 0.3004300000000000 0.0937500000000000
0.0657450000000000 0.3004300000000000 0.5937500000000000
0.0657450000000000 0.8004299999999999 0.0937500000000000
0.0657450000000000 0.8004299999999999 0.5937500000000000
0.5657449999999999 0.3004300000000000 0.0937500000000000
0.5657449999999999 0.3004300000000000 0.5937500000000000
0.5657449999999999 0.8004299999999999 0.0937500000000000
0.5657449999999999 0.8004299999999999 0.5937500000000000
0.0611500000000000 0.3205499999999999 0.1117000000000000
0.0611500000000000 0.3205499999999999 0.6117000000000000
0.0611500000000000 0.8205499999999999 0.1117000000000000
0.0611500000000000 0.8205499999999999 0.6117000000000000
0.5611500000000000 0.3205499999999999 0.1117000000000000
0.5611500000000000 0.3205499999999999 0.6117000000000000
0.5611500000000000 0.8205499999999999 0.1117000000000000
0.5611500000000000 0.8205499999999999 0.6117000000000000
0.0469500000000000 0.2072500000000000 0.0469500000000000
0.0469500000000000 0.2072500000000000 0.5469499999999999
0.0469500000000000 0.7072499999999999 0.0469500000000000
0.0469500000000000 0.7072499999999999 0.5469499999999999
0.5469499999999999 0.2072500000000000 0.0469500000000000
0.5469499999999999 0.2072500000000000 0.5469499999999999
0.5469499999999999 0.7072499999999999 0.0469500000000000
0.5469499999999999 0.7072499999999999 0.5469499999999999
0.0206500000000000 0.2101000000000000 0.0371500000000000
0.0206500000000000 0.2101000000000000 0.5371500000000000
0.0206500000000000 0.7101000000000000 0.0371500000000000
0.0206500000000000 0.7101000000000000 0.5371500000000000
0.5206500000000001 0.2101000000000000 0.0371500000000000
0.5206500000000001 0.2101000000000000 0.5371500000000000
0.5206500000000001 0.7101000000000000 0.0371500000000000
0.5206500000000001 0.7101000000000000 0.5371500000000000
0.0471000000000000 0.1886000000000000 0.0682000000000000
0.0471000000000000 0.1886000000000000 0.5681999999999999
0.0471000000000000 0.6886000000000000 0.0682000000000000
0.0471000000000000 0.6886000000000000 0.5681999999999999
0.5471000000000000 0.1886000000000000 0.0682000000000000
0.5471000000000000 0.1886000000000000 0.5681999999999999
0.5471000000000000 0.6886000000000000 0.0682000000000000
0.5471000000000000 0.6886000000000000 0.5681999999999999
0.0638000000000000 0.1980500000000000 0.0262500000000000
0.0638000000000000 0.1980500000000000 0.5262500000000000
0.0638000000000000 0.6980500000000001 0.0262500000000000
0.0638000000000000 0.6980500000000001 0.5262500000000000
0.5638000000000000 0.1980500000000000 0.0262500000000000
0.5638000000000000 0.1980500000000000 0.5262500000000000
0.5638000000000000 0.6980500000000001 0.0262500000000000
0.5638000000000000 0.6980500000000001 0.5262500000000000
0.0451350000000000 0.2658400000000000 0.0913900000000000
0.0451350000000000 0.2658400000000000 0.5913900000000000
0.0451350000000000 0.7658400000000001 0.0913900000000000
0.0451350000000000 0.7658400000000001 0.5913900000000000
0.5451350000000000 0.2658400000000000 0.0913900000000000
0.5451350000000000 0.2658400000000000 0.5913900000000000
0.5451350000000000 0.7658400000000001 0.0913900000000000
0.5451350000000000 0.7658400000000001 0.5913900000000000
0.2460500000000000 0.4385250000000001 0.4385250000000000
0.2460500000000000 0.4385250000000000 0.9385250000000001
0.2460500000000000 0.9385250000000001 0.4385250000000000
0.2460500000000000 0.9385250000000001 0.9385250000000001
0.7460500000000000 0.4385250000000001 0.4385250000000000
0.7460500000000000 0.4385250000000000 0.9385250000000001
0.7460500000000000 0.9385250000000001 0.4385250000000000
0.7460500000000000 0.9385250000000001 0.9385250000000001
0.3004300000000000 0.4342550000000000 0.4062499999999998
0.3004300000000000 0.4342550000000000 0.9062499999999999
0.3004300000000000 0.9342550000000001 0.4062499999999998
0.3004300000000000 0.9342550000000002 0.9062499999999999
0.8004299999999999 0.4342550000000000 0.4062499999999998
0.8004300000000000 0.4342550000000000 0.9062499999999999
0.8004299999999999 0.9342550000000001 0.4062499999999998
0.8004300000000000 0.9342550000000002 0.9062499999999999
0.3205499999999999 0.4388499999999999 0.3883000000000000
0.3205499999999999 0.4388499999999999 0.8883000000000000
0.3205499999999999 0.9388500000000000 0.3883000000000000
0.3205499999999999 0.9388500000000000 0.8883000000000000
0.8205499999999999 0.4388499999999999 0.3883000000000000
0.8205500000000000 0.4388499999999999 0.8883000000000000
0.8205499999999999 0.9388500000000000 0.3883000000000000
0.8205500000000000 0.9388500000000000 0.8883000000000000
0.2072500000000000 0.4530500000000000 0.4530500000000000
0.2072500000000000 0.4530500000000000 0.9530500000000000
0.2072500000000000 0.9530500000000000 0.4530500000000000
0.2072500000000000 0.9530499999999998 0.9530500000000000
0.7072499999999999 0.4530500000000000 0.4530500000000000
0.7072499999999999 0.4530500000000000 0.9530500000000000
0.7072499999999999 0.9530500000000000 0.4530500000000000
0.7072499999999999 0.9530499999999998 0.9530500000000000
0.2101000000000000 0.4793499999999999 0.4628499999999998
0.2101000000000000 0.4793500000000001 0.9628499999999999
0.2101000000000000 0.9793499999999999 0.4628499999999998
0.2101000000000000 0.9793499999999998 0.9628499999999999
0.7101000000000000 0.4793499999999999 0.4628499999999998
0.7101000000000000 0.4793500000000001 0.9628499999999999
0.7101000000000000 0.9793499999999999 0.4628499999999998
0.7100999999999998 0.9793499999999998 0.9628499999999999
0.1886000000000000 0.4529000000000001 0.4318000000000000
0.1886000000000000 0.4529000000000000 0.9318000000000000
0.1886000000000000 0.9529000000000001 0.4318000000000000
0.1886000000000000 0.9529000000000000 0.9318000000000000
0.6886000000000000 0.4529000000000001 0.4318000000000000
0.6886000000000000 0.4529000000000000 0.9318000000000000
0.6886000000000000 0.9529000000000001 0.4318000000000000
0.6886000000000000 0.9529000000000000 0.9318000000000000
0.1980500000000000 0.4362000000000000 0.4737499999999999
0.1980500000000000 0.4362000000000000 0.9737499999999998
0.1980500000000000 0.9361999999999999 0.4737499999999999
0.1980500000000000 0.9361999999999999 0.9737499999999998
0.6980500000000001 0.4362000000000000 0.4737499999999999
0.6980500000000001 0.4362000000000000 0.9737499999999998
0.6980500000000001 0.9361999999999999 0.4737499999999999
0.6980500000000001 0.9361999999999999 0.9737499999999998
0.2658400000000000 0.4548650000000000 0.4086100000000000
0.2658400000000000 0.4548649999999999 0.9086099999999999
0.2658400000000000 0.9548650000000001 0.4086100000000000
0.2658400000000000 0.9548650000000000 0.9086099999999999
0.7658400000000001 0.4548650000000000 0.4086100000000000
0.7658400000000001 0.4548649999999999 0.9086099999999999
0.7658400000000001 0.9548650000000001 0.4086100000000000
0.7658400000000001 0.9548650000000000 0.9086099999999999
0.4385250000000001 0.2460500000000000 0.4385250000000000
0.4385250000000000 0.2460500000000000 0.9385250000000001
0.4385250000000001 0.7460500000000000 0.4385250000000000
0.4385250000000000 0.7460500000000000 0.9385250000000001
0.9385250000000001 0.2460500000000000 0.4385250000000000
0.9385250000000001 0.2460500000000000 0.9385250000000001
0.9385250000000001 0.7460500000000000 0.4385250000000000
0.9385250000000001 0.7460500000000000 0.9385250000000001
0.4342550000000000 0.3004300000000000 0.4062499999999998
0.4342550000000000 0.3004300000000000 0.9062499999999999
0.4342550000000000 0.8004299999999999 0.4062499999999998
0.4342550000000000 0.8004300000000000 0.9062499999999999
0.9342550000000001 0.3004300000000000 0.4062499999999998
0.9342550000000002 0.3004300000000000 0.9062499999999999
0.9342550000000001 0.8004299999999999 0.4062499999999998
0.9342550000000002 0.8004300000000000 0.9062499999999999
0.4388499999999999 0.3205499999999999 0.3883000000000000
0.4388499999999999 0.3205499999999999 0.8883000000000000
0.4388499999999999 0.8205499999999999 0.3883000000000000
0.4388499999999999 0.8205500000000000 0.8883000000000000
0.9388500000000000 0.3205499999999999 0.3883000000000000
0.9388500000000000 0.3205499999999999 0.8883000000000000
0.9388500000000000 0.8205499999999999 0.3883000000000000
0.9388500000000000 0.8205500000000000 0.8883000000000000
0.4548650000000000 0.2658400000000000 0.4086100000000000
0.4548649999999999 0.2658400000000000 0.9086099999999999
0.4548649999999999 0.7658400000000001 0.4086100000000000
0.4548649999999999 0.7658400000000001 0.9086099999999999
0.9548650000000001 0.2658400000000000 0.4086100000000000
0.9548650000000000 0.2658400000000000 0.9086099999999999
0.9548650000000001 0.7658400000000001 0.4086100000000000
0.9548650000000000 0.7658400000000001 0.9086099999999999
0.2460500000000000 0.0614750000000000 0.0614750000000000
0.2460500000000000 0.0614750000000000 0.5614749999999999
0.2460500000000000 0.5614749999999999 0.0614750000000000
0.2460500000000000 0.5614749999999999 0.5614749999999999
0.7460500000000000 0.0614750000000000 0.0614750000000000
0.7460500000000000 0.0614750000000000 0.5614749999999999
0.7460500000000000 0.5614749999999999 0.0614750000000000
0.7460500000000000 0.5614749999999999 0.5614749999999999
0.3004300000000000 0.0657450000000000 0.0937500000000000
0.3004300000000000 0.0657450000000000 0.5937500000000000
0.3004300000000000 0.5657449999999999 0.0937500000000000
0.3004300000000000 0.5657449999999999 0.5937500000000000
0.8004299999999999 0.0657450000000000 0.0937500000000000
0.8004299999999999 0.0657450000000000 0.5937500000000000
0.8004299999999999 0.5657449999999999 0.0937500000000000
0.8004299999999999 0.5657449999999999 0.5937500000000000
0.3205499999999999 0.0611500000000000 0.1117000000000000
0.3205499999999999 0.0611500000000000 0.6117000000000000
0.3205499999999999 0.5611500000000000 0.1117000000000000
0.3205499999999999 0.5611500000000000 0.6117000000000000
0.8205499999999999 0.0611500000000000 0.1117000000000000
0.8205499999999999 0.0611500000000000 0.6117000000000000
0.8205499999999999 0.5611500000000000 0.1117000000000000
0.8205499999999999 0.5611500000000000 0.6117000000000000
0.2658400000000000 0.0451350000000000 0.0913900000000000
0.2658400000000000 0.0451350000000000 0.5913900000000000
0.2658400000000000 0.5451350000000000 0.0913900000000000
0.2658400000000000 0.5451350000000000 0.5913900000000000
0.7658400000000001 0.0451350000000000 0.0913900000000000
0.7658400000000001 0.0451350000000000 0.5913900000000000
0.7658400000000001 0.5451350000000000 0.0913900000000000
0.7658400000000001 0.5451350000000000 0.5913900000000000
0.0614750000000000 0.2539500000000001 0.4385250000000000
0.0614750000000000 0.2539500000000000 0.9385250000000001
0.0614750000000000 0.7539500000000000 0.4385250000000000
0.0614750000000000 0.7539500000000000 0.9385250000000001
0.5614749999999999 0.2539500000000001 0.4385250000000000
0.5614749999999999 0.2539500000000000 0.9385250000000001
0.5614749999999999 0.7539500000000000 0.4385250000000000
0.5614749999999999 0.7539500000000000 0.9385250000000001
0.0657450000000000 0.1995699999999999 0.4062499999999998
0.0657450000000000 0.1995699999999999 0.9062499999999999
0.0657450000000000 0.6995700000000000 0.4062499999999998
0.0657450000000000 0.6995700000000001 0.9062499999999999
0.5657449999999999 0.1995699999999999 0.4062499999999998
0.5657450000000001 0.1995699999999999 0.9062499999999999
0.5657449999999999 0.6995700000000000 0.4062499999999998
0.5657450000000001 0.6995700000000001 0.9062499999999999
0.0611500000000000 0.1794500000000000 0.3883000000000000
0.0611500000000000 0.1794500000000000 0.8883000000000000
0.0611500000000000 0.6794499999999999 0.3883000000000000
0.0611500000000000 0.6794500000000000 0.8883000000000000
0.5611500000000000 0.1794500000000000 0.3883000000000000
0.5611500000000001 0.1794500000000000 0.8883000000000000
0.5611500000000000 0.6794499999999999 0.3883000000000000
0.5611500000000001 0.6794500000000000 0.8883000000000000
0.0469500000000000 0.2927499999999999 0.4530500000000000
0.0469500000000000 0.2927499999999998 0.9530500000000000
0.0469500000000000 0.7927499999999998 0.4530500000000000
0.0469500000000000 0.7927499999999998 0.9530500000000000
0.5469499999999999 0.2927499999999999 0.4530500000000000
0.5469499999999999 0.2927499999999998 0.9530500000000000
0.5469499999999999 0.7927499999999998 0.4530500000000000
0.5469499999999999 0.7927499999999998 0.9530500000000000
0.0451350000000000 0.2341600000000000 0.4086100000000000
0.0451350000000000 0.2341600000000000 0.9086099999999999
0.0451350000000000 0.7341600000000000 0.4086100000000000
0.0451350000000000 0.7341600000000000 0.9086099999999999
0.5451350000000000 0.2341600000000000 0.4086100000000000
0.5451350000000000 0.2341600000000000 0.9086099999999999
0.5451350000000000 0.7341600000000000 0.4086100000000000
0.5451350000000000 0.7341600000000000 0.9086099999999999
0.2539500000000001 0.4385250000000000 0.0614750000000000
0.2539500000000001 0.4385250000000000 0.5614749999999999
0.2539500000000000 0.9385250000000001 0.0614750000000000
0.2539500000000000 0.9385250000000001 0.5614749999999999
0.7539500000000000 0.4385250000000000 0.0614750000000000
0.7539500000000000 0.4385250000000000 0.5614749999999999
0.7539500000000000 0.9385250000000001 0.0614750000000000
0.7539500000000000 0.9385250000000001 0.5614749999999999
0.1995699999999999 0.4342550000000000 0.0937500000000000
0.1995699999999999 0.4342550000000000 0.5937500000000000
0.1995699999999999 0.9342550000000001 0.0937500000000000
0.1995699999999999 0.9342550000000001 0.5937500000000000
0.6995700000000000 0.4342550000000000 0.0937500000000000
0.6995700000000000 0.4342550000000000 0.5937500000000000
0.6995700000000000 0.9342550000000001 0.0937500000000000
0.6995700000000000 0.9342550000000001 0.5937500000000000
0.1794500000000000 0.4388499999999999 0.1117000000000000
0.1794500000000000 0.4388499999999999 0.6117000000000000
0.1794500000000000 0.9388500000000000 0.1117000000000000
0.1794500000000000 0.9388500000000000 0.6117000000000000
0.6794499999999999 0.4388499999999999 0.1117000000000000
0.6794499999999999 0.4388499999999999 0.6117000000000000
0.6794499999999999 0.9388500000000000 0.1117000000000000
0.6794499999999999 0.9388500000000000 0.6117000000000000
0.2927499999999999 0.4530500000000000 0.0469500000000000
0.2927499999999999 0.4530500000000000 0.5469499999999999
0.2927499999999998 0.9530500000000000 0.0469500000000000
0.2927499999999998 0.9530500000000000 0.5469499999999999
0.7927499999999998 0.4530500000000000 0.0469500000000000
0.7927499999999998 0.4530500000000000 0.5469499999999999
0.7927499999999998 0.9530500000000000 0.0469500000000000
0.7927499999999998 0.9530500000000000 0.5469499999999999
0.2341600000000000 0.4548650000000000 0.0913900000000000
0.2341600000000000 0.4548649999999999 0.5913900000000000
0.2341600000000000 0.9548650000000001 0.0913900000000000
0.2341600000000000 0.9548650000000001 0.5913900000000000
0.7341600000000000 0.4548650000000000 0.0913900000000000
0.7341600000000000 0.4548649999999999 0.5913900000000000
0.7341600000000000 0.9548650000000001 0.0913900000000000
0.7341600000000000 0.9548650000000001 0.5913900000000000
0.0614750000000000 0.4385250000000000 0.2539500000000000
0.0614750000000000 0.4385250000000000 0.7539500000000000
0.0614750000000000 0.9385250000000001 0.2539500000000000
0.0614750000000000 0.9385250000000001 0.7539500000000000
0.5614749999999999 0.4385250000000000 0.2539500000000000
0.5614749999999999 0.4385250000000000 0.7539500000000000
0.5614749999999999 0.9385250000000001 0.2539500000000000
0.5614749999999999 0.9385250000000001 0.7539500000000000
0.0937500000000000 0.4342550000000000 0.1995700000000000
0.0937500000000000 0.4342550000000000 0.6995700000000000
0.0937500000000000 0.9342550000000001 0.1995700000000000
0.0937500000000000 0.9342550000000001 0.6995700000000000
0.5937500000000000 0.4342550000000000 0.1995700000000000
0.5937500000000000 0.4342550000000000 0.6995700000000000
0.5937500000000000 0.9342550000000001 0.1995700000000000
0.5937500000000000 0.9342550000000001 0.6995700000000000
0.1117000000000000 0.4388499999999999 0.1794500000000000
0.1117000000000000 0.4388499999999999 0.6794499999999999
0.1117000000000000 0.9388500000000000 0.1794500000000000
0.1117000000000000 0.9388500000000000 0.6794499999999999
0.6117000000000000 0.4388499999999999 0.1794500000000000
0.6117000000000000 0.4388499999999999 0.6794499999999999
0.6117000000000000 0.9388500000000000 0.1794500000000000
0.6117000000000000 0.9388500000000000 0.6794499999999999
0.0913900000000000 0.4548650000000000 0.2341600000000000
0.0913900000000000 0.4548649999999999 0.7341600000000000
0.0913900000000000 0.9548650000000001 0.2341600000000000
0.0913900000000000 0.9548650000000001 0.7341600000000000
0.5913900000000000 0.4548650000000000 0.2341600000000000
0.5913900000000000 0.4548649999999999 0.7341600000000000
0.5913900000000000 0.9548650000000001 0.2341600000000000
0.5913900000000000 0.9548650000000001 0.7341600000000000
0.4385250000000001 0.4385250000000000 0.2460500000000000
0.4385250000000001 0.4385250000000000 0.7460500000000000
0.4385250000000000 0.9385250000000001 0.2460500000000000
0.4385250000000000 0.9385250000000001 0.7460500000000000
0.9385250000000001 0.4385250000000000 0.2460500000000000
0.9385250000000001 0.4385250000000000 0.7460500000000000
0.9385250000000001 0.9385250000000001 0.2460500000000000
0.9385250000000001 0.9385250000000001 0.7460500000000000
0.4342550000000000 0.4062499999999998 0.3004300000000000
0.4342550000000000 0.4062499999999998 0.8004299999999999
0.4342550000000000 0.9062499999999999 0.3004300000000000
0.4342550000000000 0.9062499999999999 0.8004299999999999
0.9342550000000001 0.4062499999999998 0.3004300000000000
0.9342550000000001 0.4062499999999998 0.8004299999999999
0.9342550000000002 0.9062499999999999 0.3004300000000000
0.9342550000000002 0.9062499999999999 0.8004299999999999
0.4388499999999999 0.3883000000000000 0.3205499999999999
0.4388499999999999 0.3883000000000000 0.8205499999999999
0.4388499999999999 0.8883000000000000 0.3205499999999999
0.4388499999999999 0.8883000000000000 0.8205499999999999
0.9388500000000000 0.3883000000000000 0.3205499999999999
0.9388500000000000 0.3883000000000000 0.8205499999999999
0.9388500000000000 0.8883000000000000 0.3205499999999999
0.9388500000000000 0.8883000000000000 0.8205499999999999
0.4548650000000000 0.4086100000000000 0.2658400000000000
0.4548649999999999 0.4086100000000000 0.7658400000000001
0.4548649999999999 0.9086099999999999 0.2658400000000000
0.4548649999999999 0.9086099999999999 0.7658400000000001
0.9548650000000001 0.4086100000000000 0.2658400000000000
0.9548650000000001 0.4086100000000000 0.7658400000000001
0.9548650000000000 0.9086099999999999 0.2658400000000000
0.9548650000000000 0.9086099999999999 0.7658400000000001
0.4385250000000000 0.0614750000000000 0.2539500000000000
0.4385250000000000 0.0614750000000000 0.7539500000000000
0.4385250000000000 0.5614749999999999 0.2539500000000000
0.4385250000000000 0.5614749999999999 0.7539500000000000
0.9385250000000001 0.0614750000000000 0.2539500000000000
0.9385250000000001 0.0614750000000000 0.7539500000000000
0.9385250000000001 0.5614749999999999 0.2539500000000000
0.9385250000000001 0.5614749999999999 0.7539500000000000
0.4062499999999998 0.0657450000000000 0.1995700000000000
0.4062499999999998 0.0657450000000000 0.6995700000000000
0.4062499999999998 0.5657449999999999 0.1995700000000000
0.4062499999999998 0.5657449999999999 0.6995700000000000
0.9062499999999999 0.0657450000000000 0.1995700000000000
0.9062499999999999 0.0657450000000000 0.6995700000000000
0.9062499999999999 0.5657449999999999 0.1995700000000000
0.9062499999999999 0.5657449999999999 0.6995700000000000
0.3883000000000000 0.0611500000000000 0.1794500000000000
0.3883000000000000 0.0611500000000000 0.6794499999999999
0.3883000000000000 0.5611500000000000 0.1794500000000000
0.3883000000000000 0.5611500000000000 0.6794499999999999
0.8883000000000000 0.0611500000000000 0.1794500000000000
0.8883000000000000 0.0611500000000000 0.6794499999999999
0.8883000000000000 0.5611500000000000 0.1794500000000000
0.8883000000000000 0.5611500000000000 0.6794499999999999
0.4530500000000000 0.0469500000000000 0.2927499999999998
0.4530500000000000 0.0469500000000000 0.7927499999999998
0.4530500000000000 0.5469499999999999 0.2927499999999998
0.4530500000000000 0.5469499999999999 0.7927499999999998
0.9530500000000000 0.0469500000000000 0.2927499999999998
0.9530500000000000 0.0469500000000000 0.7927499999999998
0.9530500000000000 0.5469499999999999 0.2927499999999998
0.9530500000000000 0.5469499999999999 0.7927499999999998
0.4086100000000000 0.0451350000000000 0.2341600000000000
0.4086100000000000 0.0451350000000000 0.7341600000000000
0.4086100000000000 0.5451350000000000 0.2341600000000000
0.4086100000000000 0.5451350000000000 0.7341600000000000
0.9086099999999999 0.0451350000000000 0.2341600000000000
0.9086099999999999 0.0451350000000000 0.7341600000000000
0.9086099999999999 0.5451350000000000 0.2341600000000000
0.9086099999999999 0.5451350000000000 0.7341600000000000
0.0614750000000000 0.0614750000000000 0.2460500000000000
0.0614750000000000 0.0614750000000000 0.7460500000000000
0.0614750000000000 0.5614749999999999 0.2460500000000000
0.0614750000000000 0.5614749999999999 0.7460500000000000
0.5614749999999999 0.0614750000000000 0.2460500000000000
0.5614749999999999 0.0614750000000000 0.7460500000000000
0.5614749999999999 0.5614749999999999 0.2460500000000000
0.5614749999999999 0.5614749999999999 0.7460500000000000
0.0657450000000000 0.0937500000000000 0.3004300000000000
0.0657450000000000 0.0937500000000000 0.8004299999999999
0.0657450000000000 0.5937500000000000 0.3004300000000000
0.0657450000000000 0.5937500000000000 0.8004299999999999
0.5657449999999999 0.0937500000000000 0.3004300000000000
0.5657449999999999 0.0937500000000000 0.8004299999999999
0.5657449999999999 0.5937500000000000 0.3004300000000000
0.5657449999999999 0.5937500000000000 0.8004299999999999
0.0611500000000000 0.1117000000000000 0.3205499999999999
0.0611500000000000 0.1117000000000000 0.8205499999999999
0.0611500000000000 0.6117000000000000 0.3205499999999999
0.0611500000000000 0.6117000000000000 0.8205499999999999
0.5611500000000000 0.1117000000000000 0.3205499999999999
0.5611500000000000 0.1117000000000000 0.8205499999999999
0.5611500000000000 0.6117000000000000 0.3205499999999999
0.5611500000000000 0.6117000000000000 0.8205499999999999
0.0469500000000000 0.0469500000000000 0.2072500000000000
0.0469500000000000 0.0469500000000000 0.7072499999999999
0.0469500000000000 0.5469499999999999 0.2072500000000000
0.0469500000000000 0.5469499999999999 0.7072499999999999
0.5469499999999999 0.0469500000000000 0.2072500000000000
0.5469499999999999 0.0469500000000000 0.7072499999999999
0.5469499999999999 0.5469499999999999 0.2072500000000000
0.5469499999999999 0.5469499999999999 0.7072499999999999
0.0206500000000000 0.0371500000000000 0.2101000000000000
0.0206500000000000 0.0371500000000000 0.7101000000000000
0.0206500000000000 0.5371500000000000 0.2101000000000000
0.0206500000000000 0.5371500000000000 0.7101000000000000
0.5206500000000001 0.0371500000000000 0.2101000000000000
0.5206500000000001 0.0371500000000000 0.7101000000000000
0.5206500000000001 0.5371500000000000 0.2101000000000000
0.5206500000000001 0.5371500000000000 0.7101000000000000
0.0471000000000000 0.0682000000000000 0.1886000000000000
0.0471000000000000 0.0682000000000000 0.6886000000000000
0.0471000000000000 0.5681999999999999 0.1886000000000000
0.0471000000000000 0.5681999999999999 0.6886000000000000
0.5471000000000000 0.0682000000000000 0.1886000000000000
0.5471000000000000 0.0682000000000000 0.6886000000000000
0.5471000000000000 0.5681999999999999 0.1886000000000000
0.5471000000000000 0.5681999999999999 0.6886000000000000
0.0638000000000000 0.0262500000000000 0.1980500000000000
0.0638000000000000 0.0262500000000000 0.6980500000000001
0.0638000000000000 0.5262500000000000 0.1980500000000000
0.0638000000000000 0.5262500000000000 0.6980500000000001
0.5638000000000000 0.0262500000000000 0.1980500000000000
0.5638000000000000 0.0262500000000000 0.6980500000000001
0.5638000000000000 0.5262500000000000 0.1980500000000000
0.5638000000000000 0.5262500000000000 0.6980500000000001
0.0451350000000000 0.0913900000000000 0.2658400000000000
0.0451350000000000 0.0913900000000000 0.7658400000000001
0.0451350000000000 0.5913900000000000 0.2658400000000000
0.0451350000000000 0.5913900000000000 0.7658400000000001
0.5451350000000000 0.0913900000000000 0.2658400000000000
0.5451350000000000 0.0913900000000000 0.7658400000000001
0.5451350000000000 0.5913900000000000 0.2658400000000000
0.5451350000000000 0.5913900000000000 0.7658400000000001
0.0937500000000000 0.0657450000000000 0.3004300000000000
0.0937500000000000 0.0657450000000000 0.8004299999999999
0.0937500000000000 0.5657449999999999 0.3004300000000000
0.0937500000000000 0.5657449999999999 0.8004299999999999
0.5937500000000000 0.0657450000000000 0.3004300000000000
0.5937500000000000 0.0657450000000000 0.8004299999999999
0.5937500000000000 0.5657449999999999 0.3004300000000000
0.5937500000000000 0.5657449999999999 0.8004299999999999
0.1117000000000000 0.0611500000000000 0.3205499999999999
0.1117000000000000 0.0611500000000000 0.8205499999999999
0.1117000000000000 0.5611500000000000 0.3205499999999999
0.1117000000000000 0.5611500000000000 0.8205499999999999
0.6117000000000000 0.0611500000000000 0.3205499999999999
0.6117000000000000 0.0611500000000000 0.8205499999999999
0.6117000000000000 0.5611500000000000 0.3205499999999999
0.6117000000000000 0.5611500000000000 0.8205499999999999
0.0913900000000000 0.0451350000000000 0.2658400000000000
0.0913900000000000 0.0451350000000000 0.7658400000000001
0.0913900000000000 0.5451350000000000 0.2658400000000000
0.0913900000000000 0.5451350000000000 0.7658400000000001
0.5913900000000000 0.0451350000000000 0.2658400000000000
0.5913900000000000 0.0451350000000000 0.7658400000000001
0.5913900000000000 0.5451350000000000 0.2658400000000000
0.5913900000000000 0.5451350000000000 0.7658400000000001
0.0657450000000000 0.4062499999999998 0.1995700000000000
0.0657450000000000 0.4062499999999998 0.6995700000000000
0.0657450000000000 0.9062499999999999 0.1995700000000000
0.0657450000000000 0.9062499999999999 0.6995700000000000
0.5657449999999999 0.4062499999999998 0.1995700000000000
0.5657449999999999 0.4062499999999998 0.6995700000000000
0.5657450000000001 0.9062499999999999 0.1995700000000000
0.5657450000000001 0.9062499999999999 0.6995700000000000
0.0611500000000000 0.3883000000000000 0.1794500000000000
0.0611500000000000 0.3883000000000000 0.6794499999999999
0.0611500000000000 0.8883000000000000 0.1794500000000000
0.0611500000000000 0.8883000000000000 0.6794499999999999
0.5611500000000000 0.3883000000000000 0.1794500000000000
0.5611500000000000 0.3883000000000000 0.6794499999999999
0.5611500000000001 0.8883000000000000 0.1794500000000000
0.5611500000000001 0.8883000000000000 0.6794499999999999
0.0451350000000000 0.4086100000000000 0.2341600000000000
0.0451350000000000 0.4086100000000000 0.7341600000000000
0.0451350000000000 0.9086099999999999 0.2341600000000000
0.0451350000000000 0.9086099999999999 0.7341600000000000
0.5451350000000000 0.4086100000000000 0.2341600000000000
0.5451350000000000 0.4086100000000000 0.7341600000000000
0.5451350000000000 0.9086099999999999 0.2341600000000000
0.5451350000000000 0.9086099999999999 0.7341600000000000
0.4062499999999999 0.4342550000000000 0.3004300000000000
0.4062499999999999 0.4342550000000000 0.8004299999999999
0.4062499999999998 0.9342550000000001 0.3004300000000000
0.4062499999999998 0.9342550000000001 0.8004299999999999
0.9062499999999999 0.4342550000000000 0.3004300000000000
0.9062499999999999 0.4342550000000000 0.8004299999999999
0.9062499999999998 0.9342550000000001 0.3004300000000000
0.9062499999999998 0.9342550000000001 0.8004299999999999
0.3883000000000000 0.4388499999999999 0.3205499999999999
0.3883000000000000 0.4388499999999999 0.8205499999999999
0.3883000000000000 0.9388500000000000 0.3205499999999999
0.3883000000000000 0.9388500000000000 0.8205499999999999
0.8883000000000000 0.4388499999999999 0.3205499999999999
0.8883000000000000 0.4388499999999999 0.8205499999999999
0.8883000000000000 0.9388500000000000 0.3205499999999999
0.8883000000000000 0.9388500000000000 0.8205499999999999
0.4086100000000000 0.4548650000000000 0.2658400000000000
0.4086100000000000 0.4548649999999999 0.7658400000000001
0.4086100000000000 0.9548650000000001 0.2658400000000000
0.4086100000000000 0.9548650000000001 0.7658400000000001
0.9086099999999999 0.4548650000000000 0.2658400000000000
0.9086099999999999 0.4548649999999999 0.7658400000000001
0.9086099999999999 0.9548650000000001 0.2658400000000000
0.9086099999999999 0.9548650000000001 0.7658400000000001
0.4342550000000000 0.0937500000000000 0.1995700000000000
0.4342550000000000 0.0937500000000000 0.6995700000000000
0.4342550000000000 0.5937500000000000 0.1995700000000000
0.4342550000000000 0.5937500000000000 0.6995700000000000
0.9342550000000001 0.0937500000000000 0.1995700000000000
0.9342550000000001 0.0937500000000000 0.6995700000000000
0.9342550000000001 0.5937500000000000 0.1995700000000000
0.9342550000000001 0.5937500000000000 0.6995700000000000
0.4388499999999999 0.1117000000000000 0.1794500000000000
0.4388499999999999 0.1117000000000000 0.6794499999999999
0.4388499999999999 0.6117000000000000 0.1794500000000000
0.4388499999999999 0.6117000000000000 0.6794499999999999
0.9388500000000000 0.1117000000000000 0.1794500000000000
0.9388500000000000 0.1117000000000000 0.6794499999999999
0.9388500000000000 0.6117000000000000 0.1794500000000000
0.9388500000000000 0.6117000000000000 0.6794499999999999
0.4793500000000000 0.0371500000000000 0.2898999999999998
0.4793499999999999 0.0371500000000000 0.7898999999999998
0.4793499999999999 0.5371500000000000 0.2898999999999998
0.4793499999999999 0.5371500000000000 0.7898999999999998
0.9793499999999999 0.0371500000000000 0.2898999999999998
0.9793499999999999 0.0371500000000000 0.7898999999999998
0.9793499999999999 0.5371500000000000 0.2898999999999998
0.9793499999999999 0.5371500000000000 0.7898999999999998
0.4529000000000000 0.0682000000000000 0.3114000000000000
0.4529000000000000 0.0682000000000000 0.8114000000000000
0.4529000000000000 0.5681999999999999 0.3114000000000000
0.4529000000000000 0.5681999999999999 0.8114000000000000
0.9529000000000001 0.0682000000000000 0.3114000000000000
0.9529000000000001 0.0682000000000000 0.8114000000000000
0.9529000000000001 0.5681999999999999 0.3114000000000000
0.9529000000000001 0.5681999999999999 0.8114000000000000
0.4362000000000000 0.0262500000000000 0.3019500000000000
0.4362000000000000 0.0262500000000000 0.8019499999999999
0.4362000000000000 0.5262500000000000 0.3019500000000000
0.4362000000000000 0.5262500000000000 0.8019499999999999
0.9361999999999999 0.0262500000000000 0.3019500000000000
0.9361999999999999 0.0262500000000000 0.8019499999999999
0.9361999999999999 0.5262500000000000 0.3019500000000000
0.9361999999999999 0.5262500000000000 0.8019499999999999
0.4548650000000000 0.0913900000000000 0.2341600000000000
0.4548649999999999 0.0913900000000000 0.7341600000000000
0.4548649999999999 0.5913900000000000 0.2341600000000000
0.4548649999999999 0.5913900000000000 0.7341600000000000
0.9548650000000001 0.0913900000000000 0.2341600000000000
0.9548650000000001 0.0913900000000000 0.7341600000000000
0.9548650000000001 0.5913900000000000 0.2341600000000000
0.9548650000000001 0.5913900000000000 0.7341600000000000
0.1995699999999999 0.0937500000000000 0.4342550000000000
0.1995699999999999 0.0937500000000000 0.9342550000000001
0.1995699999999999 0.5937500000000000 0.4342550000000000
0.1995699999999999 0.5937500000000000 0.9342550000000001
0.6995700000000000 0.0937500000000000 0.4342550000000000
0.6995700000000000 0.0937500000000000 0.9342550000000001
0.6995700000000000 0.5937500000000000 0.4342550000000000
0.6995700000000000 0.5937500000000000 0.9342550000000001
0.1794500000000000 0.1117000000000000 0.4388499999999999
0.1794500000000000 0.1117000000000000 0.9388500000000000
0.1794500000000000 0.6117000000000000 0.4388499999999999
0.1794500000000000 0.6117000000000000 0.9388500000000000
0.6794499999999999 0.1117000000000000 0.4388499999999999
0.6794499999999999 0.1117000000000000 0.9388500000000000
0.6794499999999999 0.6117000000000000 0.4388499999999999
0.6794499999999999 0.6117000000000000 0.9388500000000000
0.2898999999999998 0.0371500000000000 0.4793500000000000
0.2898999999999998 0.0371500000000000 0.9793499999999999
0.2898999999999998 0.5371500000000000 0.4793500000000000
0.2898999999999998 0.5371499999999999 0.9793499999999999
0.7898999999999998 0.0371500000000000 0.4793500000000000
0.7898999999999998 0.0371500000000000 0.9793499999999999
0.7898999999999998 0.5371500000000000 0.4793500000000000
0.7898999999999998 0.5371499999999999 0.9793499999999999
0.3114000000000001 0.0682000000000000 0.4529000000000000
0.3114000000000000 0.0682000000000000 0.9529000000000001
0.3114000000000001 0.5681999999999999 0.4529000000000000
0.3114000000000000 0.5681999999999999 0.9529000000000001
0.8114000000000000 0.0682000000000000 0.4529000000000000
0.8114000000000000 0.0682000000000000 0.9529000000000001
0.8114000000000000 0.5681999999999999 0.4529000000000000
0.8114000000000000 0.5681999999999999 0.9529000000000001
0.3019500000000001 0.0262500000000000 0.4362000000000000
0.3019500000000000 0.0262500000000000 0.9361999999999999
0.3019500000000001 0.5262500000000000 0.4362000000000000
0.3019500000000000 0.5262500000000000 0.9361999999999999
0.8019499999999999 0.0262500000000000 0.4362000000000000
0.8019499999999999 0.0262500000000000 0.9361999999999999
0.8019499999999999 0.5262500000000000 0.4362000000000000
0.8019499999999999 0.5262500000000000 0.9361999999999999
0.2341600000000000 0.0913900000000000 0.4548650000000000
0.2341600000000000 0.0913900000000000 0.9548650000000001
0.2341600000000000 0.5913900000000000 0.4548650000000000
0.2341600000000000 0.5913900000000000 0.9548650000000001
0.7341600000000000 0.0913900000000000 0.4548650000000000
0.7341600000000000 0.0913900000000000 0.9548650000000001
0.7341600000000000 0.5913900000000000 0.4548650000000000
0.7341600000000000 0.5913900000000000 0.9548650000000001
0.1995699999999999 0.4062499999999998 0.0657450000000000
0.1995699999999999 0.4062499999999998 0.5657449999999999
0.1995699999999999 0.9062499999999999 0.0657450000000000
0.1995699999999999 0.9062499999999999 0.5657449999999999
0.6995700000000000 0.4062499999999998 0.0657450000000000
0.6995700000000000 0.4062499999999998 0.5657449999999999
0.6995700000000001 0.9062499999999999 0.0657450000000000
0.6995700000000001 0.9062499999999999 0.5657449999999999
0.1794500000000000 0.3883000000000000 0.0611500000000000
0.1794500000000000 0.3883000000000000 0.5611500000000000
0.1794500000000000 0.8883000000000000 0.0611500000000000
0.1794500000000000 0.8883000000000000 0.5611500000000000
0.6794499999999999 0.3883000000000000 0.0611500000000000
0.6794499999999999 0.3883000000000000 0.5611500000000000
0.6794500000000000 0.8883000000000000 0.0611500000000000
0.6794500000000000 0.8883000000000000 0.5611500000000000
0.2898999999999998 0.4628499999999998 0.0206500000000000
0.2898999999999998 0.4628499999999998 0.5206500000000001
0.2898999999999998 0.9628499999999999 0.0206500000000000
0.2898999999999998 0.9628499999999999 0.5206500000000001
0.7898999999999998 0.4628499999999998 0.0206500000000000
0.7898999999999998 0.4628499999999998 0.5206500000000001
0.7898999999999998 0.9628499999999999 0.0206500000000000
0.7898999999999998 0.9628499999999999 0.5206500000000001
0.3114000000000001 0.4318000000000000 0.0471000000000000
0.3114000000000001 0.4318000000000000 0.5471000000000000
0.3114000000000000 0.9318000000000000 0.0471000000000000
0.3114000000000000 0.9318000000000000 0.5471000000000000
0.8114000000000000 0.4318000000000000 0.0471000000000000
0.8114000000000000 0.4318000000000000 0.5471000000000000
0.8114000000000000 0.9318000000000000 0.0471000000000000
0.8114000000000000 0.9318000000000000 0.5471000000000000
0.3019500000000000 0.4737499999999999 0.0638000000000000
0.3019500000000000 0.4737499999999999 0.5638000000000000
0.3019500000000000 0.9737499999999998 0.0638000000000000
0.3019500000000000 0.9737499999999998 0.5638000000000000
0.8019499999999999 0.4737499999999999 0.0638000000000000
0.8019499999999999 0.4737499999999999 0.5638000000000000
0.8019499999999999 0.9737499999999998 0.0638000000000000
0.8019499999999999 0.9737499999999998 0.5638000000000000
0.2341600000000000 0.4086100000000000 0.0451350000000000
0.2341600000000000 0.4086100000000000 0.5451350000000000
0.2341600000000000 0.9086099999999999 0.0451350000000000
0.2341600000000000 0.9086099999999999 0.5451350000000000
0.7341600000000000 0.4086100000000000 0.0451350000000000
0.7341600000000000 0.4086100000000000 0.5451350000000000
0.7341600000000000 0.9086099999999999 0.0451350000000000
0.7341600000000000 0.9086099999999999 0.5451350000000000
0.4062499999999999 0.3004300000000000 0.4342550000000000
0.4062499999999998 0.3004300000000000 0.9342550000000001
0.4062499999999999 0.8004299999999999 0.4342550000000000
0.4062499999999998 0.8004299999999999 0.9342550000000001
0.9062499999999999 0.3004300000000000 0.4342550000000000
0.9062499999999998 0.3004300000000000 0.9342550000000001
0.9062499999999999 0.8004299999999999 0.4342550000000000
0.9062499999999998 0.8004299999999999 0.9342550000000001
0.3883000000000000 0.3205499999999999 0.4388499999999999
0.3883000000000000 0.3205499999999999 0.9388500000000000
0.3883000000000000 0.8205499999999999 0.4388499999999999
0.3883000000000000 0.8205499999999999 0.9388500000000000
0.8883000000000000 0.3205499999999999 0.4388499999999999
0.8883000000000000 0.3205499999999999 0.9388500000000000
0.8883000000000000 0.8205499999999999 0.4388499999999999
0.8883000000000000 0.8205499999999999 0.9388500000000000
0.4086100000000000 0.2658400000000000 0.4548650000000000
0.4086100000000000 0.2658400000000000 0.9548650000000001
0.4086100000000000 0.7658400000000001 0.4548650000000000
0.4086100000000000 0.7658400000000001 0.9548650000000001
0.9086099999999999 0.2658400000000000 0.4548650000000000
0.9086099999999999 0.2658400000000000 0.9548650000000001
0.9086099999999999 0.7658400000000001 0.4548650000000000
0.9086099999999999 0.7658400000000001 0.9548650000000001
0.3004300000000000 0.0937500000000000 0.0657450000000000
0.3004300000000000 0.0937500000000000 0.5657449999999999
0.3004300000000000 0.5937500000000000 0.0657450000000000
0.3004300000000000 0.5937500000000000 0.5657449999999999
0.8004299999999999 0.0937500000000000 0.0657450000000000
0.8004299999999999 0.0937500000000000 0.5657449999999999
0.8004299999999999 0.5937500000000000 0.0657450000000000
0.8004299999999999 0.5937500000000000 0.5657449999999999
0.3205499999999999 0.1117000000000000 0.0611500000000000
0.3205499999999999 0.1117000000000000 0.5611500000000000
0.3205499999999999 0.6117000000000000 0.0611500000000000
0.3205499999999999 0.6117000000000000 0.5611500000000000
0.8205499999999999 0.1117000000000000 0.0611500000000000
0.8205499999999999 0.1117000000000000 0.5611500000000000
0.8205499999999999 0.6117000000000000 0.0611500000000000
0.8205499999999999 0.6117000000000000 0.5611500000000000
0.2658400000000000 0.0913900000000000 0.0451350000000000
0.2658400000000000 0.0913900000000000 0.5451350000000000
0.2658400000000000 0.5913900000000000 0.0451350000000000
0.2658400000000000 0.5913900000000000 0.5451350000000000
0.7658400000000001 0.0913900000000000 0.0451350000000000
0.7658400000000001 0.0913900000000000 0.5451350000000000
0.7658400000000001 0.5913900000000000 0.0451350000000000
0.7658400000000001 0.5913900000000000 0.5451350000000000
0.0937500000000000 0.1995699999999999 0.4342550000000000
0.0937500000000000 0.1995699999999999 0.9342550000000001
0.0937500000000000 0.6995700000000000 0.4342550000000000
0.0937500000000000 0.6995700000000000 0.9342550000000001
0.5937500000000000 0.1995699999999999 0.4342550000000000
0.5937500000000000 0.1995699999999999 0.9342550000000001
0.5937500000000000 0.6995700000000000 0.4342550000000000
0.5937500000000000 0.6995700000000000 0.9342550000000001
0.1117000000000000 0.1794500000000000 0.4388499999999999
0.1117000000000000 0.1794500000000000 0.9388500000000000
0.1117000000000000 0.6794499999999999 0.4388499999999999
0.1117000000000000 0.6794499999999999 0.9388500000000000
0.6117000000000000 0.1794500000000000 0.4388499999999999
0.6117000000000000 0.1794500000000000 0.9388500000000000
0.6117000000000000 0.6794499999999999 0.4388499999999999
0.6117000000000000 0.6794499999999999 0.9388500000000000
0.0371500000000000 0.2898999999999998 0.4793500000000000
0.0371500000000000 0.2898999999999998 0.9793499999999999
0.0371500000000000 0.7898999999999998 0.4793500000000000
0.0371500000000000 0.7898999999999998 0.9793499999999999
0.5371500000000000 0.2898999999999998 0.4793500000000000
0.5371499999999999 0.2898999999999998 0.9793499999999999
0.5371500000000000 0.7898999999999998 0.4793500000000000
0.5371499999999999 0.7898999999999998 0.9793499999999999
0.0682000000000000 0.3114000000000001 0.4529000000000000
0.0682000000000000 0.3114000000000000 0.9529000000000001
0.0682000000000000 0.8114000000000000 0.4529000000000000
0.0682000000000000 0.8114000000000000 0.9529000000000001
0.5681999999999999 0.3114000000000001 0.4529000000000000
0.5681999999999999 0.3114000000000000 0.9529000000000001
0.5681999999999999 0.8114000000000000 0.4529000000000000
0.5681999999999999 0.8114000000000000 0.9529000000000001
0.0262500000000000 0.3019500000000001 0.4362000000000000
0.0262500000000000 0.3019500000000000 0.9361999999999999
0.0262500000000000 0.8019499999999999 0.4362000000000000
0.0262500000000000 0.8019499999999999 0.9361999999999999
0.5262500000000000 0.3019500000000001 0.4362000000000000
0.5262500000000000 0.3019500000000000 0.9361999999999999
0.5262500000000000 0.8019499999999999 0.4362000000000000
0.5262500000000000 0.8019499999999999 0.9361999999999999
0.0913900000000000 0.2341600000000000 0.4548650000000000
0.0913900000000000 0.2341600000000000 0.9548650000000001
0.0913900000000000 0.7341600000000000 0.4548650000000000
0.0913900000000000 0.7341600000000000 0.9548650000000001
0.5913900000000000 0.2341600000000000 0.4548650000000000
0.5913900000000000 0.2341600000000000 0.9548650000000001
0.5913900000000000 0.7341600000000000 0.4548650000000000
0.5913900000000000 0.7341600000000000 0.9548650000000001
0.3004300000000000 0.4062499999999999 0.4342550000000000
0.3004300000000000 0.4062499999999998 0.9342550000000001
0.3004300000000000 0.9062499999999999 0.4342550000000000
0.3004300000000000 0.9062499999999998 0.9342550000000001
0.8004299999999999 0.4062499999999999 0.4342550000000000
0.8004299999999999 0.4062499999999998 0.9342550000000001
0.8004300000000000 0.9062499999999999 0.4342550000000000
0.8004300000000000 0.9062499999999998 0.9342550000000001
0.3205499999999999 0.3883000000000000 0.4388499999999999
0.3205499999999999 0.3883000000000000 0.9388500000000000
0.3205499999999999 0.8883000000000000 0.4388499999999999
0.3205499999999999 0.8883000000000000 0.9388500000000000
0.8205499999999999 0.3883000000000000 0.4388499999999999
0.8205499999999999 0.3883000000000000 0.9388500000000000
0.8205500000000000 0.8883000000000000 0.4388499999999999
0.8205500000000000 0.8883000000000000 0.9388500000000000
0.2658400000000000 0.4086100000000000 0.4548650000000000
0.2658400000000000 0.4086100000000000 0.9548650000000001
0.2658400000000000 0.9086099999999999 0.4548650000000000
0.2658400000000000 0.9086099999999999 0.9548650000000001
0.7658400000000001 0.4086100000000000 0.4548650000000000
0.7658400000000001 0.4086100000000000 0.9548650000000001
0.7658400000000001 0.9086099999999999 0.4548650000000000
0.7658400000000001 0.9086099999999999 0.9548650000000001
0.4062499999999998 0.1995700000000000 0.0657450000000000
0.4062499999999998 0.1995699999999999 0.5657449999999999
0.4062499999999998 0.6995700000000000 0.0657450000000000
0.4062499999999998 0.6995700000000000 0.5657449999999999
0.9062499999999999 0.1995700000000000 0.0657450000000000
0.9062499999999999 0.1995699999999999 0.5657449999999999
0.9062499999999999 0.6995700000000000 0.0657450000000000
0.9062499999999999 0.6995700000000000 0.5657449999999999
0.3883000000000000 0.1794500000000000 0.0611500000000000
0.3883000000000000 0.1794500000000000 0.5611500000000000
0.3883000000000000 0.6794499999999999 0.0611500000000000
0.3883000000000000 0.6794499999999999 0.5611500000000000
0.8883000000000000 0.1794500000000000 0.0611500000000000
0.8883000000000000 0.1794500000000000 0.5611500000000000
0.8883000000000000 0.6794499999999999 0.0611500000000000
0.8883000000000000 0.6794499999999999 0.5611500000000000
0.4086100000000000 0.2341600000000000 0.0451350000000000
0.4086100000000000 0.2341600000000000 0.5451350000000000
0.4086100000000000 0.7341600000000000 0.0451350000000000
0.4086100000000000 0.7341600000000000 0.5451350000000000
0.9086099999999999 0.2341600000000000 0.0451350000000000
0.9086099999999999 0.2341600000000000 0.5451350000000000
0.9086099999999999 0.7341600000000000 0.0451350000000000
0.9086099999999999 0.7341600000000000 0.5451350000000000
0.0937500000000000 0.3004300000000000 0.0657450000000000
0.0937500000000000 0.3004300000000000 0.5657449999999999
0.0937500000000000 0.8004299999999999 0.0657450000000000
0.0937500000000000 0.8004299999999999 0.5657449999999999
0.5937500000000000 0.3004300000000000 0.0657450000000000
0.5937500000000000 0.3004300000000000 0.5657449999999999
0.5937500000000000 0.8004299999999999 0.0657450000000000
0.5937500000000000 0.8004299999999999 0.5657449999999999
0.1117000000000000 0.3205499999999999 0.0611500000000000
0.1117000000000000 0.3205499999999999 0.5611500000000000
0.1117000000000000 0.8205499999999999 0.0611500000000000
0.1117000000000000 0.8205499999999999 0.5611500000000000
0.6117000000000000 0.3205499999999999 0.0611500000000000
0.6117000000000000 0.3205499999999999 0.5611500000000000
0.6117000000000000 0.8205499999999999 0.0611500000000000
0.6117000000000000 0.8205499999999999 0.5611500000000000
0.0913900000000000 0.2658400000000000 0.0451350000000000
0.0913900000000000 0.2658400000000000 0.5451350000000000
0.0913900000000000 0.7658400000000001 0.0451350000000000
0.0913900000000000 0.7658400000000001 0.5451350000000000
0.5913900000000000 0.2658400000000000 0.0451350000000000
0.5913900000000000 0.2658400000000000 0.5451350000000000
0.5913900000000000 0.7658400000000001 0.0451350000000000
0.5913900000000000 0.7658400000000001 0.5451350000000000
0.2041617980403626 0.0236305907931135 0.0240953456081968
0.2041617980403626 0.0236305907931135 0.5240953456081968
0.2041617980403626 0.5236305907931135 0.0240953456081968
0.2041617980403626 0.5236305907931135 0.5240953456081968
0.7041617980403625 0.0236305907931135 0.0240953456081968
0.7041617980403625 0.0236305907931135 0.5240953456081968
0.7041617980403625 0.5236305907931135 0.0240953456081968
0.7041617980403625 0.5236305907931135 0.5240953456081968
0.2075637952199844 0.0492851661887021 0.0496573018497881
0.2075637952199844 0.0492851661887021 0.5496573018497881
0.2075637952199844 0.5492851661887022 0.0496573018497881
0.2075637952199844 0.5492851661887022 0.5496573018497881
0.7075637952199844 0.0492851661887021 0.0496573018497881
0.7075637952199844 0.0492851661887021 0.5496573018497881
0.7075637952199844 0.5492851661887022 0.0496573018497881
0.7075637952199844 0.5492851661887022 0.5496573018497881
0.1801321777049335 0.0663076735118152 0.0667513425300550
0.1801321777049335 0.0663076735118152 0.5667513425300550
0.1801321777049335 0.5663076735118151 0.0667513425300550
0.1801321777049335 0.5663076735118151 0.5667513425300550
0.6801321777049335 0.0663076735118152 0.0667513425300550
0.6801321777049335 0.0663076735118152 0.5667513425300550
0.6801321777049335 0.5663076735118151 0.0667513425300550
0.6801321777049335 0.5663076735118151 0.5667513425300550
0.4763693146028971 0.2041617976155618 0.4759047492818791
0.4763693146028972 0.2041617976155618 0.9759047492818791
0.4763693146028970 0.7041617976155619 0.4759047492818791
0.4763693146028971 0.7041617976155619 0.9759047492818791
0.9763693146028971 0.2041617976155618 0.4759047492818791
0.9763693146028970 0.2041617976155618 0.9759047492818791
0.9763693146028971 0.7041617976155619 0.4759047492818791
0.9763693146028970 0.7041617976155619 0.9759047492818791
0.4507147817811256 0.2075637949863530 0.4503427503377257
0.4507147817811255 0.2075637949863530 0.9503427503377258
0.4507147817811256 0.7075637949863529 0.4503427503377257
0.4507147817811255 0.7075637949863529 0.9503427503377258
0.9507147817811255 0.2075637949863530 0.4503427503377257
0.9507147817811253 0.2075637949863530 0.9503427503377258
0.9507147817811255 0.7075637949863529 0.4503427503377257
0.9507147817811253 0.7075637949863529 0.9503427503377258
0.4336922245100943 0.1801321772470207 0.4332487597564216
0.4336922245100943 0.1801321772470207 0.9332487597564216
0.4336922245100943 0.6801321772470207 0.4332487597564216
0.4336922245100943 0.6801321772470207 0.9332487597564216
0.9336922245100941 0.1801321772470207 0.4332487597564216
0.9336922245100941 0.1801321772470207 0.9332487597564216
0.9336922245100941 0.6801321772470207 0.4332487597564216
0.9336922245100941 0.6801321772470207 0.9332487597564216
0.4763694092068865 0.4759046543918031 0.2041617980403627
0.4763694092068865 0.4759046543918031 0.7041617980403626
0.4763694092068866 0.9759046543918031 0.2041617980403627
0.4763694092068866 0.9759046543918031 0.7041617980403626
0.9763694092068866 0.4759046543918031 0.2041617980403627
0.9763694092068866 0.4759046543918031 0.7041617980403626
0.9763694092068865 0.9759046543918031 0.2041617980403627
0.9763694092068865 0.9759046543918031 0.7041617980403626
0.4507148338112979 0.4503426981502118 0.2075637952199844
0.4507148338112979 0.4503426981502118 0.7075637952199845
0.4507148338112978 0.9503426981502119 0.2075637952199844
0.4507148338112978 0.9503426981502119 0.7075637952199845
0.9507148338112980 0.4503426981502118 0.2075637952199844
0.9507148338112980 0.4503426981502118 0.7075637952199845
0.9507148338112978 0.9503426981502119 0.2075637952199844
0.9507148338112978 0.9503426981502119 0.7075637952199845
0.4336923264881850 0.4332486574699450 0.1801321777049336
0.4336923264881850 0.4332486574699450 0.6801321777049336
0.4336923264881849 0.9332486574699449 0.1801321777049336
0.4336923264881849 0.9332486574699449 0.6801321777049336
0.9336923264881849 0.4332486574699450 0.1801321777049336
0.9336923264881849 0.4332486574699450 0.6801321777049336
0.9336923264881849 0.9332486574699449 0.1801321777049336
0.9336923264881849 0.9332486574699449 0.6801321777049336
0.0240952507181210 0.4763693146028971 0.2958382023844383
0.0240952507181210 0.4763693146028971 0.7958382023844383
0.0240952507181210 0.9763693146028971 0.2958382023844383
0.0240952507181210 0.9763693146028971 0.7958382023844383
0.5240952507181210 0.4763693146028971 0.2958382023844383
0.5240952507181210 0.4763693146028971 0.7958382023844383
0.5240952507181210 0.9763693146028971 0.2958382023844383
0.5240952507181210 0.9763693146028971 0.7958382023844383
0.0496572496622744 0.4507147817811256 0.2924362050136470
0.0496572496622744 0.4507147817811256 0.7924362050136471
0.0496572496622744 0.9507147817811255 0.2924362050136470
0.0496572496622744 0.9507147817811255 0.7924362050136471
0.5496572496622744 0.4507147817811256 0.2924362050136470
0.5496572496622744 0.4507147817811256 0.7924362050136471
0.5496572496622744 0.9507147817811255 0.2924362050136470
0.5496572496622744 0.9507147817811255 0.7924362050136471
0.0667512402435784 0.4336922245100943 0.3198678227529792
0.0667512402435784 0.4336922245100943 0.8198678227529792
0.0667512402435784 0.9336922245100941 0.3198678227529792
0.0667512402435784 0.9336922245100941 0.8198678227529792
0.5667512402435784 0.4336922245100943 0.3198678227529792
0.5667512402435784 0.4336922245100943 0.8198678227529792
0.5667512402435784 0.9336922245100941 0.3198678227529792
0.5667512402435784 0.9336922245100941 0.8198678227529792
0.2956022362627492 0.2194208248681064 0.3359184080411741
0.2956022362627492 0.2194208248681064 0.8359184080411741
0.2956022362627492 0.7194208248681064 0.3359184080411741
0.2956022362627492 0.7194208248681064 0.8359184080411741
0.7956022362627493 0.2194208248681064 0.3359184080411741
0.7956022362627493 0.2194208248681064 0.8359184080411741
0.7956022362627493 0.7194208248681064 0.3359184080411741
0.7956022362627493 0.7194208248681064 0.8359184080411741
0.3186238081810778 0.2003348836082286 0.3152090260352125
0.3186238081810778 0.2003348836082286 0.8152090260352124
0.3186238081810778 0.7003348836082286 0.3152090260352125
0.3186238081810778 0.7003348836082286 0.8152090260352124
0.8186238081810778 0.2003348836082286 0.3152090260352125
0.8186238081810778 0.2003348836082286 0.8152090260352124
0.8186238081810778 0.7003348836082286 0.3152090260352125
0.8186238081810778 0.7003348836082286 0.8152090260352124
0.3416660471245233 0.2141190949438682 0.2904397635479343
0.3416660471245233 0.2141190949438682 0.7904397635479342
0.3416660471245233 0.7141190949438683 0.2904397635479343
0.3416660471245233 0.7141190949438683 0.7904397635479342
0.8416660471245232 0.2141190949438682 0.2904397635479343
0.8416660471245232 0.2141190949438682 0.7904397635479342
0.8416660471245232 0.7141190949438683 0.2904397635479343
0.8416660471245232 0.7141190949438683 0.7904397635479342
0.2194208106839450 0.2956021206712078 0.3359182926158884
0.2194208106839450 0.2956021206712078 0.8359182926158883
0.2194208106839450 0.7956021206712078 0.3359182926158884
0.2194208106839450 0.7956021206712078 0.8359182926158883
0.7194208106839450 0.2956021206712078 0.3359182926158884
0.7194208106839450 0.2956021206712078 0.8359182926158883
0.7194208106839450 0.7956021206712078 0.3359182926158884
0.7194208106839450 0.7956021206712078 0.8359182926158883
0.2003348751440544 0.3186237392036522 0.3152089571569973
0.2003348751440544 0.3186237392036522 0.8152089571569971
0.2003348751440544 0.8186237392036522 0.3152089571569973
0.2003348751440544 0.8186237392036522 0.8152089571569971
0.7003348751440545 0.3186237392036522 0.3152089571569973
0.7003348751440545 0.3186237392036522 0.8152089571569971
0.7003348751440545 0.8186237392036522 0.3152089571569973
0.7003348751440545 0.8186237392036522 0.8152089571569971
0.2141190799414983 0.3416659248651228 0.2904396414643798
0.2141190799414983 0.3416659248651228 0.7904396414643797
0.2141190799414983 0.8416659248651228 0.2904396414643798
0.2141190799414983 0.8416659248651228 0.7904396414643797
0.7141190799414981 0.3416659248651228 0.2904396414643798
0.7141190799414981 0.3416659248651228 0.7904396414643797
0.7141190799414981 0.8416659248651228 0.2904396414643798
0.7141190799414981 0.8416659248651228 0.7904396414643797
