 Entering Gaussian System
 *********************************************
 Gaussian 98:
 frequency output generated by the xtb code
 *********************************************
                         Standard orientation:
 --------------------------------------------------------------------
  Center     Atomic     Atomic              Coordinates (Angstroms)
  Number     Number      Type              X           Y           Z
 --------------------------------------------------------------------
    1          6             0        1.858107   -0.027877   -0.037083
    2          6             0        0.359703   -0.002701   -0.013174
    3          7             0       -0.378008   -1.020433   -0.472888
    4          6             0       -1.652854   -0.598693   -0.255132
    5          6             0       -1.622609    0.647395    0.321464
    6          7             0       -0.328106    1.034983    0.478200
    7          1             0        2.259499   -0.467765    0.881644
    8          1             0        2.246028    0.987142   -0.124685
    9          1             0        2.207279   -0.625252   -0.879533
   10          1             0       -2.504789   -1.210389   -0.526420
   11          1             0       -2.444249    1.283589    0.627608
 --------------------------------------------------------------------
     1 basis functions        1 primitive gaussians
     1 alpha electrons        1 beta electrons

 Harmonic frequencies (cm**-1), IR intensities (km*mol⁻¹),
 Raman scattering activities (A**4/amu), Raman depolarization ratios,
 reduced masses (AMU), force constants (mDyne/A) and normal coordinates:
                      1                      2                      3
                        a                      a                      a 
 Frequencies --   -35.7546               261.3089               323.4549
 Red. masses --     1.7012                 9.6182                 9.1802
 Frc consts  --     0.0000                 0.0000                 0.0000
 IR Inten    --     0.0694                 3.0159                 5.1369
 Raman Activ --     0.0000                 0.0000                 0.0000
 Depolar     --     0.0000                 0.0000                 0.0000
 Atom AN      X      Y      Z        X      Y      Z        X      Y      Z
   1   6     0.00   0.02   0.01    -0.00  -0.15   0.32     0.01   0.40   0.19
   2   6    -0.00  -0.02  -0.01    -0.01   0.22  -0.47    -0.01  -0.34  -0.16
   3   7    -0.01  -0.07   0.13    -0.00   0.13  -0.28    -0.27  -0.23  -0.11
   4   6    -0.01  -0.03   0.07     0.01  -0.12   0.26    -0.16   0.11   0.04
   5   6     0.01   0.04  -0.07     0.01  -0.12   0.26     0.16   0.10   0.05
   6   7     0.01   0.05  -0.14    -0.00   0.13  -0.28     0.26  -0.24  -0.11
   7   1    -0.01  -0.50  -0.23    -0.23  -0.08   0.18     0.01   0.24   0.11
   8   1    -0.02   0.06   0.56     0.11  -0.08   0.17    -0.23   0.21   0.07
   9   1     0.03   0.47  -0.31     0.11  -0.08   0.17     0.24   0.18   0.11
  10   1    -0.00  -0.02   0.04     0.00  -0.08   0.16    -0.09   0.09   0.03
  11   1     0.00   0.02  -0.04     0.00  -0.08   0.16     0.10   0.08   0.04
                      4                      5                      6
                        a                      a                      a 
 Frequencies --   615.7507               662.8852               691.2343
 Red. masses --    11.8716                11.9537                10.7108
 Frc consts  --     0.0000                 0.0000                 0.0000
 IR Inten    --     0.0064                14.1252                 0.1164
 Raman Activ --     0.0000                 0.0000                 0.0000
 Depolar     --     0.0000                 0.0000                 0.0000
 Atom AN      X      Y      Z        X      Y      Z        X      Y      Z
   1   6    -0.00  -0.01  -0.01    -0.04   0.04  -0.09    -0.71   0.01   0.01
   2   6     0.00   0.00   0.00    -0.02   0.27  -0.58    -0.20  -0.02   0.05
   3   7     0.01  -0.15   0.35     0.02  -0.21   0.43     0.22  -0.12  -0.09
   4   6    -0.01   0.24  -0.52     0.01   0.06  -0.13     0.29  -0.02  -0.00
   5   6     0.01  -0.24   0.52     0.01   0.06  -0.13     0.29   0.00   0.01
   6   7    -0.01   0.16  -0.34     0.02  -0.19   0.43     0.23   0.14   0.03
   7   1    -0.00  -0.00  -0.00    -0.22  -0.02   0.05    -0.19   0.00   0.00
   8   1    -0.01  -0.00  -0.00     0.09  -0.02   0.05    -0.22   0.01   0.00
   9   1     0.01  -0.00  -0.00     0.09  -0.03   0.05    -0.22  -0.00  -0.00
  10   1    -0.00   0.07  -0.16     0.00   0.03  -0.06     0.04   0.04   0.01
  11   1     0.00  -0.08   0.16     0.00   0.03  -0.06     0.04  -0.04  -0.03
                      7                      8                      9
                        a                      a                      a 
 Frequencies --   761.9759               783.4041               920.9459
 Red. masses --     2.5591                 2.9333                11.9188
 Frc consts  --     0.0000                 0.0000                 0.0000
 IR Inten    --     0.0099                 0.4032                10.2439
 Raman Activ --     0.0000                 0.0000                 0.0000
 Depolar     --     0.0000                 0.0000                 0.0000
 Atom AN      X      Y      Z        X      Y      Z        X      Y      Z
   1   6    -0.00  -0.01  -0.00     0.01   0.00  -0.01    -0.00  -0.04  -0.02
   2   6    -0.00   0.00   0.00     0.00   0.03  -0.06    -0.00  -0.17  -0.08
   3   7     0.00  -0.03   0.07    -0.01   0.03  -0.05     0.22  -0.24  -0.11
   4   6     0.00  -0.11   0.23     0.00  -0.12   0.26     0.45   0.34   0.15
   5   6    -0.00   0.11  -0.23    -0.00  -0.12   0.26    -0.43   0.35   0.17
   6   7    -0.00   0.03  -0.06    -0.00   0.02  -0.05    -0.24  -0.23  -0.10
   7   1    -0.00   0.00   0.00    -0.01  -0.00   0.00     0.00   0.00   0.00
   8   1    -0.01   0.00   0.00     0.01  -0.00   0.00    -0.03  -0.00  -0.00
   9   1     0.01   0.00   0.00     0.01  -0.00   0.00     0.03  -0.00  -0.00
  10   1    -0.01   0.28  -0.59    -0.01   0.27  -0.58     0.14   0.06   0.03
  11   1     0.01  -0.28   0.60    -0.01   0.27  -0.58    -0.14   0.06   0.03
                     10                     11                     12
                        a                      a                      a 
 Frequencies --   973.0437               991.2174              1021.8296
 Red. masses --     4.5157                 7.7815                 4.4776
 Frc consts  --     0.0000                 0.0000                 0.0000
 IR Inten    --     0.9577                 1.9195                11.8456
 Raman Activ --     0.0000                 0.0000                 0.0000
 Depolar     --     0.0000                 0.0000                 0.0000
 Atom AN      X      Y      Z        X      Y      Z        X      Y      Z
   1   6     0.01   0.40   0.18     0.22   0.00  -0.01     0.00  -0.18   0.38
   2   6     0.00   0.06   0.03    -0.18  -0.00   0.01     0.01   0.15  -0.33
   3   7    -0.04  -0.20  -0.08    -0.06  -0.42  -0.20    -0.02  -0.03   0.03
   4   6    -0.04   0.02   0.01     0.09   0.03   0.01     0.02  -0.01  -0.00
   5   6     0.04   0.02   0.01     0.09  -0.03  -0.02     0.02   0.00   0.00
   6   7     0.03  -0.19  -0.10    -0.04   0.42   0.20    -0.02  -0.01   0.04
   7   1    -0.01  -0.18  -0.09     0.06   0.00  -0.00     0.63   0.05  -0.14
   8   1     0.54  -0.12  -0.08     0.09  -0.01   0.00    -0.31   0.05  -0.18
   9   1    -0.54  -0.12  -0.03     0.09   0.00   0.01    -0.31   0.12  -0.15
  10   1    -0.09   0.10   0.04    -0.27   0.35   0.16    -0.01   0.01   0.01
  11   1     0.10   0.09   0.05    -0.29  -0.34  -0.15    -0.01  -0.01  -0.01
                     13                     14                     15
                        a                      a                      a 
 Frequencies --  1120.4424              1131.7675              1255.7769
 Red. masses --     4.4979                 7.2678                12.4856
 Frc consts  --     0.0000                 0.0000                 0.0000
 IR Inten    --     7.1492                15.1665                 1.8361
 Raman Activ --     0.0000                 0.0000                 0.0000
 Depolar     --     0.0000                 0.0000                 0.0000
 Atom AN      X      Y      Z        X      Y      Z        X      Y      Z
   1   6    -0.00  -0.10  -0.05    -0.13   0.00  -0.00     0.01  -0.01   0.01
   2   6     0.00   0.12   0.05     0.25  -0.00  -0.00     0.03   0.00  -0.01
   3   7     0.33  -0.07  -0.04     0.09   0.36   0.16     0.47  -0.13  -0.07
   4   6    -0.08  -0.07  -0.03    -0.03   0.21   0.10    -0.47  -0.07  -0.03
   5   6     0.08  -0.07  -0.03    -0.04  -0.21  -0.10    -0.47   0.09   0.05
   6   7    -0.33  -0.06  -0.02     0.07  -0.36  -0.17     0.48   0.12   0.05
   7   1     0.00   0.04   0.02    -0.07  -0.00   0.01    -0.03  -0.00   0.01
   8   1    -0.11   0.02   0.02    -0.07   0.01   0.01    -0.07   0.02  -0.01
   9   1     0.11   0.02   0.00    -0.07  -0.01  -0.00    -0.07  -0.01  -0.02
  10   1    -0.39   0.40   0.19    -0.27   0.37   0.18    -0.12  -0.05  -0.02
  11   1     0.41   0.39   0.17    -0.29  -0.36  -0.16    -0.12   0.05   0.02
                     16                     17                     18
                        a                      a                      a 
 Frequencies --  1326.4166              1373.6002              1424.9125
 Red. masses --    11.7372                 3.2772                12.0450
 Frc consts  --     0.0000                 0.0000                 0.0000
 IR Inten    --     2.1916                10.2164                24.9586
 Raman Activ --     0.0000                 0.0000                 0.0000
 Depolar     --     0.0000                 0.0000                 0.0000
 Atom AN      X      Y      Z        X      Y      Z        X      Y      Z
   1   6    -0.00  -0.05  -0.02    -0.42  -0.00   0.03    -0.29   0.02  -0.04
   2   6     0.01   0.38   0.17    -0.08   0.00   0.00     0.82  -0.01  -0.01
   3   7    -0.41  -0.05  -0.02     0.08   0.05   0.02    -0.18  -0.18  -0.08
   4   6     0.40  -0.17  -0.08    -0.04  -0.01  -0.00    -0.05  -0.17  -0.08
   5   6    -0.41  -0.15  -0.07    -0.04   0.01   0.01    -0.04   0.17   0.08
   6   7     0.41  -0.07  -0.04     0.08  -0.05  -0.02    -0.17   0.19   0.09
   7   1     0.00   0.05   0.02     0.45   0.07  -0.16     0.01   0.01  -0.02
   8   1    -0.05   0.01   0.02     0.49  -0.20  -0.05    -0.02  -0.00   0.09
   9   1     0.05   0.03  -0.01     0.50   0.14   0.11    -0.02  -0.06   0.06
  10   1    -0.08   0.16   0.08    -0.02   0.01   0.01    -0.06  -0.01  -0.00
  11   1     0.09   0.16   0.07    -0.02  -0.01  -0.01    -0.06   0.01   0.01
                     19                     20                     21
                        a                      a                      a 
 Frequencies --  1461.9926              1470.9465              1492.4976
 Red. masses --    10.8126                11.1706                 1.7962
 Frc consts  --     0.0000                 0.0000                 0.0000
 IR Inten    --   181.5303                 6.2012                 1.2619
 Raman Activ --     0.0000                 0.0000                 0.0000
 Depolar     --     0.0000                 0.0000                 0.0000
 Atom AN      X      Y      Z        X      Y      Z        X      Y      Z
   1   6     0.00   0.16   0.07    -0.08   0.00   0.00     0.01   0.10  -0.21
   2   6    -0.01  -0.58  -0.27     0.17   0.00  -0.00    -0.12   0.02  -0.03
   3   7    -0.03   0.32   0.15    -0.01  -0.19  -0.09     0.03   0.02   0.01
   4   6     0.23  -0.13  -0.07    -0.09   0.56   0.26     0.00   0.01   0.00
   5   6    -0.24  -0.13  -0.06    -0.11  -0.56  -0.26     0.00  -0.01  -0.00
   6   7     0.04   0.32   0.15    -0.00   0.18   0.09     0.02  -0.03  -0.01
   7   1    -0.00  -0.22  -0.10     0.02   0.01  -0.01     0.35   0.06  -0.12
   8   1     0.02  -0.00  -0.12     0.01  -0.01   0.01    -0.09   0.10   0.62
   9   1    -0.02  -0.10   0.08     0.01  -0.00   0.01    -0.11  -0.53   0.32
  10   1    -0.09   0.14   0.07     0.20  -0.08  -0.04     0.00   0.00   0.00
  11   1     0.10   0.14   0.06     0.20   0.07   0.03     0.00  -0.00  -0.00
                     22                     23                     24
                        a                      a                      a 
 Frequencies --  1512.5126              2914.5822              2983.6665
 Red. masses --     2.3284                 1.7849                 1.7459
 Frc consts  --     0.0000                 0.0000                 0.0000
 IR Inten    --    17.8358               131.5860               178.7311
 Raman Activ --     0.0000                 0.0000                 0.0000
 Depolar     --     0.0000                 0.0000                 0.0000
 Atom AN      X      Y      Z        X      Y      Z        X      Y      Z
   1   6    -0.00  -0.17  -0.08    -0.06   0.11  -0.23     0.00  -0.02  -0.01
   2   6    -0.00  -0.20  -0.09    -0.01   0.00  -0.00    -0.00  -0.00  -0.00
   3   7     0.00   0.09   0.05     0.00   0.00   0.00     0.00   0.01   0.00
   4   6     0.05  -0.03  -0.02    -0.00  -0.00   0.00     0.14   0.11   0.05
   5   6    -0.05  -0.03  -0.01    -0.00   0.00   0.00    -0.14   0.11   0.05
   6   7     0.00   0.10   0.04     0.00  -0.00  -0.00    -0.00   0.01   0.00
   7   1     0.01   0.61   0.29     0.32  -0.39   0.81    -0.00  -0.00  -0.00
   8   1     0.29  -0.08   0.35    -0.05  -0.09  -0.04     0.02   0.04  -0.01
   9   1    -0.28   0.23  -0.29    -0.04   0.09   0.05    -0.02   0.03   0.04
  10   1    -0.02   0.03   0.01     0.01   0.01   0.00    -0.54  -0.39  -0.17
  11   1     0.02   0.03   0.02     0.01  -0.01  -0.00     0.52  -0.40  -0.19
                     25                     26                     27
                        a                      a                      a 
 Frequencies --  2988.5953              2989.2901              3012.6054
 Red. masses --     1.6979                 1.6116                 1.9235
 Frc consts  --     0.0000                 0.0000                 0.0000
 IR Inten    --   112.1653               110.0026               317.0657
 Raman Activ --     0.0000                 0.0000                 0.0000
 Depolar     --     0.0000                 0.0000                 0.0000
 Atom AN      X      Y      Z        X      Y      Z        X      Y      Z
   1   6    -0.07   0.17   0.17     0.09   0.21  -0.01    -0.02  -0.00   0.01
   2   6    -0.01   0.01   0.01     0.01   0.01   0.00    -0.00  -0.00   0.00
   3   7     0.00  -0.00  -0.00    -0.00  -0.00  -0.00     0.00   0.01   0.00
   4   6    -0.00  -0.00  -0.00     0.02   0.02   0.01     0.15   0.12   0.05
   5   6    -0.02   0.02   0.01     0.01  -0.01  -0.00     0.15  -0.13  -0.06
   6   7     0.00  -0.00   0.00    -0.00  -0.00  -0.00    -0.00  -0.01  -0.00
   7   1     0.02  -0.01   0.11    -0.02   0.08  -0.10     0.01  -0.02   0.03
   8   1    -0.04  -0.05   0.03    -0.32  -0.90   0.08     0.03   0.08  -0.01
   9   1     0.28  -0.52  -0.75    -0.01   0.07   0.05     0.02  -0.05  -0.06
  10   1     0.01   0.01   0.00    -0.07  -0.05  -0.02    -0.53  -0.38  -0.17
  11   1     0.07  -0.05  -0.03    -0.03   0.02   0.01    -0.51   0.40   0.19
