11
mIm_anion charge=-1 2-메틸이미다졸레이트 (골격 내)
C       1.87171771    -0.02742326    -0.03866938
C       0.40341428    -0.00197925    -0.01670911
N      -0.39130717    -1.00001912    -0.46136920
C      -1.66394589    -0.60062889    -0.25518161
C      -1.63371350     0.64906114     0.32310957
N      -0.34259277     1.01366039     0.47045397
H       2.24679975    -0.47065606     0.88861194
H       2.27243312     0.98654150    -0.13309979
H       2.23315638    -0.61958729    -0.88502328
H      -2.52769879    -1.19289843    -0.51450761
H      -2.46826312     1.26392927     0.62238451
