11
 xtb: 6.7.1 (edcfbbe)
C            1.85819025006257       -0.02304388351202       -0.03489716664550
C            0.35957613350640       -0.00721893017198       -0.01517272098051
N           -0.38157203303950       -1.03919337647369       -0.43969799743251
C           -1.65426357277920       -0.60600190205762       -0.23529992535739
C           -1.62111234752328        0.65776027439911        0.30294171758831
N           -0.32463985822280        1.04796126070613        0.44243162437758
H            2.25631278952991       -0.59952494403925        0.81991258398362
H            2.24017212828580        1.00287034118561        0.02371689266861
H            2.21649010333699       -0.50144219239906       -0.96272126732268
H           -2.50571667908548       -1.21446433093405       -0.51478051074470
H           -2.44327703597346        1.28980494219050        0.61692777263494
