11
 energy: -17.153352817773 gnorm: 0.000385330890 xtb: 6.7.1 (edcfbbe)
C            1.85810694289472       -0.02787650958139       -0.03708322228681
C            0.35970327246116       -0.00270092307973       -0.01317410840502
N           -0.37800814181099       -1.02043304605767       -0.47288839940358
C           -1.65285433950541       -0.59869282638751       -0.25513210182857
C           -1.62260909749564        0.64739463473762        0.32146365952140
N           -0.32810587054047        1.03498339697617        0.47820040608525
H            2.25949901247242       -0.46776479541376        0.88164426402207
H            2.24602819129330        0.98714231238009       -0.12468537726243
H            2.20727837667000       -0.62525149375341       -0.87953341782519
H           -2.50478922142615       -1.21038920978837       -0.52641963667445
H           -2.44424912501291        1.28358845996799        0.62760794405734
