# ZIF_67
1.000000
 34.2310000000000016   0.0000000000000000         0.0000000000
  0.0000000000000021  34.2310000000000016         0.0000000000
  0.0000000000000021   0.0000000000000021        34.2310000000
Co N C C H C H H H N N N N N N N N 
8 8 8 8 8 8 8 8 8 8 8 8 8 8 8 8 8 
Direct
0.2500000000000000 0.1250000000000000 0.0000000000000000
0.2500000000000000 0.1250000000000000 0.5000000000000000
0.2500000000000000 0.6250000000000000 0.0000000000000000
0.2500000000000000 0.6250000000000000 0.5000000000000000
0.7500000000000000 0.1250000000000000 0.0000000000000000
0.7500000000000000 0.1250000000000000 0.5000000000000000
0.7500000000000000 0.6250000000000000 0.0000000000000000
0.7500000000000000 0.6250000000000000 0.5000000000000000
0.2944000000000000 0.1600500000000000 0.0154500000000000
0.2944000000000000 0.1600500000000000 0.5154500000000000
0.2944000000000000 0.6600500000000000 0.0154500000000000
0.2944000000000000 0.6600500000000000 0.5154500000000000
0.7944000000000000 0.1600500000000000 0.0154500000000000
0.7944000000000000 0.1600500000000000 0.5154500000000000
0.7944000000000000 0.6600500000000000 0.0154500000000000
0.7944000000000000 0.6600500000000000 0.5154500000000000
0.3159000000000000 0.1841000000000000 0.4941999999999999
0.3159000000000000 0.1841000000000000 0.9942000000000000
0.3159000000000000 0.6841000000000000 0.4941999999999999
0.3159000000000000 0.6840999999999999 0.9942000000000000
0.8159000000000001 0.1841000000000000 0.4941999999999999
0.8159000000000001 0.1841000000000000 0.9942000000000000
0.8159000000000001 0.6841000000000000 0.4941999999999999
0.8159000000000001 0.6840999999999999 0.9942000000000000
0.3058000000000000 0.1677000000000000 0.0534500000000000
0.3058000000000000 0.1677000000000000 0.5534500000000000
0.3058000000000000 0.6677000000000000 0.0534500000000000
0.3058000000000000 0.6677000000000000 0.5534500000000000
0.8058000000000001 0.1677000000000000 0.0534500000000000
0.8058000000000001 0.1677000000000000 0.5534500000000000
0.8058000000000001 0.6677000000000000 0.0534500000000000
0.8058000000000001 0.6677000000000000 0.5534500000000000
0.2942070000000000 0.1535870000000000 0.0790675000000000
0.2942070000000000 0.1535870000000000 0.5790675000000000
0.2942070000000000 0.6535870000000000 0.0790675000000000
0.2942070000000000 0.6535870000000000 0.5790675000000000
0.7942070000000000 0.1535870000000000 0.0790675000000000
0.7942070000000000 0.1535870000000000 0.5790675000000000
0.7942070000000000 0.6535870000000000 0.0790675000000000
0.7942070000000000 0.6535870000000000 0.5790675000000000
0.3126000000000000 0.1874000000000000 0.4502000000000000
0.3126000000000000 0.1874000000000000 0.9501999999999998
0.3126000000000000 0.6874000000000000 0.4502000000000000
0.3126000000000000 0.6874000000000000 0.9501999999999998
0.8126000000000000 0.1874000000000000 0.4502000000000000
0.8126000000000000 0.1874000000000000 0.9501999999999998
0.8126000000000000 0.6874000000000000 0.4502000000000000
0.8126000000000000 0.6874000000000000 0.9501999999999998
0.3332370000000001 0.2089415000000000 0.4396510000000000
0.3332370000000000 0.2089415000000000 0.9396510000000000
0.3332370000000000 0.7089415000000000 0.4396510000000000
0.3332369999999999 0.7089415000000000 0.9396510000000000
0.8332370000000000 0.2089415000000000 0.4396510000000000
0.8332370000000000 0.2089415000000000 0.9396510000000000
0.8332370000000000 0.7089415000000000 0.4396510000000000
0.8332370000000000 0.7089415000000000 0.9396510000000000
0.3190210000000001 0.1593425000000000 0.4370030000000000
0.3190210000000000 0.1593425000000000 0.9370030000000000
0.3190210000000001 0.6593424999999999 0.4370030000000000
0.3190210000000000 0.6593424999999999 0.9370030000000000
0.8190210000000000 0.1593425000000000 0.4370030000000000
0.8190210000000000 0.1593425000000000 0.9370030000000000
0.8190210000000000 0.6593424999999999 0.4370030000000000
0.8190210000000000 0.6593424999999999 0.9370030000000000
0.2832430000000000 0.1962145000000000 0.4424394999999999
0.2832430000000000 0.1962145000000000 0.9424395000000001
0.2832430000000000 0.6962145000000000 0.4424394999999999
0.2832430000000000 0.6962145000000000 0.9424395000000001
0.7832430000000000 0.1962145000000000 0.4424394999999999
0.7832430000000000 0.1962145000000000 0.9424395000000001
0.7832430000000000 0.6962145000000000 0.4424394999999999
0.7832430000000000 0.6962145000000000 0.9424395000000001
0.2500000000000000 0.2500000000000000 0.0000000000000000
0.2500000000000000 0.2500000000000000 0.5000000000000000
0.2500000000000000 0.7500000000000000 0.0000000000000000
0.2500000000000000 0.7500000000000000 0.5000000000000000
0.7500000000000000 0.2500000000000000 0.0000000000000000
0.7500000000000000 0.2500000000000000 0.5000000000000000
0.7500000000000000 0.7500000000000000 0.0000000000000000
0.7500000000000000 0.7500000000000000 0.5000000000000000
0.2499999999999999 0.2500000000000000 0.3825000000000000
0.2500000000000000 0.2500000000000000 0.8825000000000001
0.2500000000000000 0.7500000000000000 0.3825000000000000
0.2500000000000000 0.7500000000000001 0.8825000000000001
0.7500000000000000 0.2500000000000000 0.3825000000000000
0.7500000000000001 0.2500000000000000 0.8825000000000001
0.7500000000000000 0.7500000000000000 0.3825000000000000
0.7500000000000001 0.7500000000000001 0.8825000000000001
0.3905000000000000 0.1095000000000000 0.0305000000000000
0.3905000000000000 0.1095000000000000 0.5305000000000000
0.3905000000000000 0.6095000000000000 0.0305000000000000
0.3905000000000000 0.6095000000000000 0.5305000000000000
0.8905000000000001 0.1095000000000000 0.0305000000000000
0.8905000000000001 0.1095000000000000 0.5305000000000000
0.8905000000000001 0.6095000000000000 0.0305000000000000
0.8905000000000001 0.6095000000000000 0.5305000000000000
0.2500000000000000 0.2500000000000000 0.4770000000000000
0.2500000000000000 0.2500000000000000 0.9770000000000001
0.2500000000000000 0.7500000000000000 0.4770000000000000
0.2500000000000000 0.7500000000000000 0.9770000000000001
0.7500000000000000 0.2500000000000000 0.4770000000000000
0.7500000000000000 0.2500000000000000 0.9770000000000001
0.7500000000000000 0.7500000000000000 0.4770000000000000
0.7500000000000000 0.7500000000000000 0.9770000000000001
0.3905000000000000 0.1095000000000000 0.0105000000000000
0.3905000000000000 0.1095000000000000 0.5105000000000000
0.3905000000000000 0.6095000000000000 0.0105000000000000
0.3905000000000000 0.6095000000000000 0.5105000000000000
0.8905000000000001 0.1095000000000000 0.0105000000000000
0.8905000000000001 0.1095000000000000 0.5105000000000000
0.8905000000000001 0.6095000000000000 0.0105000000000000
0.8905000000000001 0.6095000000000000 0.5105000000000000
0.4090000000000000 0.0910000000000000 0.4090000000000000
0.4090000000000000 0.0910000000000000 0.9090000000000000
0.4090000000000000 0.5910000000000000 0.4090000000000000
0.4090000000000000 0.5910000000000000 0.9090000000000000
0.9090000000000000 0.0910000000000000 0.4090000000000000
0.9090000000000000 0.0910000000000000 0.9090000000000000
0.9090000000000000 0.5910000000000000 0.4090000000000000
0.9090000000000000 0.5910000000000000 0.9090000000000000
0.2500000000000000 0.2240000000000000 0.3860000000000000
0.2500000000000000 0.2240000000000000 0.8860000000000000
0.2500000000000000 0.7240000000000000 0.3860000000000000
0.2500000000000000 0.7240000000000001 0.8860000000000000
0.7500000000000000 0.2240000000000000 0.3860000000000000
0.7500000000000001 0.2240000000000000 0.8860000000000000
0.7500000000000000 0.7240000000000000 0.3860000000000000
0.7500000000000001 0.7240000000000001 0.8860000000000000
0.3920000000000000 0.1080000000000000 0.3920000000000000
0.3920000000000000 0.1080000000000000 0.8920000000000000
0.3920000000000000 0.6080000000000000 0.3920000000000000
0.3920000000000000 0.6080000000000001 0.8920000000000000
0.8920000000000000 0.1080000000000000 0.3920000000000000
0.8920000000000001 0.1080000000000000 0.8920000000000000
0.8920000000000000 0.6080000000000000 0.3920000000000000
0.8920000000000001 0.6080000000000001 0.8920000000000000
