# Co-dmd_mkt012s_sq
1.000000
 26.5429999999999993   0.0000000000000000         0.0000000000
  0.0000000000000016  26.5429999999999993         0.0000000000
  0.0000000000000018   0.0000000000000018        29.2516000000
Co N N N C H C H N C C H C C H C C C H C C C H F F 
8 8 8 8 8 8 8 8 8 8 8 8 8 8 8 8 8 8 8 8 8 8 8 8 8 
Direct
0.2537600000000000 0.2560250000000001 0.3108200000000000
0.2537600000000000 0.2560250000000001 0.8108200000000002
0.2537600000000000 0.7560250000000001 0.3108200000000000
0.2537600000000000 0.7560250000000001 0.8108200000000002
0.7537600000000001 0.2560250000000001 0.3108200000000000
0.7537600000000001 0.2560250000000001 0.8108200000000002
0.7537600000000001 0.7560250000000001 0.3108200000000000
0.7537600000000001 0.7560250000000001 0.8108200000000002
0.2425000000000000 0.1955500000000000 0.2268500000000001
0.2425000000000000 0.1955500000000000 0.7268500000000002
0.2425000000000000 0.6955500000000001 0.2268500000000001
0.2425000000000000 0.6955500000000001 0.7268500000000002
0.7425000000000000 0.1955500000000000 0.2268500000000001
0.7425000000000000 0.1955500000000000 0.7268500000000002
0.7425000000000000 0.6955500000000001 0.2268500000000001
0.7425000000000000 0.6955500000000001 0.7268500000000002
0.2433500000000000 0.3142000000000000 0.2234500000000000
0.2433500000000000 0.3142000000000000 0.7234500000000003
0.2433500000000000 0.8142000000000000 0.2234500000000000
0.2433500000000000 0.8142000000000000 0.7234500000000003
0.7433500000000000 0.3142000000000000 0.2234500000000000
0.7433500000000000 0.3142000000000000 0.7234500000000003
0.7433500000000000 0.8142000000000000 0.2234500000000000
0.7433500000000000 0.8142000000000000 0.7234500000000003
0.2503000000000001 0.3167000000000000 0.2701000000000001
0.2503000000000001 0.3167000000000000 0.7701000000000001
0.2503000000000001 0.8167000000000001 0.2701000000000001
0.2503000000000000 0.8167000000000001 0.7701000000000001
0.7503000000000001 0.3167000000000000 0.2701000000000001
0.7503000000000001 0.3167000000000000 0.7701000000000001
0.7503000000000001 0.8167000000000001 0.2701000000000001
0.7503000000000001 0.8167000000000001 0.7701000000000001
0.2384000000000000 0.1465000000000000 0.2134000000000000
0.2384000000000000 0.1465000000000000 0.7134000000000001
0.2384000000000000 0.6465000000000001 0.2134000000000000
0.2384000000000000 0.6465000000000001 0.7134000000000001
0.7383999999999999 0.1465000000000000 0.2134000000000000
0.7383999999999999 0.1465000000000000 0.7134000000000001
0.7383999999999999 0.6465000000000001 0.2134000000000000
0.7383999999999999 0.6465000000000001 0.7134000000000001
0.2297000000000000 0.1363500000000000 0.1840000000000001
0.2297000000000000 0.1363500000000000 0.6840000000000001
0.2297000000000000 0.6363500000000001 0.1840000000000001
0.2297000000000000 0.6363500000000001 0.6840000000000001
0.7297000000000000 0.1363500000000000 0.1840000000000001
0.7297000000000000 0.1363500000000000 0.6840000000000001
0.7297000000000000 0.6363500000000001 0.1840000000000001
0.7297000000000000 0.6363500000000001 0.6840000000000001
0.2441500000000000 0.3618500000000001 0.2091500000000001
0.2441500000000000 0.3618500000000001 0.7091500000000001
0.2441500000000000 0.8618500000000000 0.2091500000000001
0.2441500000000000 0.8618500000000000 0.7091500000000001
0.7441500000000000 0.3618500000000001 0.2091500000000001
0.7441500000000000 0.3618500000000001 0.7091500000000001
0.7441500000000000 0.8618500000000000 0.2091500000000001
0.7441500000000000 0.8618500000000000 0.7091500000000001
0.2427000000000000 0.3714500000000001 0.1786000000000001
0.2427000000000000 0.3714500000000001 0.6786000000000002
0.2427000000000000 0.8714500000000002 0.1786000000000001
0.2427000000000000 0.8714500000000002 0.6786000000000002
0.7427000000000001 0.3714500000000001 0.1786000000000001
0.7427000000000001 0.3714500000000001 0.6786000000000002
0.7427000000000001 0.8714500000000002 0.1786000000000001
0.7427000000000001 0.8714500000000002 0.6786000000000002
0.2534000000000001 0.1943500000000001 0.2713500000000000
0.2534000000000001 0.1943500000000001 0.7713500000000002
0.2534000000000001 0.6943500000000001 0.2713500000000000
0.2534000000000000 0.6943500000000001 0.7713500000000002
0.7534000000000001 0.1943500000000001 0.2713500000000000
0.7534000000000001 0.1943500000000001 0.7713500000000002
0.7534000000000001 0.6943500000000001 0.2713500000000000
0.7534000000000001 0.6943500000000001 0.7713500000000002
0.2486000000000000 0.1141500000000000 0.2484500000000001
0.2486000000000000 0.1141500000000000 0.7484500000000003
0.2486000000000000 0.6141500000000001 0.2484500000000001
0.2486000000000000 0.6141500000000001 0.7484500000000003
0.7486000000000000 0.1141500000000000 0.2484500000000001
0.7486000000000000 0.1141500000000000 0.7484500000000003
0.7486000000000000 0.6141500000000001 0.2484500000000001
0.7486000000000000 0.6141500000000001 0.7484500000000003
0.2546500000000000 0.1469500000000000 0.2858000000000001
0.2546500000000000 0.1469500000000000 0.7858000000000003
0.2546500000000000 0.6469500000000000 0.2858000000000001
0.2546500000000000 0.6469500000000000 0.7858000000000003
0.7546500000000002 0.1469500000000000 0.2858000000000001
0.7546500000000002 0.1469500000000000 0.7858000000000003
0.7546500000000002 0.6469500000000000 0.2858000000000001
0.7546500000000002 0.6469500000000000 0.7858000000000003
0.2588500000000001 0.1370000000000000 0.3160000000000001
0.2588500000000001 0.1370000000000000 0.8160000000000002
0.2588500000000001 0.6370000000000000 0.3160000000000001
0.2588500000000000 0.6370000000000000 0.8160000000000002
0.7588500000000001 0.1370000000000000 0.3160000000000001
0.7588500000000001 0.1370000000000000 0.8160000000000002
0.7588500000000001 0.6370000000000000 0.3160000000000001
0.7588500000000001 0.6370000000000000 0.8160000000000002
0.2474500000000000 0.3955500000000000 0.2457000000000001
0.2474500000000000 0.3955500000000000 0.7457000000000001
0.2474500000000000 0.8955500000000002 0.2457000000000001
0.2474500000000000 0.8955500000000002 0.7457000000000001
0.7474499999999999 0.3955500000000000 0.2457000000000001
0.7474499999999999 0.3955500000000000 0.7457000000000001
0.7474499999999999 0.8955500000000002 0.2457000000000001
0.7474499999999999 0.8955500000000002 0.7457000000000001
0.2582500000000000 0.4786500000000001 0.2883500000000001
0.2582500000000000 0.4786500000000001 0.7883500000000001
0.2582500000000000 0.9786500000000001 0.2883500000000001
0.2582500000000000 0.9786500000000001 0.7883500000000001
0.7582500000000001 0.4786500000000001 0.2883500000000001
0.7582500000000001 0.4786500000000001 0.7883500000000001
0.7582500000000000 0.9786500000000001 0.2883500000000001
0.7582500000000000 0.9786500000000001 0.7883500000000001
0.2682000000000000 0.4618000000000000 0.3147000000000001
0.2682000000000000 0.4618000000000000 0.8147000000000001
0.2682000000000000 0.9618000000000001 0.3147000000000001
0.2682000000000000 0.9618000000000001 0.8147000000000001
0.7682000000000001 0.4618000000000000 0.3147000000000001
0.7682000000000001 0.4618000000000000 0.8147000000000001
0.7682000000000000 0.9618000000000001 0.3147000000000001
0.7682000000000000 0.9618000000000001 0.8147000000000001
0.2475500000000000 0.4513500000000000 0.2481000000000000
0.2475500000000000 0.4513500000000000 0.7481000000000002
0.2475500000000000 0.9513500000000000 0.2481000000000000
0.2475500000000000 0.9513500000000000 0.7481000000000002
0.7475499999999999 0.4513500000000000 0.2481000000000000
0.7475499999999999 0.4513500000000000 0.7481000000000002
0.7475499999999998 0.9513500000000000 0.2481000000000000
0.7475499999999998 0.9513500000000000 0.7481000000000002
0.2393500000000000 0.4792000000000001 0.2097500000000000
0.2393500000000000 0.4792000000000001 0.7097500000000001
0.2393500000000000 0.9792000000000002 0.2097500000000000
0.2393500000000000 0.9792000000000002 0.7097500000000001
0.7393500000000001 0.4792000000000001 0.2097500000000000
0.7393500000000001 0.4792000000000001 0.7097500000000001
0.7393500000000000 0.9792000000000002 0.2097500000000000
0.7393500000000000 0.9792000000000002 0.7097500000000001
0.2341500000000000 0.0311500000000000 0.2105000000000000
0.2341500000000000 0.0311500000000000 0.7105000000000002
0.2341500000000000 0.5311500000000001 0.2105000000000000
0.2341500000000000 0.5311500000000001 0.7105000000000002
0.7341500000000001 0.0311500000000000 0.2105000000000000
0.7341500000000001 0.0311500000000000 0.7105000000000002
0.7341500000000001 0.5311500000000001 0.2105000000000000
0.7341500000000001 0.5311500000000001 0.7105000000000002
0.2242500000000000 0.0484500000000000 0.1843500000000000
0.2242500000000000 0.0484500000000000 0.6843500000000001
0.2242500000000000 0.5484500000000000 0.1843500000000000
0.2242500000000000 0.5484500000000001 0.6843500000000001
0.7242500000000001 0.0484500000000000 0.1843500000000000
0.7242500000000001 0.0484500000000000 0.6843500000000001
0.7242500000000001 0.5484500000000000 0.1843500000000000
0.7242500000000001 0.5484500000000001 0.6843500000000001
0.2440500000000000 0.0576000000000000 0.2517000000000000
0.2440500000000000 0.0576000000000000 0.7517000000000001
0.2440500000000000 0.5576000000000000 0.2517000000000000
0.2440500000000000 0.5576000000000001 0.7517000000000001
0.7440500000000000 0.0576000000000000 0.2517000000000000
0.7440500000000000 0.0576000000000000 0.7517000000000001
0.7440500000000000 0.5576000000000000 0.2517000000000000
0.7440500000000000 0.5576000000000001 0.7517000000000001
0.2537500000000000 0.0309500000000000 0.2884000000000000
0.2537500000000000 0.0309500000000000 0.7884000000000002
0.2537500000000000 0.5309500000000001 0.2884000000000000
0.2537500000000000 0.5309500000000001 0.7884000000000002
0.7537500000000000 0.0309500000000000 0.2884000000000000
0.7537500000000000 0.0309500000000000 0.7884000000000002
0.7537500000000000 0.5309500000000001 0.2884000000000000
0.7537500000000000 0.5309500000000001 0.7884000000000002
0.2531500000000000 0.3645000000000000 0.2828500000000001
0.2531500000000000 0.3645000000000000 0.7828500000000003
0.2531500000000000 0.8645000000000002 0.2828500000000001
0.2531500000000000 0.8645000000000002 0.7828500000000003
0.7531500000000001 0.3645000000000000 0.2828500000000001
0.7531500000000001 0.3645000000000000 0.7828500000000003
0.7531500000000001 0.8645000000000002 0.2828500000000001
0.7531500000000001 0.8645000000000002 0.7828500000000003
0.2582000000000000 0.3754000000000000 0.3127000000000000
0.2582000000000000 0.3754000000000000 0.8127000000000002
0.2582000000000000 0.8754000000000000 0.3127000000000000
0.2582000000000000 0.8754000000000000 0.8127000000000002
0.7582000000000001 0.3754000000000000 0.3127000000000000
0.7582000000000001 0.3754000000000000 0.8127000000000002
0.7582000000000001 0.8754000000000000 0.3127000000000000
0.7582000000000001 0.8754000000000000 0.8127000000000002
0.2675500000000001 0.0529000000000000 0.3277000000000000
0.2675500000000000 0.0529000000000000 0.8277000000000002
0.2675500000000000 0.5529000000000001 0.3277000000000000
0.2675500000000000 0.5528999999999999 0.8277000000000002
0.7675500000000000 0.0529000000000000 0.3277000000000000
0.7675499999999998 0.0529000000000000 0.8277000000000002
0.7675500000000000 0.5529000000000001 0.3277000000000000
0.7675499999999998 0.5528999999999999 0.8277000000000002
0.2305500000000000 0.4580500000000001 0.1692000000000000
0.2305500000000000 0.4580500000000001 0.6692000000000001
0.2305500000000000 0.9580500000000001 0.1692000000000000
0.2305500000000000 0.9580500000000001 0.6692000000000001
0.7305500000000001 0.4580500000000001 0.1692000000000000
0.7305500000000001 0.4580500000000001 0.6692000000000001
0.7305500000000000 0.9580500000000001 0.1692000000000000
0.7305500000000000 0.9580500000000001 0.6692000000000001
