# Co-dmd_Cod4bdp
1.000000
 24.6870000000000012   0.0000000000000000         0.0000000000
  0.0000000000000016  26.6700000000000017         0.0000000000
 -1.1922629653700350   0.0000000000000018        28.3401319697
Co C C C C C C N N D D H H 
64 128 128 128 128 128 128 128 128 128 128 128 128 
Direct
0.5000000000000000 0.2414000000000000 0.0625000000000000
0.5000000000000000 0.0086000000000000 0.1875000000000001
0.0000000000000000 0.1164000000000000 0.0625000000000000
0.0000000000000000 0.1336000000000000 0.1875000000000001
0.5000000000000000 0.2414000000000000 0.3125000000000001
0.5000000000000000 0.0086000000000000 0.4375000000000001
0.0000000000000000 0.1164000000000000 0.3125000000000001
0.0000000000000000 0.1336000000000000 0.4375000000000001
0.5000000000000000 0.2414000000000000 0.5625000000000001
0.5000000000000000 0.0086000000000000 0.6875000000000002
0.0000000000000000 0.1164000000000000 0.5625000000000001
0.0000000000000000 0.1336000000000000 0.6875000000000002
0.5000000000000000 0.2414000000000000 0.8125000000000002
0.5000000000000000 0.0086000000000000 0.9375000000000002
0.0000000000000000 0.1164000000000000 0.8125000000000002
0.0000000000000000 0.1336000000000000 0.9375000000000002
0.4999999999999999 0.4913999999999999 0.0625000000000000
0.5000000000000000 0.2586000000000000 0.1875000000000001
0.0000000000000000 0.3664000000000000 0.0625000000000000
0.0000000000000000 0.3836000000000000 0.1875000000000001
0.5000000000000000 0.4913999999999999 0.3125000000000001
0.5000000000000000 0.2585999999999999 0.4375000000000001
0.0000000000000000 0.3664000000000000 0.3125000000000001
0.0000000000000000 0.3835999999999999 0.4375000000000001
0.4999999999999999 0.4914000000000000 0.5625000000000001
0.5000000000000000 0.2585999999999999 0.6875000000000002
0.0000000000000000 0.3664000000000000 0.5625000000000001
0.0000000000000000 0.3836000000000000 0.6875000000000002
0.5000000000000000 0.4914000000000000 0.8125000000000002
0.5000000000000000 0.2586000000000000 0.9375000000000002
0.0000000000000000 0.3664000000000000 0.8125000000000002
0.0000000000000000 0.3836000000000000 0.9375000000000002
0.5000000000000000 0.7414000000000001 0.0625000000000000
0.5000000000000000 0.5085999999999999 0.1875000000000001
0.0000000000000000 0.6163999999999999 0.0625000000000000
0.0000000000000000 0.6335999999999999 0.1875000000000001
0.5000000000000000 0.7414000000000001 0.3125000000000001
0.4999999999999999 0.5085999999999999 0.4375000000000001
0.0000000000000000 0.6163999999999999 0.3125000000000001
0.0000000000000000 0.6335999999999999 0.4375000000000001
0.5000000000000001 0.7414000000000001 0.5625000000000001
0.4999999999999999 0.5085999999999999 0.6875000000000002
0.0000000000000000 0.6163999999999999 0.5625000000000001
0.0000000000000000 0.6335999999999999 0.6875000000000002
0.5000000000000000 0.7414000000000001 0.8125000000000002
0.5000000000000000 0.5085999999999998 0.9375000000000002
0.0000000000000000 0.6163999999999999 0.8125000000000002
0.0000000000000000 0.6335999999999998 0.9375000000000002
0.5000000000000000 0.9914000000000001 0.0625000000000000
0.5000000000000000 0.7585999999999999 0.1875000000000001
0.0000000000000000 0.8663999999999999 0.0625000000000000
0.0000000000000000 0.8835999999999999 0.1875000000000001
0.5000000000000000 0.9914000000000001 0.3125000000000001
0.5000000000000000 0.7585999999999999 0.4375000000000001
0.0000000000000000 0.8663999999999999 0.3125000000000001
0.0000000000000000 0.8835999999999999 0.4375000000000001
0.5000000000000001 0.9914000000000001 0.5625000000000001
0.5000000000000001 0.7585999999999999 0.6875000000000002
0.0000000000000000 0.8663999999999999 0.5625000000000001
0.0000000000000000 0.8835999999999999 0.6875000000000002
0.5000000000000000 0.9914000000000001 0.8125000000000002
0.5000000000000000 0.7585999999999998 0.9375000000000002
0.0000000000000000 0.8663999999999999 0.8125000000000002
0.0000000000000000 0.8835999999999998 0.9375000000000002
0.2192000000000000 0.0295000000000000 0.1005000000000000
0.7808000000000000 0.0295000000000000 0.0245000000000000
0.7808000000000000 0.2205000000000000 0.1495000000000000
0.2192000000000000 0.2205000000000000 0.2255000000000001
0.7192000000000001 0.1545000000000000 0.1005000000000000
0.2808000000000000 0.1545000000000000 0.0245000000000000
0.2808000000000000 0.0955000000000000 0.1495000000000000
0.7192000000000001 0.0955000000000000 0.2255000000000001
0.2192000000000000 0.0295000000000000 0.3505000000000001
0.7807999999999999 0.0295000000000000 0.2745000000000000
0.7808000000000000 0.2205000000000000 0.3995000000000001
0.2192000000000000 0.2205000000000000 0.4755000000000001
0.7192000000000001 0.1545000000000000 0.3505000000000001
0.2808000000000000 0.1545000000000000 0.2745000000000000
0.2808000000000000 0.0955000000000000 0.3995000000000001
0.7192000000000001 0.0955000000000000 0.4755000000000001
0.2192000000000000 0.0295000000000000 0.6005000000000003
0.7807999999999999 0.0295000000000000 0.5245000000000001
0.7807999999999999 0.2205000000000000 0.6495000000000002
0.2192000000000000 0.2205000000000000 0.7255000000000003
0.7192000000000002 0.1545000000000000 0.6005000000000003
0.2808000000000000 0.1545000000000000 0.5245000000000001
0.2808000000000000 0.0955000000000000 0.6495000000000002
0.7192000000000001 0.0955000000000000 0.7255000000000003
0.2192000000000000 0.0295000000000000 0.8505000000000003
0.7807999999999999 0.0295000000000000 0.7745000000000002
0.7807999999999999 0.2205000000000000 0.8995000000000002
0.2192000000000000 0.2205000000000000 0.9755000000000003
0.7192000000000002 0.1545000000000000 0.8505000000000003
0.2808000000000000 0.1545000000000000 0.7745000000000002
0.2808000000000000 0.0955000000000000 0.8995000000000002
0.7192000000000001 0.0955000000000000 0.9755000000000003
0.2192000000000000 0.2795000000000000 0.1005000000000000
0.7808000000000000 0.2795000000000000 0.0245000000000000
0.7808000000000000 0.4705000000000000 0.1495000000000000
0.2192000000000000 0.4705000000000000 0.2255000000000001
0.7192000000000001 0.4044999999999999 0.1005000000000000
0.2808000000000000 0.4044999999999999 0.0245000000000000
0.2808000000000001 0.3455000000000000 0.1495000000000000
0.7192000000000001 0.3455000000000000 0.2255000000000001
0.2192000000000000 0.2795000000000000 0.3505000000000001
0.7807999999999999 0.2795000000000000 0.2745000000000000
0.7808000000000000 0.4705000000000000 0.3995000000000001
0.2192000000000000 0.4705000000000000 0.4755000000000001
0.7192000000000001 0.4044999999999999 0.3505000000000001
0.2808000000000000 0.4044999999999999 0.2745000000000000
0.2808000000000000 0.3455000000000000 0.3995000000000001
0.7192000000000001 0.3455000000000000 0.4755000000000001
0.2192000000000000 0.2794999999999999 0.6005000000000003
0.7807999999999999 0.2794999999999999 0.5245000000000001
0.7807999999999999 0.4705000000000000 0.6495000000000002
0.2192000000000000 0.4705000000000000 0.7255000000000003
0.7192000000000002 0.4045000000000000 0.6005000000000003
0.2808000000000000 0.4045000000000000 0.5245000000000001
0.2808000000000000 0.3455000000000000 0.6495000000000002
0.7192000000000001 0.3455000000000000 0.7255000000000003
0.2192000000000000 0.2795000000000000 0.8505000000000003
0.7807999999999999 0.2795000000000000 0.7745000000000002
0.7807999999999999 0.4705000000000000 0.8995000000000002
0.2192000000000000 0.4705000000000000 0.9755000000000003
0.7192000000000002 0.4045000000000000 0.8505000000000003
0.2808000000000000 0.4045000000000000 0.7745000000000002
0.2808000000000000 0.3455000000000000 0.8995000000000002
0.7192000000000001 0.3455000000000000 0.9755000000000003
0.2192000000000000 0.5295000000000000 0.1005000000000000
0.7808000000000000 0.5295000000000000 0.0245000000000000
0.7808000000000000 0.7205000000000000 0.1495000000000000
0.2192000000000000 0.7205000000000000 0.2255000000000001
0.7192000000000001 0.6545000000000000 0.1005000000000000
0.2808000000000000 0.6545000000000000 0.0245000000000000
0.2808000000000000 0.5955000000000000 0.1495000000000000
0.7192000000000001 0.5955000000000000 0.2255000000000001
0.2192000000000000 0.5295000000000000 0.3505000000000001
0.7807999999999999 0.5295000000000000 0.2745000000000000
0.7808000000000000 0.7205000000000000 0.3995000000000001
0.2192000000000000 0.7205000000000000 0.4755000000000001
0.7192000000000001 0.6545000000000000 0.3505000000000001
0.2808000000000000 0.6545000000000000 0.2745000000000000
0.2808000000000000 0.5955000000000000 0.3995000000000001
0.7192000000000001 0.5955000000000000 0.4755000000000001
0.2192000000000000 0.5295000000000000 0.6005000000000003
0.7807999999999999 0.5295000000000000 0.5245000000000001
0.7807999999999999 0.7205000000000000 0.6495000000000002
0.2192000000000000 0.7205000000000000 0.7255000000000003
0.7192000000000002 0.6545000000000000 0.6005000000000003
0.2808000000000000 0.6545000000000000 0.5245000000000001
0.2808000000000000 0.5955000000000000 0.6495000000000002
0.7192000000000001 0.5955000000000000 0.7255000000000003
0.2192000000000000 0.5294999999999999 0.8505000000000003
0.7807999999999999 0.5295000000000000 0.7745000000000002
0.7807999999999999 0.7204999999999999 0.8995000000000002
0.2192000000000000 0.7204999999999999 0.9755000000000003
0.7192000000000002 0.6544999999999999 0.8505000000000003
0.2808000000000000 0.6545000000000000 0.7745000000000002
0.2808000000000000 0.5954999999999999 0.8995000000000002
0.7192000000000001 0.5954999999999999 0.9755000000000003
0.2192000000000000 0.7795000000000000 0.1005000000000000
0.7808000000000000 0.7795000000000000 0.0245000000000000
0.7807999999999999 0.9705000000000000 0.1495000000000000
0.2192000000000001 0.9705000000000000 0.2255000000000001
0.7192000000000000 0.9045000000000000 0.1005000000000000
0.2808000000000000 0.9045000000000000 0.0245000000000000
0.2808000000000000 0.8454999999999999 0.1495000000000000
0.7192000000000000 0.8454999999999999 0.2255000000000001
0.2192000000000000 0.7795000000000000 0.3505000000000001
0.7807999999999999 0.7795000000000000 0.2745000000000000
0.7807999999999999 0.9705000000000000 0.3995000000000001
0.2192000000000000 0.9705000000000000 0.4755000000000001
0.7192000000000000 0.9045000000000000 0.3505000000000001
0.2808000000000000 0.9045000000000000 0.2745000000000000
0.2808000000000000 0.8454999999999999 0.3995000000000001
0.7192000000000000 0.8454999999999999 0.4755000000000001
0.2192000000000000 0.7795000000000000 0.6005000000000003
0.7807999999999999 0.7795000000000000 0.5245000000000001
0.7807999999999999 0.9705000000000000 0.6495000000000002
0.2192000000000000 0.9705000000000000 0.7255000000000003
0.7192000000000001 0.9045000000000000 0.6005000000000003
0.2808000000000000 0.9045000000000000 0.5245000000000001
0.2808000000000000 0.8454999999999999 0.6495000000000002
0.7192000000000000 0.8454999999999999 0.7255000000000003
0.2192000000000000 0.7794999999999999 0.8505000000000003
0.7807999999999999 0.7795000000000000 0.7745000000000002
0.7807999999999998 0.9704999999999999 0.8995000000000002
0.2192000000000000 0.9704999999999999 0.9755000000000003
0.7192000000000001 0.9044999999999999 0.8505000000000003
0.2808000000000000 0.9045000000000000 0.7745000000000002
0.2808000000000000 0.8454999999999998 0.8995000000000002
0.7191999999999998 0.8454999999999998 0.9755000000000003
0.2756000000000000 0.0302500000000000 0.0965000000000000
0.7244000000000000 0.0302500000000000 0.0285000000000000
0.7244000000000000 0.2197500000000000 0.1535000000000000
0.2756000000000001 0.2197499999999999 0.2215000000000001
0.7756000000000001 0.1552500000000000 0.0965000000000000
0.2244000000000000 0.1552500000000000 0.0285000000000000
0.2244000000000000 0.0947500000000000 0.1535000000000000
0.7756000000000001 0.0947500000000000 0.2215000000000001
0.2756000000000001 0.0302500000000000 0.3465000000000001
0.7243999999999999 0.0302500000000000 0.2785000000000000
0.7244000000000000 0.2197500000000000 0.4035000000000001
0.2756000000000001 0.2197500000000000 0.4715000000000001
0.7756000000000002 0.1552500000000000 0.3465000000000001
0.2244000000000000 0.1552500000000000 0.2785000000000000
0.2244000000000000 0.0947500000000000 0.4035000000000001
0.7756000000000001 0.0947500000000000 0.4715000000000001
0.2756000000000000 0.0302500000000000 0.5965000000000001
0.7244000000000000 0.0302500000000000 0.5285000000000001
0.7244000000000000 0.2197499999999999 0.6535000000000001
0.2756000000000000 0.2197499999999999 0.7215000000000001
0.7756000000000002 0.1552500000000000 0.5965000000000001
0.2244000000000000 0.1552500000000000 0.5285000000000001
0.2244000000000000 0.0947500000000000 0.6535000000000001
0.7756000000000001 0.0947500000000000 0.7215000000000001
0.2756000000000001 0.0302500000000000 0.8465000000000001
0.7244000000000000 0.0302500000000000 0.7785000000000001
0.7244000000000002 0.2197500000000000 0.9035000000000001
0.2756000000000000 0.2197500000000000 0.9715000000000001
0.7756000000000002 0.1552500000000000 0.8465000000000001
0.2244000000000000 0.1552500000000000 0.7785000000000001
0.2244000000000000 0.0947500000000000 0.9035000000000001
0.7756000000000001 0.0947500000000000 0.9715000000000001
0.2756000000000001 0.2802500000000000 0.0965000000000000
0.7244000000000000 0.2802500000000000 0.0285000000000000
0.7244000000000000 0.4697500000000000 0.1535000000000000
0.2756000000000000 0.4697500000000000 0.2215000000000001
0.7756000000000001 0.4052499999999999 0.0965000000000000
0.2244000000000000 0.4052499999999999 0.0285000000000000
0.2244000000000000 0.3447500000000000 0.1535000000000000
0.7756000000000001 0.3447500000000000 0.2215000000000001
0.2756000000000001 0.2802500000000001 0.3465000000000001
0.7243999999999999 0.2802500000000001 0.2785000000000000
0.7244000000000000 0.4697500000000000 0.4035000000000001
0.2756000000000000 0.4697499999999999 0.4715000000000001
0.7756000000000002 0.4052499999999999 0.3465000000000001
0.2244000000000000 0.4052499999999999 0.2785000000000000
0.2244000000000000 0.3447500000000000 0.4035000000000001
0.7756000000000001 0.3447499999999999 0.4715000000000001
0.2756000000000000 0.2802500000000000 0.5965000000000001
0.7244000000000000 0.2802500000000000 0.5285000000000001
0.7244000000000000 0.4697500000000000 0.6535000000000001
0.2756000000000000 0.4697500000000000 0.7215000000000001
0.7756000000000002 0.4052499999999999 0.5965000000000001
0.2244000000000000 0.4052499999999999 0.5285000000000001
0.2244000000000000 0.3447500000000000 0.6535000000000001
0.7756000000000001 0.3447500000000000 0.7215000000000001
0.2756000000000001 0.2802500000000000 0.8465000000000001
0.7244000000000000 0.2802500000000000 0.7785000000000001
0.7244000000000002 0.4697500000000000 0.9035000000000001
0.2756000000000000 0.4697500000000000 0.9715000000000001
0.7756000000000002 0.4052499999999999 0.8465000000000001
0.2244000000000000 0.4052499999999999 0.7785000000000001
0.2244000000000000 0.3447500000000000 0.9035000000000001
0.7756000000000001 0.3447500000000000 0.9715000000000001
0.2756000000000000 0.5302500000000000 0.0965000000000000
0.7244000000000000 0.5302500000000000 0.0285000000000000
0.7244000000000000 0.7197500000000000 0.1535000000000000
0.2756000000000000 0.7197500000000000 0.2215000000000001
0.7756000000000001 0.6552500000000000 0.0965000000000000
0.2244000000000000 0.6552500000000000 0.0285000000000000
0.2244000000000000 0.5947500000000000 0.1535000000000000
0.7756000000000001 0.5947500000000000 0.2215000000000001
0.2756000000000000 0.5302500000000000 0.3465000000000001
0.7243999999999999 0.5302500000000000 0.2785000000000000
0.7244000000000000 0.7197500000000000 0.4035000000000001
0.2756000000000000 0.7197500000000000 0.4715000000000001
0.7756000000000002 0.6552500000000000 0.3465000000000001
0.2244000000000000 0.6552500000000000 0.2785000000000000
0.2244000000000000 0.5947500000000000 0.4035000000000001
0.7756000000000001 0.5947500000000000 0.4715000000000001
0.2756000000000000 0.5302500000000000 0.5965000000000001
0.7244000000000000 0.5302500000000000 0.5285000000000001
0.7244000000000000 0.7197500000000000 0.6535000000000001
0.2756000000000000 0.7197500000000000 0.7215000000000001
0.7756000000000002 0.6552500000000000 0.5965000000000001
0.2244000000000000 0.6552500000000000 0.5285000000000001
0.2244000000000000 0.5947500000000001 0.6535000000000001
0.7756000000000001 0.5947500000000001 0.7215000000000001
0.2756000000000001 0.5302499999999999 0.8465000000000001
0.7244000000000000 0.5302500000000000 0.7785000000000001
0.7244000000000002 0.7197499999999999 0.9035000000000001
0.2756000000000000 0.7197499999999999 0.9715000000000001
0.7756000000000002 0.6552499999999999 0.8465000000000001
0.2244000000000000 0.6552500000000000 0.7785000000000001
0.2244000000000000 0.5947500000000000 0.9035000000000001
0.7756000000000001 0.5947500000000000 0.9715000000000001
0.2756000000000000 0.7802499999999999 0.0965000000000000
0.7244000000000000 0.7802499999999999 0.0285000000000000
0.7243999999999999 0.9697500000000000 0.1535000000000000
0.2756000000000001 0.9697500000000000 0.2215000000000001
0.7756000000000000 0.9052500000000000 0.0965000000000000
0.2244000000000000 0.9052500000000000 0.0285000000000000
0.2244000000000000 0.8447499999999999 0.1535000000000000
0.7756000000000000 0.8447499999999999 0.2215000000000001
0.2756000000000000 0.7802499999999999 0.3465000000000001
0.7243999999999999 0.7802499999999999 0.2785000000000000
0.7243999999999999 0.9697500000000000 0.4035000000000001
0.2756000000000001 0.9697500000000000 0.4715000000000001
0.7756000000000001 0.9052500000000000 0.3465000000000001
0.2244000000000000 0.9052500000000000 0.2785000000000000
0.2244000000000000 0.8447499999999999 0.4035000000000001
0.7756000000000000 0.8447499999999999 0.4715000000000001
0.2756000000000000 0.7802499999999999 0.5965000000000001
0.7244000000000000 0.7802499999999999 0.5285000000000001
0.7243999999999999 0.9697500000000000 0.6535000000000001
0.2756000000000001 0.9697500000000000 0.7215000000000001
0.7756000000000001 0.9052500000000000 0.5965000000000001
0.2244000000000000 0.9052500000000000 0.5285000000000001
0.2244000000000000 0.8447499999999999 0.6535000000000001
0.7756000000000000 0.8447499999999999 0.7215000000000001
0.2756000000000000 0.7802499999999998 0.8465000000000001
0.7244000000000000 0.7802499999999999 0.7785000000000001
0.7244000000000000 0.9697499999999999 0.9035000000000001
0.2756000000000001 0.9697499999999999 0.9715000000000001
0.7756000000000001 0.9052499999999999 0.8465000000000001
0.2244000000000000 0.9052500000000000 0.7785000000000001
0.2244000000000000 0.8447499999999998 0.9035000000000001
0.7756000000000000 0.8447499999999998 0.9715000000000001
0.3106000000000000 0.0635000000000000 0.1210000000000000
0.6894000000000001 0.0635000000000000 0.0040000000000000
0.6893999999999999 0.1865000000000000 0.1290000000000000
0.3106000000000000 0.1865000000000000 0.2460000000000000
0.8106000000000001 0.1885000000000000 0.1210000000000000
0.1894000000000000 0.1885000000000000 0.0040000000000000
0.1894000000000000 0.0615000000000000 0.1290000000000000
0.8106000000000000 0.0615000000000000 0.2460000000000000
0.3106000000000000 0.0635000000000000 0.3710000000000001
0.6894000000000000 0.0635000000000000 0.2540000000000001
0.6893999999999999 0.1865000000000000 0.3790000000000001
0.3106000000000000 0.1865000000000000 0.4960000000000001
0.8106000000000000 0.1885000000000000 0.3710000000000001
0.1894000000000000 0.1885000000000000 0.2540000000000001
0.1894000000000000 0.0615000000000000 0.3790000000000001
0.8106000000000000 0.0615000000000000 0.4960000000000001
0.3106000000000000 0.0635000000000000 0.6210000000000001
0.6894000000000000 0.0635000000000000 0.5040000000000001
0.6894000000000000 0.1865000000000000 0.6290000000000001
0.3106000000000000 0.1865000000000000 0.7460000000000001
0.8106000000000000 0.1885000000000000 0.6210000000000001
0.1894000000000000 0.1885000000000000 0.5040000000000001
0.1894000000000000 0.0615000000000000 0.6290000000000001
0.8106000000000001 0.0615000000000000 0.7460000000000001
0.3106000000000000 0.0635000000000000 0.8710000000000001
0.6894000000000000 0.0635000000000000 0.7540000000000001
0.6894000000000000 0.1865000000000000 0.8790000000000002
0.3106000000000000 0.1865000000000000 0.9960000000000002
0.8106000000000000 0.1885000000000000 0.8710000000000001
0.1894000000000000 0.1885000000000000 0.7540000000000001
0.1894000000000000 0.0615000000000000 0.8790000000000002
0.8106000000000001 0.0615000000000000 0.9960000000000002
0.3106000000000001 0.3135000000000000 0.1210000000000000
0.6894000000000001 0.3135000000000000 0.0040000000000000
0.6893999999999999 0.4364999999999999 0.1290000000000000
0.3106000000000000 0.4364999999999999 0.2460000000000000
0.8106000000000001 0.4385000000000000 0.1210000000000000
0.1894000000000000 0.4385000000000000 0.0040000000000000
0.1894000000000000 0.3115000000000000 0.1290000000000000
0.8106000000000000 0.3115000000000000 0.2460000000000000
0.3106000000000000 0.3135000000000000 0.3710000000000001
0.6894000000000000 0.3135000000000000 0.2540000000000001
0.6893999999999999 0.4364999999999999 0.3790000000000001
0.3106000000000000 0.4365000000000000 0.4960000000000001
0.8106000000000000 0.4385000000000000 0.3710000000000001
0.1894000000000000 0.4385000000000000 0.2540000000000001
0.1894000000000000 0.3115000000000000 0.3790000000000001
0.8106000000000000 0.3115000000000000 0.4960000000000001
0.3106000000000001 0.3135000000000000 0.6210000000000001
0.6894000000000000 0.3135000000000000 0.5040000000000001
0.6894000000000000 0.4365000000000000 0.6290000000000001
0.3106000000000000 0.4365000000000000 0.7460000000000001
0.8106000000000000 0.4385000000000000 0.6210000000000001
0.1894000000000000 0.4385000000000000 0.5040000000000001
0.1894000000000000 0.3115000000000000 0.6290000000000001
0.8106000000000001 0.3115000000000000 0.7460000000000001
0.3106000000000000 0.3135000000000000 0.8710000000000001
0.6894000000000000 0.3135000000000000 0.7540000000000001
0.6894000000000000 0.4365000000000000 0.8790000000000002
0.3106000000000000 0.4365000000000000 0.9960000000000002
0.8106000000000000 0.4385000000000000 0.8710000000000001
0.1894000000000000 0.4385000000000000 0.7540000000000001
0.1894000000000000 0.3115000000000000 0.8790000000000002
0.8106000000000001 0.3115000000000000 0.9960000000000002
0.3106000000000000 0.5635000000000000 0.1210000000000000
0.6894000000000001 0.5635000000000000 0.0040000000000000
0.6893999999999999 0.6865000000000000 0.1290000000000000
0.3106000000000000 0.6865000000000000 0.2460000000000000
0.8106000000000001 0.6884999999999999 0.1210000000000000
0.1894000000000000 0.6884999999999999 0.0040000000000000
0.1894000000000000 0.5615000000000000 0.1290000000000000
0.8106000000000000 0.5615000000000000 0.2460000000000000
0.3106000000000000 0.5635000000000000 0.3710000000000001
0.6894000000000000 0.5635000000000000 0.2540000000000001
0.6893999999999999 0.6865000000000000 0.3790000000000001
0.3106000000000000 0.6865000000000000 0.4960000000000001
0.8106000000000000 0.6884999999999999 0.3710000000000001
0.1894000000000000 0.6884999999999999 0.2540000000000001
0.1894000000000000 0.5615000000000000 0.3790000000000001
0.8106000000000000 0.5615000000000000 0.4960000000000001
0.3106000000000000 0.5635000000000000 0.6210000000000001
0.6894000000000000 0.5635000000000000 0.5040000000000001
0.6894000000000000 0.6865000000000000 0.6290000000000001
0.3106000000000000 0.6865000000000000 0.7460000000000001
0.8106000000000000 0.6884999999999999 0.6210000000000001
0.1894000000000000 0.6884999999999999 0.5040000000000001
0.1894000000000000 0.5615000000000000 0.6290000000000001
0.8106000000000001 0.5615000000000000 0.7460000000000001
0.3106000000000000 0.5634999999999999 0.8710000000000001
0.6894000000000000 0.5635000000000000 0.7540000000000001
0.6894000000000000 0.6864999999999999 0.8790000000000002
0.3106000000000000 0.6865000000000000 0.9960000000000002
0.8106000000000000 0.6884999999999998 0.8710000000000001
0.1894000000000000 0.6884999999999999 0.7540000000000001
0.1894000000000000 0.5614999999999999 0.8790000000000002
0.8106000000000001 0.5614999999999999 0.9960000000000002
0.3106000000000000 0.8135000000000000 0.1210000000000000
0.6894000000000001 0.8135000000000000 0.0040000000000000
0.6893999999999998 0.9364999999999999 0.1290000000000000
0.3106000000000001 0.9364999999999999 0.2460000000000000
0.8106000000000000 0.9384999999999999 0.1210000000000000
0.1894000000000000 0.9384999999999999 0.0040000000000000
0.1894000000000000 0.8115000000000000 0.1290000000000000
0.8106000000000000 0.8115000000000000 0.2460000000000000
0.3106000000000000 0.8135000000000000 0.3710000000000001
0.6894000000000000 0.8135000000000000 0.2540000000000001
0.6893999999999998 0.9364999999999999 0.3790000000000001
0.3106000000000000 0.9364999999999999 0.4960000000000001
0.8105999999999999 0.9384999999999999 0.3710000000000001
0.1894000000000001 0.9384999999999999 0.2540000000000001
0.1894000000000000 0.8115000000000000 0.3790000000000001
0.8106000000000000 0.8115000000000000 0.4960000000000001
0.3106000000000000 0.8135000000000000 0.6210000000000001
0.6894000000000000 0.8135000000000000 0.5040000000000001
0.6893999999999999 0.9364999999999999 0.6290000000000001
0.3106000000000000 0.9364999999999999 0.7460000000000001
0.8105999999999999 0.9384999999999999 0.6210000000000001
0.1894000000000000 0.9384999999999999 0.5040000000000001
0.1894000000000000 0.8115000000000000 0.6290000000000001
0.8106000000000001 0.8115000000000000 0.7460000000000001
0.3106000000000000 0.8134999999999999 0.8710000000000001
0.6894000000000000 0.8135000000000000 0.7540000000000001
0.6893999999999999 0.9364999999999998 0.8790000000000002
0.3106000000000000 0.9365000000000000 0.9960000000000002
0.8105999999999999 0.9384999999999998 0.8710000000000001
0.1894000000000000 0.9384999999999999 0.7540000000000001
0.1894000000000000 0.8114999999999999 0.8790000000000002
0.8106000000000001 0.8115000000000000 0.9960000000000002
0.3708000000000000 0.0532500000000000 0.1237500000000000
0.6292000000000000 0.0532500000000000 0.0012500000000000
0.6292000000000000 0.1967500000000000 0.1262500000000000
0.3708000000000000 0.1967500000000000 0.2487500000000001
0.8708000000000001 0.1782500000000000 0.1237500000000000
0.1292000000000000 0.1782500000000000 0.0012500000000000
0.1292000000000000 0.0717500000000000 0.1262500000000000
0.8708000000000000 0.0717500000000000 0.2487500000000001
0.3708000000000001 0.0532500000000000 0.3737500000000001
0.6292000000000001 0.0532500000000000 0.2512500000000000
0.6292000000000001 0.1967500000000000 0.3762500000000000
0.3708000000000001 0.1967500000000000 0.4987500000000001
0.8708000000000001 0.1782500000000000 0.3737500000000001
0.1292000000000000 0.1782500000000000 0.2512500000000000
0.1292000000000000 0.0717500000000000 0.3762500000000000
0.8708000000000000 0.0717500000000000 0.4987500000000001
0.3708000000000001 0.0532500000000000 0.6237500000000001
0.6292000000000001 0.0532500000000000 0.5012500000000001
0.6292000000000000 0.1967500000000000 0.6262500000000001
0.3708000000000001 0.1967500000000000 0.7487500000000001
0.8707999999999999 0.1782500000000000 0.6237500000000001
0.1292000000000000 0.1782500000000000 0.5012500000000001
0.1292000000000000 0.0717500000000000 0.6262500000000001
0.8708000000000000 0.0717500000000000 0.7487500000000001
0.3708000000000001 0.0532500000000000 0.8737500000000002
0.6292000000000000 0.0532500000000000 0.7512500000000001
0.6292000000000001 0.1967500000000000 0.8762500000000002
0.3708000000000001 0.1967500000000000 0.9987500000000002
0.8707999999999999 0.1782500000000000 0.8737500000000002
0.1292000000000000 0.1782500000000000 0.7512500000000001
0.1292000000000000 0.0717500000000000 0.8762500000000002
0.8708000000000000 0.0717500000000000 0.9987500000000002
0.3708000000000000 0.3032500000000000 0.1237500000000000
0.6292000000000000 0.3032500000000000 0.0012500000000000
0.6292000000000000 0.4467499999999999 0.1262500000000000
0.3708000000000000 0.4467499999999999 0.2487500000000001
0.8708000000000001 0.4282500000000000 0.1237500000000000
0.1292000000000000 0.4282500000000000 0.0012500000000000
0.1292000000000000 0.3217499999999999 0.1262500000000000
0.8708000000000000 0.3217499999999999 0.2487500000000001
0.3708000000000001 0.3032500000000000 0.3737500000000001
0.6292000000000001 0.3032500000000000 0.2512500000000000
0.6292000000000001 0.4467499999999999 0.3762500000000000
0.3708000000000000 0.4467499999999999 0.4987500000000001
0.8708000000000001 0.4282500000000000 0.3737500000000001
0.1292000000000000 0.4282500000000000 0.2512500000000000
0.1292000000000000 0.3217499999999999 0.3762500000000000
0.8708000000000000 0.3217499999999999 0.4987500000000001
0.3708000000000001 0.3032500000000000 0.6237500000000001
0.6292000000000001 0.3032500000000000 0.5012500000000001
0.6292000000000000 0.4467499999999999 0.6262500000000001
0.3708000000000000 0.4467499999999999 0.7487500000000001
0.8707999999999999 0.4282500000000000 0.6237500000000001
0.1292000000000000 0.4282500000000000 0.5012500000000001
0.1292000000000000 0.3217499999999999 0.6262500000000001
0.8708000000000000 0.3217499999999999 0.7487500000000001
0.3708000000000001 0.3032500000000000 0.8737500000000002
0.6292000000000000 0.3032500000000000 0.7512500000000001
0.6292000000000001 0.4467499999999999 0.8762500000000002
0.3708000000000000 0.4467499999999999 0.9987500000000002
0.8707999999999999 0.4282500000000000 0.8737500000000002
0.1292000000000000 0.4282500000000000 0.7512500000000001
0.1292000000000000 0.3217499999999999 0.8762500000000002
0.8708000000000000 0.3217499999999999 0.9987500000000002
0.3708000000000000 0.5532500000000000 0.1237500000000000
0.6292000000000001 0.5532500000000000 0.0012500000000000
0.6292000000000001 0.6967499999999999 0.1262500000000000
0.3708000000000001 0.6967499999999999 0.2487500000000001
0.8708000000000001 0.6782499999999999 0.1237500000000000
0.1292000000000000 0.6782499999999999 0.0012500000000000
0.1292000000000000 0.5717500000000000 0.1262500000000000
0.8708000000000000 0.5717500000000000 0.2487500000000001
0.3708000000000001 0.5532500000000000 0.3737500000000001
0.6292000000000001 0.5532500000000000 0.2512500000000000
0.6292000000000001 0.6967499999999999 0.3762500000000000
0.3708000000000001 0.6967499999999999 0.4987500000000001
0.8708000000000001 0.6782499999999999 0.3737500000000001
0.1292000000000000 0.6782499999999999 0.2512500000000000
0.1292000000000000 0.5717500000000000 0.3762500000000000
0.8708000000000000 0.5717500000000000 0.4987500000000001
0.3708000000000001 0.5532500000000001 0.6237500000000001
0.6292000000000001 0.5532500000000001 0.5012500000000001
0.6292000000000001 0.6967499999999999 0.6262500000000001
0.3708000000000001 0.6967499999999999 0.7487500000000001
0.8707999999999999 0.6782499999999999 0.6237500000000001
0.1292000000000000 0.6782499999999999 0.5012500000000001
0.1292000000000000 0.5717500000000000 0.6262500000000001
0.8708000000000000 0.5717500000000000 0.7487500000000001
0.3708000000000001 0.5532500000000000 0.8737500000000002
0.6292000000000001 0.5532500000000001 0.7512500000000001
0.6292000000000001 0.6967499999999998 0.8762500000000002
0.3708000000000001 0.6967500000000000 0.9987500000000002
0.8707999999999999 0.6782499999999998 0.8737500000000002
0.1292000000000000 0.6782499999999999 0.7512500000000001
0.1292000000000000 0.5717499999999999 0.8762500000000002
0.8708000000000000 0.5717499999999999 0.9987500000000002
0.3708000000000000 0.8032500000000000 0.1237500000000000
0.6292000000000001 0.8032500000000000 0.0012500000000000
0.6292000000000000 0.9467499999999999 0.1262500000000000
0.3708000000000001 0.9467499999999999 0.2487500000000001
0.8708000000000000 0.9282499999999999 0.1237500000000000
0.1292000000000000 0.9282499999999999 0.0012500000000000
0.1292000000000000 0.8217500000000000 0.1262500000000000
0.8708000000000000 0.8217500000000000 0.2487500000000001
0.3708000000000001 0.8032500000000000 0.3737500000000001
0.6292000000000001 0.8032500000000000 0.2512500000000000
0.6292000000000000 0.9467499999999999 0.3762500000000000
0.3708000000000001 0.9467499999999999 0.4987500000000001
0.8708000000000000 0.9282499999999999 0.3737500000000001
0.1292000000000000 0.9282499999999999 0.2512500000000000
0.1292000000000000 0.8217500000000000 0.3762500000000000
0.8708000000000000 0.8217500000000000 0.4987500000000001
0.3708000000000001 0.8032500000000000 0.6237500000000001
0.6292000000000001 0.8032500000000000 0.5012500000000001
0.6292000000000000 0.9467499999999999 0.6262500000000001
0.3708000000000001 0.9467499999999999 0.7487500000000001
0.8707999999999998 0.9282499999999999 0.6237500000000001
0.1292000000000000 0.9282499999999999 0.5012500000000001
0.1292000000000000 0.8217500000000000 0.6262500000000001
0.8708000000000000 0.8217500000000000 0.7487500000000001
0.3708000000000001 0.8032499999999999 0.8737500000000002
0.6292000000000001 0.8032500000000000 0.7512500000000001
0.6292000000000000 0.9467499999999998 0.8762500000000002
0.3708000000000001 0.9467500000000000 0.9987500000000002
0.8707999999999998 0.9282499999999998 0.8737500000000002
0.1292000000000000 0.9282499999999999 0.7512500000000001
0.1292000000000000 0.8217499999999999 0.8762500000000002
0.8708000000000000 0.8217500000000000 0.9987500000000002
0.4000000000000001 0.0285000000000000 0.0900000000000000
0.6000000000000000 0.0285000000000000 0.0350000000000000
0.6000000000000000 0.2215000000000000 0.1600000000000000
0.4000000000000000 0.2215000000000000 0.2150000000000000
0.9000000000000001 0.1535000000000000 0.0900000000000000
0.1000000000000000 0.1535000000000000 0.0350000000000000
0.1000000000000000 0.0965000000000000 0.1600000000000000
0.9000000000000001 0.0965000000000000 0.2150000000000000
0.4000000000000000 0.0285000000000000 0.3400000000000001
0.6000000000000000 0.0285000000000000 0.2850000000000001
0.6000000000000000 0.2215000000000000 0.4100000000000001
0.4000000000000000 0.2215000000000000 0.4650000000000001
0.9000000000000001 0.1535000000000000 0.3400000000000001
0.1000000000000000 0.1535000000000000 0.2850000000000001
0.1000000000000000 0.0965000000000000 0.4100000000000001
0.9000000000000001 0.0965000000000000 0.4650000000000001
0.4000000000000000 0.0285000000000000 0.5900000000000001
0.6000000000000000 0.0285000000000000 0.5350000000000001
0.6000000000000001 0.2215000000000000 0.6600000000000001
0.4000000000000000 0.2215000000000000 0.7150000000000001
0.9000000000000001 0.1535000000000000 0.5900000000000001
0.1000000000000000 0.1535000000000000 0.5350000000000001
0.1000000000000000 0.0965000000000000 0.6600000000000001
0.9000000000000002 0.0965000000000000 0.7150000000000001
0.4000000000000000 0.0285000000000000 0.8400000000000001
0.6000000000000001 0.0285000000000000 0.7850000000000001
0.6000000000000001 0.2215000000000000 0.9100000000000001
0.4000000000000000 0.2215000000000000 0.9650000000000001
0.9000000000000001 0.1535000000000000 0.8400000000000001
0.1000000000000000 0.1535000000000000 0.7850000000000001
0.1000000000000000 0.0965000000000000 0.9100000000000001
0.9000000000000002 0.0965000000000000 0.9650000000000001
0.4000000000000001 0.2785000000000000 0.0900000000000000
0.6000000000000000 0.2785000000000000 0.0350000000000000
0.6000000000000000 0.4715000000000000 0.1600000000000000
0.4000000000000000 0.4715000000000000 0.2150000000000000
0.9000000000000001 0.4035000000000000 0.0900000000000000
0.1000000000000000 0.4035000000000000 0.0350000000000000
0.1000000000000000 0.3465000000000000 0.1600000000000000
0.9000000000000001 0.3465000000000000 0.2150000000000000
0.4000000000000000 0.2785000000000000 0.3400000000000001
0.6000000000000000 0.2785000000000000 0.2850000000000001
0.6000000000000000 0.4714999999999999 0.4100000000000001
0.3999999999999999 0.4714999999999999 0.4650000000000001
0.9000000000000001 0.4035000000000000 0.3400000000000001
0.1000000000000000 0.4035000000000000 0.2850000000000001
0.1000000000000000 0.3464999999999999 0.4100000000000001
0.9000000000000001 0.3464999999999999 0.4650000000000001
0.4000000000000000 0.2785000000000000 0.5900000000000001
0.6000000000000000 0.2785000000000000 0.5350000000000001
0.6000000000000001 0.4715000000000000 0.6600000000000001
0.4000000000000000 0.4715000000000000 0.7150000000000001
0.9000000000000001 0.4035000000000000 0.5900000000000001
0.1000000000000000 0.4035000000000000 0.5350000000000001
0.1000000000000000 0.3465000000000000 0.6600000000000001
0.9000000000000002 0.3465000000000000 0.7150000000000001
0.4000000000000000 0.2785000000000000 0.8400000000000001
0.6000000000000001 0.2785000000000000 0.7850000000000001
0.6000000000000001 0.4715000000000000 0.9100000000000001
0.4000000000000000 0.4715000000000000 0.9650000000000001
0.9000000000000001 0.4035000000000000 0.8400000000000001
0.1000000000000000 0.4035000000000000 0.7850000000000001
0.1000000000000000 0.3465000000000000 0.9100000000000001
0.9000000000000002 0.3465000000000000 0.9650000000000001
0.4000000000000000 0.5285000000000000 0.0900000000000000
0.6000000000000000 0.5285000000000000 0.0350000000000000
0.6000000000000001 0.7214999999999999 0.1600000000000000
0.4000000000000000 0.7214999999999999 0.2150000000000000
0.9000000000000001 0.6534999999999999 0.0900000000000000
0.1000000000000000 0.6534999999999999 0.0350000000000000
0.1000000000000000 0.5965000000000000 0.1600000000000000
0.9000000000000001 0.5965000000000000 0.2150000000000000
0.4000000000000000 0.5285000000000000 0.3400000000000001
0.6000000000000000 0.5285000000000000 0.2850000000000001
0.6000000000000001 0.7214999999999999 0.4100000000000001
0.4000000000000000 0.7214999999999999 0.4650000000000001
0.9000000000000001 0.6534999999999999 0.3400000000000001
0.1000000000000000 0.6534999999999999 0.2850000000000001
0.1000000000000000 0.5965000000000000 0.4100000000000001
0.9000000000000001 0.5965000000000000 0.4650000000000001
0.4000000000000000 0.5285000000000001 0.5900000000000001
0.6000000000000000 0.5285000000000001 0.5350000000000001
0.6000000000000001 0.7214999999999999 0.6600000000000001
0.4000000000000000 0.7214999999999999 0.7150000000000001
0.9000000000000001 0.6534999999999999 0.5900000000000001
0.1000000000000000 0.6534999999999999 0.5350000000000001
0.1000000000000000 0.5965000000000000 0.6600000000000001
0.9000000000000002 0.5965000000000000 0.7150000000000001
0.4000000000000000 0.5285000000000000 0.8400000000000001
0.6000000000000001 0.5285000000000001 0.7850000000000001
0.6000000000000001 0.7214999999999998 0.9100000000000001
0.4000000000000001 0.7214999999999998 0.9650000000000001
0.9000000000000001 0.6534999999999997 0.8400000000000001
0.1000000000000000 0.6534999999999999 0.7850000000000001
0.1000000000000000 0.5964999999999999 0.9100000000000001
0.9000000000000002 0.5964999999999999 0.9650000000000001
0.4000000000000001 0.7785000000000000 0.0900000000000000
0.6000000000000001 0.7785000000000000 0.0350000000000000
0.6000000000000000 0.9714999999999999 0.1600000000000000
0.4000000000000000 0.9714999999999999 0.2150000000000000
0.8999999999999999 0.9034999999999999 0.0900000000000000
0.1000000000000000 0.9034999999999999 0.0350000000000000
0.1000000000000000 0.8465000000000000 0.1600000000000000
0.9000000000000000 0.8465000000000000 0.2150000000000000
0.4000000000000000 0.7785000000000000 0.3400000000000001
0.6000000000000001 0.7785000000000000 0.2850000000000001
0.6000000000000000 0.9714999999999999 0.4100000000000001
0.4000000000000000 0.9714999999999999 0.4650000000000001
0.9000000000000000 0.9034999999999999 0.3400000000000001
0.1000000000000000 0.9034999999999999 0.2850000000000001
0.1000000000000000 0.8465000000000000 0.4100000000000001
0.9000000000000000 0.8465000000000000 0.4650000000000001
0.4000000000000000 0.7785000000000000 0.5900000000000001
0.6000000000000001 0.7785000000000000 0.5350000000000001
0.6000000000000000 0.9714999999999999 0.6600000000000001
0.4000000000000000 0.9714999999999999 0.7150000000000001
0.9000000000000000 0.9034999999999999 0.5900000000000001
0.1000000000000000 0.9034999999999999 0.5350000000000001
0.1000000000000000 0.8465000000000000 0.6600000000000001
0.9000000000000001 0.8465000000000000 0.7150000000000001
0.4000000000000000 0.7784999999999999 0.8400000000000001
0.6000000000000001 0.7785000000000000 0.7850000000000001
0.6000000000000000 0.9714999999999998 0.9100000000000001
0.4000000000000001 0.9714999999999998 0.9650000000000001
0.9000000000000000 0.9034999999999997 0.8400000000000001
0.1000000000000000 0.9034999999999999 0.7850000000000001
0.1000000000000000 0.8464999999999999 0.9100000000000001
0.9000000000000001 0.8464999999999999 0.9650000000000001
0.4080000000000000 0.0720000000000000 0.1580000000000001
0.5920000000000001 0.0720000000000000 0.2170000000000001
0.5920000000000001 0.1780000000000000 0.0920000000000000
0.4080000000000000 0.1780000000000000 0.0330000000000000
0.9080000000000001 0.1970000000000000 0.1580000000000001
0.0920000000000001 0.1970000000000000 0.2170000000000001
0.0920000000000000 0.0530000000000000 0.0920000000000000
0.9080000000000000 0.0530000000000000 0.0330000000000000
0.4080000000000000 0.0720000000000000 0.4080000000000001
0.5920000000000001 0.0720000000000000 0.4670000000000000
0.5920000000000001 0.1780000000000000 0.3420000000000000
0.4080000000000000 0.1780000000000000 0.2830000000000001
0.9080000000000000 0.1970000000000000 0.4080000000000001
0.0920000000000000 0.1970000000000000 0.4670000000000000
0.0920000000000000 0.0530000000000000 0.3420000000000000
0.9079999999999999 0.0530000000000000 0.2830000000000001
0.4080000000000000 0.0720000000000000 0.6580000000000001
0.5920000000000002 0.0720000000000000 0.7170000000000001
0.5920000000000002 0.1780000000000000 0.5920000000000001
0.4080000000000000 0.1780000000000000 0.5330000000000001
0.9080000000000000 0.1970000000000000 0.6580000000000001
0.0920000000000001 0.1970000000000000 0.7170000000000001
0.0920000000000000 0.0530000000000000 0.5920000000000001
0.9080000000000000 0.0530000000000000 0.5330000000000001
0.4080000000000000 0.0720000000000000 0.9080000000000003
0.5920000000000002 0.0720000000000000 0.9670000000000002
0.5920000000000002 0.1780000000000000 0.8420000000000002
0.4080000000000000 0.1780000000000000 0.7830000000000001
0.9079999999999999 0.1970000000000000 0.9080000000000003
0.0920000000000001 0.1970000000000000 0.9670000000000002
0.0920000000000000 0.0530000000000000 0.8420000000000002
0.9080000000000000 0.0530000000000000 0.7830000000000001
0.4080000000000000 0.3220000000000000 0.1580000000000001
0.5920000000000001 0.3220000000000000 0.2170000000000001
0.5920000000000001 0.4280000000000000 0.0920000000000000
0.4079999999999999 0.4280000000000000 0.0330000000000000
0.9080000000000001 0.4470000000000000 0.1580000000000001
0.0920000000000001 0.4470000000000000 0.2170000000000001
0.0920000000000000 0.3030000000000000 0.0920000000000000
0.9080000000000000 0.3030000000000000 0.0330000000000000
0.4080000000000000 0.3220000000000000 0.4080000000000001
0.5920000000000001 0.3219999999999999 0.4670000000000000
0.5920000000000001 0.4280000000000000 0.3420000000000000
0.4079999999999999 0.4280000000000000 0.2830000000000001
0.9080000000000000 0.4470000000000000 0.4080000000000001
0.0920000000000000 0.4469999999999999 0.4670000000000000
0.0920000000000001 0.3030000000000000 0.3420000000000000
0.9079999999999999 0.3030000000000000 0.2830000000000001
0.4080000000000000 0.3220000000000000 0.6580000000000001
0.5920000000000002 0.3220000000000000 0.7170000000000001
0.5920000000000002 0.4280000000000000 0.5920000000000001
0.4080000000000000 0.4280000000000000 0.5330000000000001
0.9080000000000000 0.4470000000000000 0.6580000000000001
0.0920000000000001 0.4470000000000000 0.7170000000000001
0.0920000000000000 0.3030000000000000 0.5920000000000001
0.9080000000000000 0.3030000000000000 0.5330000000000001
0.4080000000000000 0.3220000000000000 0.9080000000000003
0.5920000000000002 0.3220000000000000 0.9670000000000002
0.5920000000000002 0.4280000000000000 0.8420000000000002
0.4079999999999999 0.4280000000000000 0.7830000000000001
0.9079999999999999 0.4470000000000000 0.9080000000000003
0.0920000000000001 0.4470000000000000 0.9670000000000002
0.0920000000000000 0.3030000000000000 0.8420000000000002
0.9080000000000000 0.3030000000000000 0.7830000000000001
0.4080000000000000 0.5720000000000000 0.1580000000000001
0.5920000000000002 0.5720000000000000 0.2170000000000001
0.5920000000000002 0.6779999999999998 0.0920000000000000
0.4080000000000000 0.6779999999999998 0.0330000000000000
0.9080000000000001 0.6970000000000001 0.1580000000000001
0.0920000000000001 0.6970000000000001 0.2170000000000001
0.0920000000000000 0.5529999999999999 0.0920000000000000
0.9080000000000000 0.5529999999999999 0.0330000000000000
0.4080000000000000 0.5720000000000000 0.4080000000000001
0.5920000000000002 0.5720000000000000 0.4670000000000000
0.5920000000000002 0.6779999999999998 0.3420000000000000
0.4080000000000000 0.6779999999999998 0.2830000000000001
0.9080000000000000 0.6970000000000001 0.4080000000000001
0.0920000000000000 0.6970000000000001 0.4670000000000000
0.0920000000000000 0.5529999999999999 0.3420000000000000
0.9079999999999999 0.5529999999999999 0.2830000000000001
0.4080000000000000 0.5720000000000001 0.6580000000000001
0.5920000000000002 0.5720000000000001 0.7170000000000001
0.5920000000000002 0.6779999999999998 0.5920000000000001
0.4080000000000000 0.6779999999999998 0.5330000000000001
0.9080000000000000 0.6970000000000001 0.6580000000000001
0.0920000000000001 0.6970000000000001 0.7170000000000001
0.0920000000000000 0.5530000000000000 0.5920000000000001
0.9080000000000000 0.5530000000000000 0.5330000000000001
0.4080000000000000 0.5720000000000000 0.9080000000000003
0.5920000000000003 0.5720000000000000 0.9670000000000002
0.5920000000000002 0.6779999999999997 0.8420000000000002
0.4080000000000000 0.6779999999999998 0.7830000000000001
0.9079999999999999 0.6970000000000000 0.9080000000000003
0.0920000000000001 0.6970000000000000 0.9670000000000002
0.0920000000000001 0.5529999999999999 0.8420000000000002
0.9080000000000000 0.5530000000000000 0.7830000000000001
0.4080000000000000 0.8220000000000000 0.1580000000000001
0.5920000000000002 0.8220000000000000 0.2170000000000001
0.5920000000000001 0.9279999999999998 0.0920000000000000
0.4080000000000000 0.9279999999999998 0.0330000000000000
0.9080000000000000 0.9470000000000000 0.1580000000000001
0.0920000000000000 0.9470000000000000 0.2170000000000001
0.0920000000000000 0.8030000000000000 0.0920000000000000
0.9080000000000000 0.8030000000000000 0.0330000000000000
0.4080000000000000 0.8220000000000000 0.4080000000000001
0.5920000000000002 0.8220000000000000 0.4670000000000000
0.5920000000000001 0.9279999999999998 0.3420000000000000
0.4080000000000000 0.9279999999999998 0.2830000000000001
0.9079999999999999 0.9470000000000000 0.4080000000000001
0.0920000000000000 0.9470000000000000 0.4670000000000000
0.0920000000000000 0.8030000000000000 0.3420000000000000
0.9079999999999999 0.8030000000000000 0.2830000000000001
0.4080000000000000 0.8220000000000000 0.6580000000000001
0.5920000000000002 0.8220000000000000 0.7170000000000001
0.5920000000000001 0.9279999999999998 0.5920000000000001
0.4080000000000000 0.9279999999999998 0.5330000000000001
0.9079999999999999 0.9470000000000000 0.6580000000000001
0.0920000000000000 0.9470000000000000 0.7170000000000001
0.0920000000000000 0.8030000000000000 0.5920000000000001
0.9080000000000000 0.8030000000000000 0.5330000000000001
0.4080000000000000 0.8219999999999998 0.9080000000000003
0.5920000000000003 0.8219999999999998 0.9670000000000002
0.5920000000000001 0.9279999999999997 0.8420000000000002
0.4080000000000000 0.9279999999999998 0.7830000000000001
0.9079999999999998 0.9469999999999998 0.9080000000000003
0.0920000000000000 0.9469999999999998 0.9670000000000002
0.0920000000000001 0.8029999999999999 0.8420000000000002
0.9080000000000000 0.8030000000000000 0.7830000000000001
0.4561000000000001 0.0300000000000000 0.0997500000000000
0.5439000000000001 0.0300000000000000 0.0252500000000000
0.5439000000000001 0.2200000000000000 0.1502500000000000
0.4561000000000001 0.2200000000000000 0.2247500000000001
0.9561000000000001 0.1550000000000000 0.0997500000000000
0.0439000000000000 0.1550000000000000 0.0252500000000000
0.0439000000000000 0.0950000000000000 0.1502500000000000
0.9560999999999999 0.0950000000000000 0.2247500000000001
0.4561000000000000 0.0300000000000000 0.3497500000000001
0.5439000000000001 0.0300000000000000 0.2752500000000001
0.5439000000000001 0.2200000000000000 0.4002500000000001
0.4560999999999999 0.2200000000000000 0.4747500000000001
0.9561000000000001 0.1550000000000000 0.3497500000000001
0.0439000000000000 0.1550000000000000 0.2752500000000001
0.0439000000000000 0.0950000000000000 0.4002500000000001
0.9561000000000001 0.0950000000000000 0.4747500000000001
0.4560999999999999 0.0300000000000000 0.5997500000000001
0.5439000000000001 0.0300000000000000 0.5252500000000001
0.5439000000000001 0.2200000000000000 0.6502500000000001
0.4561000000000000 0.2200000000000000 0.7247500000000001
0.9561000000000001 0.1550000000000000 0.5997500000000001
0.0439000000000000 0.1550000000000000 0.5252500000000001
0.0439000000000000 0.0950000000000000 0.6502500000000001
0.9561000000000001 0.0950000000000000 0.7247500000000001
0.4561000000000000 0.0300000000000000 0.8497500000000001
0.5439000000000001 0.0300000000000000 0.7752500000000001
0.5439000000000001 0.2200000000000000 0.9002500000000001
0.4561000000000000 0.2200000000000000 0.9747500000000001
0.9561000000000002 0.1550000000000000 0.8497500000000001
0.0439000000000000 0.1550000000000000 0.7752500000000001
0.0439000000000000 0.0950000000000000 0.9002500000000001
0.9561000000000001 0.0950000000000000 0.9747500000000001
0.4561000000000001 0.2800000000000000 0.0997500000000000
0.5439000000000001 0.2800000000000000 0.0252500000000000
0.5439000000000001 0.4700000000000000 0.1502500000000000
0.4561000000000000 0.4700000000000000 0.2247500000000001
0.9561000000000001 0.4050000000000000 0.0997500000000000
0.0439000000000000 0.4050000000000000 0.0252500000000000
0.0439000000000000 0.3450000000000000 0.1502500000000000
0.9560999999999999 0.3450000000000000 0.2247500000000001
0.4561000000000000 0.2800000000000000 0.3497500000000001
0.5439000000000001 0.2800000000000000 0.2752500000000001
0.5439000000000001 0.4700000000000000 0.4002500000000001
0.4560999999999999 0.4699999999999999 0.4747500000000001
0.9561000000000001 0.4050000000000000 0.3497500000000001
0.0439000000000000 0.4050000000000000 0.2752500000000001
0.0439000000000000 0.3450000000000000 0.4002500000000001
0.9561000000000001 0.3449999999999999 0.4747500000000001
0.4560999999999999 0.2800000000000000 0.5997500000000001
0.5439000000000001 0.2800000000000000 0.5252500000000001
0.5439000000000001 0.4700000000000000 0.6502500000000001
0.4560999999999999 0.4700000000000000 0.7247500000000001
0.9561000000000001 0.4050000000000000 0.5997500000000001
0.0439000000000000 0.4050000000000000 0.5252500000000001
0.0439000000000000 0.3450000000000000 0.6502500000000001
0.9561000000000001 0.3450000000000000 0.7247500000000001
0.4561000000000000 0.2800000000000000 0.8497500000000001
0.5439000000000001 0.2800000000000000 0.7752500000000001
0.5439000000000001 0.4700000000000000 0.9002500000000001
0.4560999999999999 0.4700000000000000 0.9747500000000001
0.9561000000000002 0.4050000000000000 0.8497500000000001
0.0439000000000000 0.4050000000000000 0.7752500000000001
0.0439000000000000 0.3450000000000000 0.9002500000000001
0.9561000000000001 0.3450000000000000 0.9747500000000001
0.4561000000000000 0.5300000000000000 0.0997500000000000
0.5439000000000001 0.5300000000000000 0.0252500000000000
0.5439000000000001 0.7200000000000000 0.1502500000000000
0.4561000000000001 0.7200000000000000 0.2247500000000001
0.9561000000000001 0.6550000000000000 0.0997500000000000
0.0439000000000000 0.6550000000000000 0.0252500000000000
0.0439000000000000 0.5950000000000000 0.1502500000000000
0.9560999999999999 0.5950000000000000 0.2247500000000001
0.4560999999999999 0.5300000000000000 0.3497500000000001
0.5439000000000001 0.5300000000000000 0.2752500000000001
0.5439000000000002 0.7200000000000000 0.4002500000000001
0.4561000000000001 0.7200000000000000 0.4747500000000001
0.9561000000000001 0.6550000000000000 0.3497500000000001
0.0439000000000000 0.6550000000000000 0.2752500000000001
0.0439000000000000 0.5950000000000000 0.4002500000000001
0.9561000000000001 0.5950000000000000 0.4747500000000001
0.4560999999999999 0.5300000000000000 0.5997500000000001
0.5439000000000001 0.5300000000000000 0.5252500000000001
0.5439000000000002 0.7200000000000000 0.6502500000000001
0.4561000000000000 0.7200000000000000 0.7247500000000001
0.9561000000000001 0.6550000000000000 0.5997500000000001
0.0439000000000000 0.6550000000000000 0.5252500000000001
0.0439000000000000 0.5950000000000000 0.6502500000000001
0.9561000000000001 0.5950000000000000 0.7247500000000001
0.4560999999999999 0.5299999999999999 0.8497500000000001
0.5439000000000001 0.5300000000000000 0.7752500000000001
0.5439000000000002 0.7199999999999999 0.9002500000000001
0.4561000000000001 0.7199999999999999 0.9747500000000001
0.9561000000000002 0.6549999999999999 0.8497500000000001
0.0439000000000000 0.6550000000000000 0.7752500000000001
0.0439000000000000 0.5949999999999999 0.9002500000000001
0.9561000000000001 0.5949999999999999 0.9747500000000001
0.4561000000000001 0.7800000000000000 0.0997500000000000
0.5439000000000001 0.7800000000000000 0.0252500000000000
0.5438999999999999 0.9700000000000000 0.1502500000000000
0.4561000000000001 0.9700000000000000 0.2247500000000001
0.9560999999999999 0.9050000000000000 0.0997500000000000
0.0439000000000000 0.9050000000000000 0.0252500000000000
0.0439000000000000 0.8449999999999999 0.1502500000000000
0.9560999999999998 0.8449999999999999 0.2247500000000001
0.4561000000000000 0.7800000000000000 0.3497500000000001
0.5439000000000001 0.7800000000000000 0.2752500000000001
0.5439000000000001 0.9700000000000000 0.4002500000000001
0.4561000000000001 0.9700000000000000 0.4747500000000001
0.9560999999999999 0.9050000000000000 0.3497500000000001
0.0439000000000000 0.9050000000000000 0.2752500000000001
0.0439000000000000 0.8449999999999999 0.4002500000000001
0.9560999999999999 0.8449999999999999 0.4747500000000001
0.4561000000000000 0.7800000000000000 0.5997500000000001
0.5439000000000002 0.7800000000000000 0.5252500000000001
0.5439000000000001 0.9700000000000000 0.6502500000000001
0.4561000000000000 0.9700000000000000 0.7247500000000001
0.9560999999999999 0.9050000000000000 0.5997500000000001
0.0439000000000000 0.9050000000000000 0.5252500000000001
0.0439000000000000 0.8449999999999999 0.6502500000000001
0.9560999999999999 0.8449999999999999 0.7247500000000001
0.4561000000000000 0.7799999999999999 0.8497500000000001
0.5439000000000002 0.7800000000000000 0.7752500000000001
0.5439000000000001 0.9699999999999999 0.9002500000000001
0.4561000000000001 0.9699999999999999 0.9747500000000001
0.9561000000000001 0.9049999999999999 0.8497500000000001
0.0439000000000000 0.9050000000000000 0.7752500000000001
0.0439000000000000 0.8449999999999998 0.9002500000000001
0.9560999999999999 0.8449999999999998 0.9747500000000001
0.4608000000000000 0.0555000000000000 0.1505000000000000
0.5392000000000001 0.0555000000000000 0.2245000000000001
0.5392000000000001 0.1945000000000000 0.0995000000000000
0.4608000000000000 0.1945000000000000 0.0255000000000000
0.9608000000000001 0.1805000000000000 0.1505000000000000
0.0392000000000000 0.1804999999999999 0.2245000000000001
0.0392000000000000 0.0695000000000000 0.0995000000000000
0.9608000000000000 0.0695000000000000 0.0255000000000000
0.4608000000000000 0.0555000000000000 0.4005000000000001
0.5392000000000000 0.0555000000000000 0.4745000000000001
0.5392000000000000 0.1945000000000000 0.3495000000000001
0.4608000000000000 0.1945000000000000 0.2755000000000000
0.9608000000000000 0.1805000000000000 0.4005000000000001
0.0392000000000000 0.1805000000000000 0.4745000000000001
0.0392000000000000 0.0695000000000000 0.3495000000000001
0.9608000000000001 0.0695000000000000 0.2755000000000000
0.4608000000000000 0.0555000000000000 0.6505000000000002
0.5392000000000000 0.0555000000000000 0.7245000000000003
0.5392000000000000 0.1945000000000000 0.5995000000000001
0.4608000000000000 0.1945000000000000 0.5255000000000001
0.9608000000000000 0.1804999999999999 0.6505000000000002
0.0392000000000000 0.1804999999999999 0.7245000000000003
0.0392000000000000 0.0695000000000000 0.5995000000000001
0.9608000000000001 0.0695000000000000 0.5255000000000001
0.4608000000000000 0.0555000000000000 0.9005000000000002
0.5392000000000000 0.0555000000000000 0.9745000000000003
0.5392000000000001 0.1945000000000000 0.8495000000000003
0.4608000000000000 0.1945000000000000 0.7755000000000002
0.9608000000000001 0.1805000000000000 0.9005000000000002
0.0392000000000000 0.1805000000000000 0.9745000000000003
0.0392000000000000 0.0695000000000000 0.8495000000000003
0.9608000000000001 0.0695000000000000 0.7755000000000002
0.4608000000000000 0.3055000000000000 0.1505000000000000
0.5392000000000001 0.3055000000000000 0.2245000000000001
0.5392000000000001 0.4445000000000000 0.0995000000000000
0.4608000000000000 0.4445000000000000 0.0255000000000000
0.9608000000000001 0.4305000000000000 0.1505000000000000
0.0392000000000000 0.4305000000000000 0.2245000000000001
0.0392000000000000 0.3195000000000000 0.0995000000000000
0.9608000000000000 0.3195000000000000 0.0255000000000000
0.4608000000000000 0.3055000000000000 0.4005000000000001
0.5392000000000000 0.3054999999999999 0.4745000000000001
0.5392000000000000 0.4445000000000000 0.3495000000000001
0.4607999999999999 0.4445000000000000 0.2755000000000000
0.9608000000000000 0.4305000000000000 0.4005000000000001
0.0392000000000000 0.4304999999999999 0.4745000000000001
0.0392000000000000 0.3195000000000000 0.3495000000000001
0.9608000000000001 0.3195000000000000 0.2755000000000000
0.4608000000000000 0.3055000000000000 0.6505000000000002
0.5392000000000000 0.3055000000000000 0.7245000000000003
0.5392000000000000 0.4445000000000000 0.5995000000000001
0.4608000000000000 0.4445000000000000 0.5255000000000001
0.9608000000000000 0.4305000000000000 0.6505000000000002
0.0392000000000000 0.4305000000000000 0.7245000000000003
0.0392000000000000 0.3195000000000000 0.5995000000000001
0.9608000000000001 0.3195000000000000 0.5255000000000001
0.4608000000000000 0.3055000000000000 0.9005000000000002
0.5392000000000000 0.3055000000000000 0.9745000000000003
0.5392000000000000 0.4445000000000000 0.8495000000000003
0.4608000000000000 0.4445000000000000 0.7755000000000002
0.9608000000000001 0.4305000000000000 0.9005000000000002
0.0392000000000000 0.4305000000000000 0.9745000000000003
0.0392000000000000 0.3195000000000000 0.8495000000000003
0.9608000000000001 0.3195000000000000 0.7755000000000002
0.4608000000000000 0.5555000000000000 0.1505000000000000
0.5392000000000002 0.5555000000000000 0.2245000000000001
0.5392000000000002 0.6945000000000000 0.0995000000000000
0.4608000000000000 0.6945000000000000 0.0255000000000000
0.9608000000000001 0.6805000000000000 0.1505000000000000
0.0392000000000000 0.6805000000000000 0.2245000000000001
0.0392000000000000 0.5695000000000000 0.0995000000000000
0.9608000000000000 0.5695000000000000 0.0255000000000000
0.4608000000000000 0.5555000000000000 0.4005000000000001
0.5392000000000001 0.5555000000000000 0.4745000000000001
0.5392000000000001 0.6945000000000000 0.3495000000000001
0.4608000000000000 0.6945000000000000 0.2755000000000000
0.9608000000000000 0.6805000000000000 0.4005000000000001
0.0392000000000000 0.6805000000000000 0.4745000000000001
0.0392000000000000 0.5695000000000000 0.3495000000000001
0.9608000000000001 0.5695000000000000 0.2755000000000000
0.4608000000000000 0.5555000000000001 0.6505000000000002
0.5392000000000001 0.5555000000000001 0.7245000000000003
0.5392000000000001 0.6945000000000000 0.5995000000000001
0.4608000000000000 0.6945000000000000 0.5255000000000001
0.9608000000000000 0.6805000000000000 0.6505000000000002
0.0392000000000000 0.6805000000000000 0.7245000000000003
0.0392000000000000 0.5695000000000000 0.5995000000000001
0.9608000000000001 0.5695000000000000 0.5255000000000001
0.4608000000000000 0.5555000000000000 0.9005000000000002
0.5392000000000001 0.5555000000000000 0.9745000000000003
0.5392000000000000 0.6944999999999999 0.8495000000000003
0.4608000000000001 0.6945000000000000 0.7755000000000002
0.9608000000000001 0.6804999999999999 0.9005000000000002
0.0392000000000000 0.6804999999999999 0.9745000000000003
0.0392000000000000 0.5694999999999999 0.8495000000000003
0.9608000000000001 0.5695000000000000 0.7755000000000002
0.4608000000000000 0.8054999999999999 0.1505000000000000
0.5392000000000002 0.8054999999999999 0.2245000000000001
0.5392000000000001 0.9445000000000000 0.0995000000000000
0.4608000000000000 0.9445000000000000 0.0255000000000000
0.9608000000000000 0.9305000000000000 0.1505000000000000
0.0392000000000000 0.9305000000000000 0.2245000000000001
0.0392000000000000 0.8194999999999999 0.0995000000000000
0.9608000000000000 0.8194999999999999 0.0255000000000000
0.4608000000000000 0.8054999999999999 0.4005000000000001
0.5392000000000001 0.8054999999999999 0.4745000000000001
0.5392000000000000 0.9445000000000000 0.3495000000000001
0.4608000000000000 0.9445000000000000 0.2755000000000000
0.9607999999999999 0.9305000000000000 0.4005000000000001
0.0392000000000000 0.9305000000000000 0.4745000000000001
0.0392000000000000 0.8194999999999999 0.3495000000000001
0.9608000000000001 0.8194999999999999 0.2755000000000000
0.4608000000000000 0.8054999999999999 0.6505000000000002
0.5392000000000001 0.8054999999999999 0.7245000000000003
0.5392000000000000 0.9445000000000000 0.5995000000000001
0.4608000000000000 0.9445000000000000 0.5255000000000001
0.9607999999999999 0.9305000000000000 0.6505000000000002
0.0392000000000000 0.9305000000000000 0.7245000000000003
0.0392000000000000 0.8194999999999999 0.5995000000000001
0.9608000000000001 0.8194999999999999 0.5255000000000001
0.4608000000000000 0.8054999999999998 0.9005000000000002
0.5392000000000001 0.8054999999999998 0.9745000000000003
0.5392000000000000 0.9444999999999999 0.8495000000000003
0.4608000000000001 0.9445000000000000 0.7755000000000002
0.9608000000000000 0.9304999999999999 0.9005000000000002
0.0392000000000000 0.9304999999999999 0.9745000000000003
0.0392000000000000 0.8194999999999998 0.8495000000000003
0.9608000000000001 0.8194999999999999 0.7755000000000002
0.1905999999999999 0.2493500000000000 0.0830000000000000
0.8094000000000001 0.2493500000000000 0.0420000000000000
0.8094000000000000 0.0006500000000000 0.1670000000000000
0.1906000000000000 0.0006500000000000 0.2080000000000001
0.6906000000000000 0.1243499999999999 0.0830000000000000
0.3094000000000001 0.1243499999999999 0.0420000000000000
0.3094000000000001 0.1256500000000000 0.1670000000000000
0.6906000000000000 0.1256500000000000 0.2080000000000001
0.1906000000000000 0.2493500000000000 0.3330000000000001
0.8094000000000001 0.2493500000000000 0.2920000000000000
0.8094000000000001 0.0006500000000000 0.4170000000000000
0.1906000000000000 0.0006500000000000 0.4580000000000001
0.6906000000000001 0.1243499999999999 0.3330000000000001
0.3094000000000001 0.1243500000000000 0.2920000000000000
0.3094000000000001 0.1256500000000000 0.4170000000000000
0.6906000000000000 0.1256500000000000 0.4580000000000001
0.1906000000000000 0.2493500000000000 0.5830000000000001
0.8094000000000001 0.2493500000000000 0.5420000000000001
0.8094000000000001 0.0006500000000000 0.6670000000000001
0.1906000000000000 0.0006500000000000 0.7080000000000001
0.6906000000000000 0.1243499999999999 0.5830000000000001
0.3094000000000001 0.1243499999999999 0.5420000000000001
0.3094000000000000 0.1256500000000000 0.6670000000000001
0.6905999999999999 0.1256500000000000 0.7080000000000001
0.1906000000000000 0.2493500000000000 0.8330000000000001
0.8094000000000000 0.2493500000000000 0.7920000000000001
0.8094000000000001 0.0006500000000000 0.9170000000000003
0.1906000000000000 0.0006500000000000 0.9580000000000002
0.6906000000000000 0.1243499999999999 0.8330000000000001
0.3094000000000001 0.1243499999999999 0.7920000000000001
0.3094000000000001 0.1256500000000000 0.9170000000000003
0.6906000000000000 0.1256500000000000 0.9580000000000002
0.1906000000000000 0.4993499999999999 0.0830000000000000
0.8094000000000001 0.4993499999999999 0.0420000000000000
0.8094000000000000 0.2506500000000000 0.1670000000000000
0.1906000000000000 0.2506500000000000 0.2080000000000001
0.6906000000000000 0.3743499999999999 0.0830000000000000
0.3094000000000001 0.3743499999999999 0.0420000000000000
0.3094000000000001 0.3756500000000000 0.1670000000000000
0.6906000000000000 0.3756500000000000 0.2080000000000001
0.1906000000000000 0.4993499999999999 0.3330000000000001
0.8094000000000001 0.4993499999999999 0.2920000000000000
0.8094000000000001 0.2506500000000000 0.4170000000000000
0.1906000000000000 0.2506500000000000 0.4580000000000001
0.6906000000000001 0.3743499999999999 0.3330000000000001
0.3094000000000001 0.3743499999999999 0.2920000000000000
0.3094000000000001 0.3756500000000000 0.4170000000000000
0.6906000000000000 0.3756500000000000 0.4580000000000001
0.1906000000000000 0.4993499999999999 0.5830000000000001
0.8094000000000001 0.4993499999999999 0.5420000000000001
0.8094000000000001 0.2506500000000000 0.6670000000000001
0.1905999999999999 0.2506500000000000 0.7080000000000001
0.6906000000000000 0.3743500000000000 0.5830000000000001
0.3094000000000001 0.3743500000000000 0.5420000000000001
0.3094000000000001 0.3756500000000000 0.6670000000000001
0.6905999999999999 0.3756500000000000 0.7080000000000001
0.1906000000000000 0.4993499999999999 0.8330000000000001
0.8094000000000000 0.4993499999999999 0.7920000000000001
0.8094000000000001 0.2506500000000000 0.9170000000000003
0.1906000000000000 0.2506500000000000 0.9580000000000002
0.6906000000000000 0.3743500000000000 0.8330000000000001
0.3094000000000001 0.3743500000000000 0.7920000000000001
0.3094000000000001 0.3756500000000000 0.9170000000000003
0.6906000000000000 0.3756500000000000 0.9580000000000002
0.1906000000000000 0.7493499999999998 0.0830000000000000
0.8094000000000001 0.7493499999999998 0.0420000000000000
0.8094000000000000 0.5006500000000000 0.1670000000000000
0.1906000000000000 0.5006500000000000 0.2080000000000001
0.6906000000000000 0.6243500000000000 0.0830000000000000
0.3094000000000000 0.6243500000000000 0.0420000000000000
0.3094000000000000 0.6256499999999999 0.1670000000000000
0.6906000000000000 0.6256499999999999 0.2080000000000001
0.1906000000000000 0.7493499999999998 0.3330000000000001
0.8094000000000001 0.7493499999999998 0.2920000000000000
0.8094000000000001 0.5006500000000000 0.4170000000000000
0.1906000000000000 0.5006500000000000 0.4580000000000001
0.6906000000000001 0.6243500000000000 0.3330000000000001
0.3094000000000000 0.6243500000000000 0.2920000000000000
0.3094000000000001 0.6256499999999999 0.4170000000000000
0.6906000000000000 0.6256499999999999 0.4580000000000001
0.1906000000000000 0.7493499999999998 0.5830000000000001
0.8094000000000001 0.7493499999999998 0.5420000000000001
0.8094000000000001 0.5006500000000002 0.6670000000000001
0.1906000000000000 0.5006500000000002 0.7080000000000001
0.6906000000000000 0.6243500000000000 0.5830000000000001
0.3094000000000001 0.6243500000000000 0.5420000000000001
0.3094000000000000 0.6256499999999999 0.6670000000000001
0.6905999999999999 0.6256499999999999 0.7080000000000001
0.1906000000000000 0.7493499999999997 0.8330000000000001
0.8094000000000000 0.7493499999999998 0.7920000000000001
0.8094000000000001 0.5006500000000000 0.9170000000000003
0.1906000000000000 0.5006500000000000 0.9580000000000002
0.6906000000000000 0.6243499999999998 0.8330000000000001
0.3094000000000000 0.6243500000000000 0.7920000000000001
0.3094000000000001 0.6256499999999998 0.9170000000000003
0.6906000000000000 0.6256499999999998 0.9580000000000002
0.1906000000000000 0.9993499999999998 0.0830000000000000
0.8094000000000000 0.9993499999999998 0.0420000000000000
0.8094000000000000 0.7506500000000000 0.1670000000000000
0.1906000000000000 0.7506500000000000 0.2080000000000001
0.6905999999999999 0.8743500000000000 0.0830000000000000
0.3094000000000001 0.8743500000000000 0.0420000000000000
0.3094000000000001 0.8756499999999999 0.1670000000000000
0.6905999999999999 0.8756499999999999 0.2080000000000001
0.1906000000000000 0.9993499999999998 0.3330000000000001
0.8094000000000000 0.9993499999999998 0.2920000000000000
0.8094000000000001 0.7506500000000000 0.4170000000000000
0.1906000000000000 0.7506500000000000 0.4580000000000001
0.6906000000000000 0.8743500000000000 0.3330000000000001
0.3094000000000001 0.8743500000000000 0.2920000000000000
0.3094000000000001 0.8756499999999999 0.4170000000000000
0.6905999999999999 0.8756499999999999 0.4580000000000001
0.1906000000000000 0.9993499999999998 0.5830000000000001
0.8094000000000000 0.9993499999999998 0.5420000000000001
0.8094000000000001 0.7506500000000000 0.6670000000000001
0.1905999999999999 0.7506500000000000 0.7080000000000001
0.6905999999999999 0.8743500000000000 0.5830000000000001
0.3094000000000001 0.8743500000000000 0.5420000000000001
0.3094000000000001 0.8756499999999999 0.6670000000000001
0.6905999999999998 0.8756499999999999 0.7080000000000001
0.1906000000000000 0.9993499999999997 0.8330000000000001
0.8093999999999999 0.9993499999999998 0.7920000000000001
0.8094000000000001 0.7506499999999999 0.9170000000000003
0.1906000000000000 0.7506499999999999 0.9580000000000002
0.6905999999999999 0.8743499999999998 0.8330000000000001
0.3094000000000001 0.8743500000000000 0.7920000000000001
0.3094000000000001 0.8756499999999998 0.9170000000000003
0.6905999999999999 0.8756499999999998 0.9580000000000002
0.2897000000000000 0.2469000000000000 0.0767500000000000
0.7102999999999999 0.2469000000000000 0.0482500000000000
0.7102999999999998 0.0031000000000000 0.1732500000000001
0.2897000000000001 0.0031000000000000 0.2017500000000000
0.7897000000000001 0.1219000000000000 0.0767500000000000
0.2103000000000000 0.1219000000000000 0.0482500000000000
0.2103000000000000 0.1281000000000000 0.1732500000000001
0.7897000000000002 0.1281000000000000 0.2017500000000000
0.2897000000000001 0.2469000000000000 0.3267500000000000
0.7102999999999999 0.2469000000000000 0.2982500000000001
0.7102999999999998 0.0031000000000000 0.4232500000000001
0.2897000000000001 0.0031000000000000 0.4517500000000000
0.7897000000000001 0.1219000000000000 0.3267500000000000
0.2103000000000000 0.1219000000000000 0.2982500000000001
0.2103000000000000 0.1281000000000000 0.4232500000000001
0.7897000000000001 0.1281000000000000 0.4517500000000000
0.2897000000000001 0.2469000000000000 0.5767500000000001
0.7102999999999999 0.2469000000000000 0.5482500000000001
0.7102999999999999 0.0031000000000000 0.6732500000000001
0.2897000000000001 0.0031000000000000 0.7017500000000001
0.7897000000000001 0.1219000000000000 0.5767500000000001
0.2103000000000000 0.1219000000000000 0.5482500000000001
0.2103000000000000 0.1281000000000000 0.6732500000000001
0.7897000000000002 0.1281000000000000 0.7017500000000001
0.2897000000000000 0.2469000000000000 0.8267500000000002
0.7102999999999999 0.2469000000000000 0.7982500000000002
0.7102999999999999 0.0031000000000000 0.9232500000000002
0.2897000000000001 0.0031000000000000 0.9517500000000002
0.7897000000000001 0.1219000000000000 0.8267500000000002
0.2103000000000000 0.1219000000000000 0.7982500000000002
0.2103000000000000 0.1281000000000000 0.9232500000000002
0.7897000000000002 0.1281000000000000 0.9517500000000002
0.2897000000000000 0.4969000000000000 0.0767500000000000
0.7102999999999999 0.4969000000000000 0.0482500000000000
0.7102999999999998 0.2531000000000000 0.1732500000000001
0.2897000000000001 0.2531000000000000 0.2017500000000000
0.7897000000000001 0.3719000000000000 0.0767500000000000
0.2103000000000000 0.3719000000000000 0.0482500000000000
0.2103000000000000 0.3781000000000000 0.1732500000000001
0.7897000000000002 0.3781000000000000 0.2017500000000000
0.2897000000000001 0.4969000000000000 0.3267500000000000
0.7102999999999999 0.4969000000000000 0.2982500000000001
0.7102999999999998 0.2530999999999999 0.4232500000000001
0.2897000000000001 0.2530999999999999 0.4517500000000000
0.7897000000000001 0.3719000000000000 0.3267500000000000
0.2103000000000000 0.3719000000000000 0.2982500000000001
0.2103000000000000 0.3780999999999999 0.4232500000000001
0.7897000000000001 0.3780999999999999 0.4517500000000000
0.2897000000000001 0.4969000000000000 0.5767500000000001
0.7102999999999999 0.4969000000000000 0.5482500000000001
0.7102999999999999 0.2530999999999999 0.6732500000000001
0.2897000000000001 0.2530999999999999 0.7017500000000001
0.7897000000000001 0.3719000000000000 0.5767500000000001
0.2103000000000000 0.3719000000000000 0.5482500000000001
0.2103000000000000 0.3781000000000000 0.6732500000000001
0.7897000000000002 0.3781000000000000 0.7017500000000001
0.2897000000000001 0.4969000000000000 0.8267500000000002
0.7102999999999999 0.4969000000000000 0.7982500000000002
0.7102999999999999 0.2531000000000000 0.9232500000000002
0.2897000000000000 0.2531000000000000 0.9517500000000002
0.7897000000000001 0.3719000000000000 0.8267500000000002
0.2103000000000000 0.3719000000000000 0.7982500000000002
0.2103000000000000 0.3781000000000000 0.9232500000000002
0.7897000000000002 0.3781000000000000 0.9517500000000002
0.2897000000000000 0.7468999999999999 0.0767500000000000
0.7102999999999999 0.7468999999999999 0.0482500000000000
0.7102999999999998 0.5031000000000000 0.1732500000000001
0.2897000000000000 0.5031000000000000 0.2017500000000000
0.7897000000000001 0.6219000000000000 0.0767500000000000
0.2103000000000000 0.6219000000000000 0.0482500000000000
0.2103000000000000 0.6280999999999999 0.1732500000000001
0.7897000000000002 0.6280999999999999 0.2017500000000000
0.2897000000000001 0.7468999999999999 0.3267500000000000
0.7102999999999999 0.7468999999999999 0.2982500000000001
0.7102999999999998 0.5031000000000000 0.4232500000000001
0.2897000000000001 0.5031000000000000 0.4517500000000000
0.7897000000000001 0.6219000000000000 0.3267500000000000
0.2103000000000000 0.6219000000000000 0.2982500000000001
0.2103000000000000 0.6280999999999999 0.4232500000000001
0.7897000000000001 0.6280999999999999 0.4517500000000000
0.2897000000000001 0.7468999999999999 0.5767500000000001
0.7102999999999999 0.7468999999999999 0.5482500000000001
0.7102999999999999 0.5031000000000001 0.6732500000000001
0.2897000000000001 0.5031000000000001 0.7017500000000001
0.7897000000000001 0.6219000000000000 0.5767500000000001
0.2103000000000000 0.6219000000000000 0.5482500000000001
0.2103000000000000 0.6280999999999999 0.6732500000000001
0.7897000000000002 0.6280999999999999 0.7017500000000001
0.2897000000000000 0.7468999999999998 0.8267500000000002
0.7102999999999999 0.7468999999999999 0.7982500000000002
0.7102999999999999 0.5031000000000000 0.9232500000000002
0.2897000000000001 0.5031000000000000 0.9517500000000002
0.7897000000000001 0.6218999999999999 0.8267500000000002
0.2103000000000000 0.6219000000000000 0.7982500000000002
0.2103000000000000 0.6280999999999998 0.9232500000000002
0.7897000000000002 0.6280999999999998 0.9517500000000002
0.2897000000000001 0.9968999999999999 0.0767500000000000
0.7102999999999998 0.9968999999999999 0.0482500000000000
0.7102999999999998 0.7531000000000000 0.1732500000000001
0.2897000000000000 0.7531000000000000 0.2017500000000000
0.7897000000000000 0.8719000000000000 0.0767500000000000
0.2103000000000000 0.8719000000000000 0.0482500000000000
0.2103000000000000 0.8780999999999999 0.1732500000000001
0.7897000000000001 0.8780999999999999 0.2017500000000000
0.2897000000000001 0.9968999999999999 0.3267500000000000
0.7102999999999998 0.9968999999999999 0.2982500000000001
0.7102999999999998 0.7531000000000000 0.4232500000000001
0.2897000000000001 0.7531000000000000 0.4517500000000000
0.7897000000000001 0.8719000000000000 0.3267500000000000
0.2103000000000000 0.8719000000000000 0.2982500000000001
0.2103000000000000 0.8780999999999999 0.4232500000000001
0.7897000000000000 0.8780999999999999 0.4517500000000000
0.2897000000000001 0.9968999999999999 0.5767500000000001
0.7102999999999998 0.9968999999999999 0.5482500000000001
0.7102999999999999 0.7531000000000000 0.6732500000000001
0.2897000000000001 0.7531000000000000 0.7017500000000001
0.7897000000000000 0.8719000000000000 0.5767500000000001
0.2103000000000000 0.8719000000000000 0.5482500000000001
0.2103000000000000 0.8780999999999999 0.6732500000000001
0.7897000000000001 0.8780999999999999 0.7017500000000001
0.2897000000000001 0.9968999999999998 0.8267500000000002
0.7102999999999998 0.9968999999999999 0.7982500000000002
0.7102999999999999 0.7530999999999999 0.9232500000000002
0.2897000000000000 0.7530999999999999 0.9517500000000002
0.7897000000000000 0.8718999999999999 0.8267500000000002
0.2103000000000000 0.8719000000000000 0.7982500000000002
0.2103000000000000 0.8780999999999998 0.9232500000000002
0.7897000000000001 0.8780999999999998 0.9517500000000002
0.3776000000000000 0.0085000000000000 0.0590000000000000
0.6224000000000001 0.0085000000000000 0.0660000000000000
0.6224000000000001 0.2415000000000000 0.1910000000000000
0.3776000000000000 0.2415000000000000 0.1840000000000001
0.8775999999999999 0.1335000000000000 0.0590000000000000
0.1224000000000000 0.1335000000000000 0.0660000000000000
0.1224000000000000 0.1165000000000000 0.1910000000000000
0.8775999999999999 0.1165000000000000 0.1840000000000001
0.3776000000000000 0.0085000000000000 0.3090000000000001
0.6224000000000001 0.0085000000000000 0.3160000000000001
0.6224000000000002 0.2415000000000000 0.4410000000000001
0.3776000000000001 0.2415000000000000 0.4340000000000001
0.8775999999999999 0.1335000000000000 0.3090000000000001
0.1224000000000000 0.1335000000000000 0.3160000000000001
0.1224000000000000 0.1165000000000000 0.4410000000000001
0.8775999999999998 0.1165000000000000 0.4340000000000001
0.3776000000000000 0.0085000000000000 0.5590000000000001
0.6224000000000002 0.0085000000000000 0.5660000000000002
0.6224000000000002 0.2415000000000000 0.6910000000000002
0.3776000000000000 0.2415000000000000 0.6840000000000001
0.8775999999999999 0.1335000000000000 0.5590000000000001
0.1224000000000000 0.1335000000000000 0.5660000000000002
0.1224000000000000 0.1165000000000000 0.6910000000000002
0.8775999999999998 0.1165000000000000 0.6840000000000001
0.3776000000000000 0.0085000000000000 0.8090000000000001
0.6224000000000001 0.0085000000000000 0.8160000000000002
0.6224000000000001 0.2415000000000000 0.9410000000000002
0.3776000000000001 0.2415000000000000 0.9340000000000001
0.8775999999999999 0.1335000000000000 0.8090000000000001
0.1224000000000000 0.1335000000000000 0.8160000000000002
0.1224000000000000 0.1165000000000000 0.9410000000000002
0.8775999999999999 0.1165000000000000 0.9340000000000001
0.3776000000000000 0.2585000000000000 0.0590000000000000
0.6224000000000001 0.2585000000000000 0.0660000000000000
0.6224000000000001 0.4915000000000000 0.1910000000000000
0.3776000000000000 0.4915000000000000 0.1840000000000001
0.8775999999999999 0.3835000000000000 0.0590000000000000
0.1224000000000000 0.3835000000000000 0.0660000000000000
0.1224000000000000 0.3665000000000000 0.1910000000000000
0.8775999999999999 0.3665000000000000 0.1840000000000001
0.3776000000000000 0.2585000000000000 0.3090000000000001
0.6224000000000001 0.2585000000000000 0.3160000000000001
0.6224000000000002 0.4914999999999999 0.4410000000000001
0.3776000000000000 0.4914999999999999 0.4340000000000001
0.8775999999999999 0.3835000000000000 0.3090000000000001
0.1224000000000000 0.3835000000000000 0.3160000000000001
0.1224000000000000 0.3664999999999999 0.4410000000000001
0.8775999999999998 0.3664999999999999 0.4340000000000001
0.3776000000000000 0.2585000000000000 0.5590000000000001
0.6224000000000002 0.2585000000000000 0.5660000000000002
0.6224000000000002 0.4915000000000000 0.6910000000000002
0.3776000000000000 0.4915000000000000 0.6840000000000001
0.8775999999999999 0.3835000000000000 0.5590000000000001
0.1224000000000000 0.3835000000000000 0.5660000000000002
0.1224000000000000 0.3665000000000000 0.6910000000000002
0.8775999999999998 0.3665000000000000 0.6840000000000001
0.3776000000000000 0.2585000000000000 0.8090000000000001
0.6224000000000001 0.2585000000000000 0.8160000000000002
0.6224000000000001 0.4915000000000000 0.9410000000000002
0.3776000000000000 0.4915000000000000 0.9340000000000001
0.8775999999999999 0.3835000000000000 0.8090000000000001
0.1224000000000000 0.3835000000000000 0.8160000000000002
0.1224000000000000 0.3665000000000000 0.9410000000000002
0.8775999999999999 0.3665000000000000 0.9340000000000001
0.3776000000000000 0.5085000000000000 0.0590000000000000
0.6224000000000001 0.5085000000000000 0.0660000000000000
0.6224000000000002 0.7414999999999999 0.1910000000000000
0.3776000000000000 0.7414999999999999 0.1840000000000001
0.8775999999999999 0.6334999999999998 0.0590000000000000
0.1224000000000000 0.6334999999999998 0.0660000000000000
0.1224000000000000 0.6165000000000000 0.1910000000000000
0.8775999999999999 0.6165000000000000 0.1840000000000001
0.3776000000000000 0.5085000000000000 0.3090000000000001
0.6224000000000001 0.5085000000000000 0.3160000000000001
0.6224000000000002 0.7414999999999999 0.4410000000000001
0.3776000000000001 0.7414999999999999 0.4340000000000001
0.8775999999999999 0.6334999999999998 0.3090000000000001
0.1224000000000000 0.6334999999999998 0.3160000000000001
0.1224000000000000 0.6165000000000000 0.4410000000000001
0.8775999999999998 0.6165000000000000 0.4340000000000001
0.3776000000000000 0.5085000000000001 0.5590000000000001
0.6224000000000002 0.5085000000000001 0.5660000000000002
0.6224000000000002 0.7414999999999999 0.6910000000000002
0.3776000000000000 0.7414999999999999 0.6840000000000001
0.8775999999999999 0.6334999999999998 0.5590000000000001
0.1224000000000000 0.6334999999999998 0.5660000000000002
0.1224000000000000 0.6165000000000000 0.6910000000000002
0.8775999999999998 0.6165000000000000 0.6840000000000001
0.3776000000000000 0.5085000000000001 0.8090000000000001
0.6224000000000001 0.5085000000000001 0.8160000000000002
0.6224000000000002 0.7414999999999998 0.9410000000000002
0.3776000000000001 0.7414999999999998 0.9340000000000001
0.8775999999999999 0.6334999999999998 0.8090000000000001
0.1224000000000000 0.6334999999999998 0.8160000000000002
0.1224000000000000 0.6164999999999999 0.9410000000000002
0.8775999999999999 0.6164999999999999 0.9340000000000001
0.3776000000000000 0.7585000000000000 0.0590000000000000
0.6224000000000002 0.7585000000000000 0.0660000000000000
0.6224000000000001 0.9914999999999999 0.1910000000000000
0.3776000000000000 0.9914999999999999 0.1840000000000001
0.8775999999999998 0.8834999999999998 0.0590000000000000
0.1224000000000000 0.8834999999999998 0.0660000000000000
0.1224000000000000 0.8665000000000000 0.1910000000000000
0.8775999999999998 0.8665000000000000 0.1840000000000001
0.3776000000000001 0.7585000000000000 0.3090000000000001
0.6224000000000002 0.7585000000000000 0.3160000000000001
0.6224000000000001 0.9914999999999999 0.4410000000000001
0.3776000000000001 0.9914999999999999 0.4340000000000001
0.8775999999999998 0.8834999999999998 0.3090000000000001
0.1224000000000000 0.8834999999999998 0.3160000000000001
0.1224000000000000 0.8665000000000000 0.4410000000000001
0.8775999999999997 0.8665000000000000 0.4340000000000001
0.3776000000000000 0.7585000000000000 0.5590000000000001
0.6224000000000002 0.7585000000000000 0.5660000000000002
0.6224000000000001 0.9914999999999999 0.6910000000000002
0.3776000000000000 0.9914999999999999 0.6840000000000001
0.8775999999999998 0.8834999999999998 0.5590000000000001
0.1224000000000000 0.8834999999999998 0.5660000000000002
0.1224000000000000 0.8665000000000000 0.6910000000000002
0.8775999999999997 0.8665000000000000 0.6840000000000001
0.3776000000000001 0.7585000000000000 0.8090000000000001
0.6224000000000003 0.7585000000000000 0.8160000000000002
0.6224000000000001 0.9914999999999998 0.9410000000000002
0.3776000000000001 0.9914999999999998 0.9340000000000001
0.8775999999999998 0.8834999999999998 0.8090000000000001
0.1224000000000000 0.8834999999999998 0.8160000000000002
0.1224000000000000 0.8664999999999999 0.9410000000000002
0.8775999999999998 0.8664999999999999 0.9340000000000001
0.3926000000000001 0.0977500000000000 0.1817500000000000
0.6074000000000001 0.0977500000000000 0.1932500000000000
0.6074000000000001 0.1522500000000000 0.0682500000000000
0.3926000000000000 0.1522500000000000 0.0567500000000000
0.8926000000000002 0.2227500000000000 0.1817500000000000
0.1074000000000000 0.2227500000000000 0.1932500000000000
0.1074000000000000 0.0272500000000000 0.0682500000000000
0.8926000000000002 0.0272500000000000 0.0567500000000000
0.3926000000000001 0.0977500000000000 0.4317500000000001
0.6073999999999999 0.0977500000000000 0.4432500000000001
0.6073999999999999 0.1522500000000000 0.3182500000000001
0.3926000000000001 0.1522500000000000 0.3067500000000000
0.8926000000000002 0.2227500000000000 0.4317500000000001
0.1074000000000000 0.2227500000000000 0.4432500000000001
0.1074000000000000 0.0272500000000000 0.3182500000000001
0.8926000000000003 0.0272500000000000 0.3067500000000000
0.3926000000000001 0.0977500000000000 0.6817500000000001
0.6073999999999999 0.0977500000000000 0.6932500000000001
0.6073999999999999 0.1522500000000000 0.5682500000000001
0.3926000000000000 0.1522500000000000 0.5567500000000001
0.8926000000000002 0.2227500000000000 0.6817500000000001
0.1074000000000000 0.2227500000000000 0.6932500000000001
0.1074000000000000 0.0272500000000000 0.5682500000000001
0.8926000000000003 0.0272500000000000 0.5567500000000001
0.3926000000000001 0.0977500000000000 0.9317500000000002
0.6073999999999999 0.0977500000000000 0.9432500000000001
0.6073999999999999 0.1522500000000000 0.8182500000000001
0.3926000000000001 0.1522500000000000 0.8067500000000001
0.8926000000000002 0.2227500000000000 0.9317500000000002
0.1074000000000000 0.2227500000000000 0.9432500000000001
0.1074000000000000 0.0272500000000000 0.8182500000000001
0.8926000000000001 0.0272500000000000 0.8067500000000001
0.3926000000000001 0.3477500000000000 0.1817500000000000
0.6074000000000001 0.3477500000000000 0.1932500000000000
0.6074000000000001 0.4022499999999999 0.0682500000000000
0.3926000000000000 0.4022499999999999 0.0567500000000000
0.8926000000000002 0.4727500000000000 0.1817500000000000
0.1074000000000000 0.4727500000000000 0.1932500000000000
0.1074000000000000 0.2772500000000000 0.0682500000000000
0.8926000000000002 0.2772500000000000 0.0567500000000000
0.3926000000000001 0.3477499999999999 0.4317500000000001
0.6073999999999999 0.3477499999999999 0.4432500000000001
0.6073999999999999 0.4022499999999999 0.3182500000000001
0.3926000000000001 0.4022499999999999 0.3067500000000000
0.8926000000000002 0.4727499999999999 0.4317500000000001
0.1074000000000000 0.4727499999999999 0.4432500000000001
0.1074000000000000 0.2772500000000000 0.3182500000000001
0.8926000000000003 0.2772500000000000 0.3067500000000000
0.3926000000000001 0.3477500000000000 0.6817500000000001
0.6073999999999999 0.3477500000000000 0.6932500000000001
0.6073999999999999 0.4022500000000000 0.5682500000000001
0.3926000000000000 0.4022500000000000 0.5567500000000001
0.8926000000000002 0.4727500000000000 0.6817500000000001
0.1074000000000000 0.4727500000000000 0.6932500000000001
0.1074000000000000 0.2772499999999999 0.5682500000000001
0.8926000000000003 0.2772499999999999 0.5567500000000001
0.3926000000000001 0.3477500000000000 0.9317500000000002
0.6073999999999999 0.3477500000000000 0.9432500000000001
0.6073999999999999 0.4022500000000000 0.8182500000000001
0.3926000000000001 0.4022500000000000 0.8067500000000001
0.8926000000000002 0.4727500000000000 0.9317500000000002
0.1074000000000000 0.4727500000000000 0.9432500000000001
0.1074000000000000 0.2772500000000000 0.8182500000000001
0.8926000000000001 0.2772500000000000 0.8067500000000001
0.3926000000000001 0.5977500000000000 0.1817500000000000
0.6074000000000001 0.5977500000000000 0.1932500000000000
0.6074000000000001 0.6522500000000000 0.0682500000000000
0.3926000000000001 0.6522500000000000 0.0567500000000000
0.8926000000000002 0.7227499999999999 0.1817500000000000
0.1074000000000000 0.7227499999999999 0.1932500000000000
0.1074000000000000 0.5272500000000000 0.0682500000000000
0.8926000000000002 0.5272500000000000 0.0567500000000000
0.3926000000000001 0.5977500000000000 0.4317500000000001
0.6074000000000001 0.5977500000000000 0.4432500000000001
0.6074000000000001 0.6522500000000000 0.3182500000000001
0.3926000000000001 0.6522500000000000 0.3067500000000000
0.8926000000000002 0.7227499999999999 0.4317500000000001
0.1074000000000000 0.7227499999999999 0.4432500000000001
0.1074000000000000 0.5272500000000000 0.3182500000000001
0.8926000000000003 0.5272500000000000 0.3067500000000000
0.3926000000000001 0.5977500000000000 0.6817500000000001
0.6073999999999999 0.5977500000000000 0.6932500000000001
0.6074000000000001 0.6522500000000000 0.5682500000000001
0.3926000000000001 0.6522500000000000 0.5567500000000001
0.8926000000000002 0.7227499999999999 0.6817500000000001
0.1074000000000000 0.7227499999999999 0.6932500000000001
0.1074000000000000 0.5272500000000000 0.5682500000000001
0.8926000000000003 0.5272500000000000 0.5567500000000001
0.3926000000000001 0.5977499999999999 0.9317500000000002
0.6073999999999999 0.5977499999999999 0.9432500000000001
0.6073999999999999 0.6522499999999999 0.8182500000000001
0.3926000000000001 0.6522500000000000 0.8067500000000001
0.8926000000000002 0.7227499999999998 0.9317500000000002
0.1074000000000000 0.7227499999999998 0.9432500000000001
0.1074000000000000 0.5272499999999999 0.8182500000000001
0.8926000000000001 0.5272500000000000 0.8067500000000001
0.3926000000000001 0.8477500000000000 0.1817500000000000
0.6073999999999999 0.8477500000000000 0.1932500000000000
0.6073999999999999 0.9022499999999999 0.0682500000000000
0.3926000000000001 0.9022499999999999 0.0567500000000000
0.8926000000000001 0.9727499999999999 0.1817500000000000
0.1074000000000000 0.9727499999999999 0.1932500000000000
0.1074000000000000 0.7772500000000000 0.0682500000000000
0.8926000000000002 0.7772500000000000 0.0567500000000000
0.3926000000000001 0.8477500000000000 0.4317500000000001
0.6073999999999999 0.8477500000000000 0.4432500000000001
0.6073999999999999 0.9022499999999999 0.3182500000000001
0.3926000000000001 0.9022499999999999 0.3067500000000000
0.8926000000000001 0.9727499999999999 0.4317500000000001
0.1074000000000000 0.9727499999999999 0.4432500000000001
0.1074000000000000 0.7772500000000000 0.3182500000000001
0.8926000000000003 0.7772500000000000 0.3067500000000000
0.3926000000000001 0.8477500000000000 0.6817500000000001
0.6073999999999999 0.8477500000000000 0.6932500000000001
0.6073999999999999 0.9022499999999999 0.5682500000000001
0.3926000000000001 0.9022499999999999 0.5567500000000001
0.8926000000000001 0.9727499999999999 0.6817500000000001
0.1074000000000000 0.9727499999999999 0.6932500000000001
0.1074000000000000 0.7772500000000000 0.5682500000000001
0.8926000000000003 0.7772500000000000 0.5567500000000001
0.3926000000000001 0.8477499999999999 0.9317500000000002
0.6073999999999998 0.8477499999999999 0.9432500000000001
0.6073999999999998 0.9022499999999998 0.8182500000000001
0.3926000000000001 0.9022499999999999 0.8067500000000001
0.8926000000000001 0.9727499999999998 0.9317500000000002
0.1074000000000000 0.9727499999999998 0.9432500000000001
0.1074000000000000 0.7772499999999999 0.8182500000000001
0.8926000000000001 0.7772500000000000 0.8067500000000001
