%BLOCK LATTICE_CART
ang    # angstrom units
  24.687000000000    0.000000000000     0.000000000000   
  0.000000000000     6.667500000000     0.000000000000   
 -0.298065741343     0.000000000000     7.085032992431   
%ENDBLOCK LATTICE_CART

%BLOCK POSITIONS_FRAC
Co     0.500000000000     0.241400000000     0.062500000000   
C      0.219200000000     0.029500000000     0.100500000000   
C      0.275600000000     0.030250000000     0.096500000000   
C      0.310600000000     0.063500000000     0.121000000000   
C      0.370800000000     0.053250000000     0.123750000000   
C      0.400000000000     0.028500000000     0.090000000000   
C      0.408000000000     0.072000000000     0.158000000000   
N      0.456100000000     0.030000000000     0.099750000000   
N      0.460800000000     0.055500000000     0.150500000000   
D      0.190600000000     0.249350000000     0.083000000000   
D      0.289700000000     0.246900000000     0.076750000000   
H      0.377600000000     0.008500000000     0.059000000000   
H      0.392600000000     0.097750000000     0.181750000000   
C      0.780800000000     0.029500000000     0.024500000000   
C      0.724400000000     0.030250000000     0.028500000000   
C      0.689400000000     0.063500000000     0.004000000000   
C      0.629200000000     0.053250000000     0.001250000000   
C      0.600000000000     0.028500000000     0.035000000000   
C      0.592000000000     0.072000000000     0.217000000000   
N      0.543900000000     0.030000000000     0.025250000000   
N      0.539200000000     0.055500000000     0.224500000000   
D      0.809400000000     0.249350000000     0.042000000000   
D      0.710300000000     0.246900000000     0.048250000000   
H      0.622400000000     0.008500000000     0.066000000000   
H      0.607400000000     0.097750000000     0.193250000000   
Co     0.500000000000     0.008600000000     0.187500000000   
C      0.780800000000     0.220500000000     0.149500000000   
C      0.724400000000     0.219750000000     0.153500000000   
C      0.689400000000     0.186500000000     0.129000000000   
C      0.629200000000     0.196750000000     0.126250000000   
C      0.600000000000     0.221500000000     0.160000000000   
C      0.592000000000     0.178000000000     0.092000000000   
N      0.543900000000     0.220000000000     0.150250000000   
N      0.539200000000     0.194500000000     0.099500000000   
D      0.809400000000     0.000650000000     0.167000000000   
D      0.710300000000     0.003100000000     0.173250000000   
H      0.622400000000     0.241500000000     0.191000000000   
H      0.607400000000     0.152250000000     0.068250000000   
C      0.219200000000     0.220500000000     0.225500000000   
C      0.275600000000     0.219750000000     0.221500000000   
C      0.310600000000     0.186500000000     0.246000000000   
C      0.370800000000     0.196750000000     0.248750000000   
C      0.400000000000     0.221500000000     0.215000000000   
C      0.408000000000     0.178000000000     0.033000000000   
N      0.456100000000     0.220000000000     0.224750000000   
N      0.460800000000     0.194500000000     0.025500000000   
D      0.190600000000     0.000650000000     0.208000000000   
D      0.289700000000     0.003100000000     0.201750000000   
H      0.377600000000     0.241500000000     0.184000000000   
H      0.392600000000     0.152250000000     0.056750000000   
Co     0.000000000000     0.116400000000     0.062500000000   
C      0.719200000000     0.154500000000     0.100500000000   
C      0.775600000000     0.155250000000     0.096500000000   
C      0.810600000000     0.188500000000     0.121000000000   
C      0.870800000000     0.178250000000     0.123750000000   
C      0.900000000000     0.153500000000     0.090000000000   
C      0.908000000000     0.197000000000     0.158000000000   
N      0.956100000000     0.155000000000     0.099750000000   
N      0.960800000000     0.180500000000     0.150500000000   
D      0.690600000000     0.124350000000     0.083000000000   
D      0.789700000000     0.121900000000     0.076750000000   
H      0.877600000000     0.133500000000     0.059000000000   
H      0.892600000000     0.222750000000     0.181750000000   
C      0.280800000000     0.154500000000     0.024500000000   
C      0.224400000000     0.155250000000     0.028500000000   
C      0.189400000000     0.188500000000     0.004000000000   
C      0.129200000000     0.178250000000     0.001250000000   
C      0.100000000000     0.153500000000     0.035000000000   
C      0.092000000000     0.197000000000     0.217000000000   
N      0.043900000000     0.155000000000     0.025250000000   
N      0.039200000000     0.180500000000     0.224500000000   
D      0.309400000000     0.124350000000     0.042000000000   
D      0.210300000000     0.121900000000     0.048250000000   
H      0.122400000000     0.133500000000     0.066000000000   
H      0.107400000000     0.222750000000     0.193250000000   
Co     0.000000000000     0.133600000000     0.187500000000   
C      0.280800000000     0.095500000000     0.149500000000   
C      0.224400000000     0.094750000000     0.153500000000   
C      0.189400000000     0.061500000000     0.129000000000   
C      0.129200000000     0.071750000000     0.126250000000   
C      0.100000000000     0.096500000000     0.160000000000   
C      0.092000000000     0.053000000000     0.092000000000   
N      0.043900000000     0.095000000000     0.150250000000   
N      0.039200000000     0.069500000000     0.099500000000   
D      0.309400000000     0.125650000000     0.167000000000   
D      0.210300000000     0.128100000000     0.173250000000   
H      0.122400000000     0.116500000000     0.191000000000   
H      0.107400000000     0.027250000000     0.068250000000   
C      0.719200000000     0.095500000000     0.225500000000   
C      0.775600000000     0.094750000000     0.221500000000   
C      0.810600000000     0.061500000000     0.246000000000   
C      0.870800000000     0.071750000000     0.248750000000   
C      0.900000000000     0.096500000000     0.215000000000   
C      0.908000000000     0.053000000000     0.033000000000   
N      0.956100000000     0.095000000000     0.224750000000   
N      0.960800000000     0.069500000000     0.025500000000   
D      0.690600000000     0.125650000000     0.208000000000   
D      0.789700000000     0.128100000000     0.201750000000   
H      0.877600000000     0.116500000000     0.184000000000   
H      0.892600000000     0.027250000000     0.056750000000   
Co     0.500000000000     0.241400000000     0.312500000000   
C      0.219200000000     0.029500000000     0.350500000000   
C      0.275600000000     0.030250000000     0.346500000000   
C      0.310600000000     0.063500000000     0.371000000000   
C      0.370800000000     0.053250000000     0.373750000000   
C      0.400000000000     0.028500000000     0.340000000000   
C      0.408000000000     0.072000000000     0.408000000000   
N      0.456100000000     0.030000000000     0.349750000000   
N      0.460800000000     0.055500000000     0.400500000000   
D      0.190600000000     0.249350000000     0.333000000000   
D      0.289700000000     0.246900000000     0.326750000000   
H      0.377600000000     0.008500000000     0.309000000000   
H      0.392600000000     0.097750000000     0.431750000000   
C      0.780800000000     0.029500000000     0.274500000000   
C      0.724400000000     0.030250000000     0.278500000000   
C      0.689400000000     0.063500000000     0.254000000000   
C      0.629200000000     0.053250000000     0.251250000000   
C      0.600000000000     0.028500000000     0.285000000000   
C      0.592000000000     0.072000000000     0.467000000000   
N      0.543900000000     0.030000000000     0.275250000000   
N      0.539200000000     0.055500000000     0.474500000000   
D      0.809400000000     0.249350000000     0.292000000000   
D      0.710300000000     0.246900000000     0.298250000000   
H      0.622400000000     0.008500000000     0.316000000000   
H      0.607400000000     0.097750000000     0.443250000000   
Co     0.500000000000     0.008600000000     0.437500000000   
C      0.780800000000     0.220500000000     0.399500000000   
C      0.724400000000     0.219750000000     0.403500000000   
C      0.689400000000     0.186500000000     0.379000000000   
C      0.629200000000     0.196750000000     0.376250000000   
C      0.600000000000     0.221500000000     0.410000000000   
C      0.592000000000     0.178000000000     0.342000000000   
N      0.543900000000     0.220000000000     0.400250000000   
N      0.539200000000     0.194500000000     0.349500000000   
D      0.809400000000     0.000650000000     0.417000000000   
D      0.710300000000     0.003100000000     0.423250000000   
H      0.622400000000     0.241500000000     0.441000000000   
H      0.607400000000     0.152250000000     0.318250000000   
C      0.219200000000     0.220500000000     0.475500000000   
C      0.275600000000     0.219750000000     0.471500000000   
C      0.310600000000     0.186500000000     0.496000000000   
C      0.370800000000     0.196750000000     0.498750000000   
C      0.400000000000     0.221500000000     0.465000000000   
C      0.408000000000     0.178000000000     0.283000000000   
N      0.456100000000     0.220000000000     0.474750000000   
N      0.460800000000     0.194500000000     0.275500000000   
D      0.190600000000     0.000650000000     0.458000000000   
D      0.289700000000     0.003100000000     0.451750000000   
H      0.377600000000     0.241500000000     0.434000000000   
H      0.392600000000     0.152250000000     0.306750000000   
Co     0.000000000000     0.116400000000     0.312500000000   
C      0.719200000000     0.154500000000     0.350500000000   
C      0.775600000000     0.155250000000     0.346500000000   
C      0.810600000000     0.188500000000     0.371000000000   
C      0.870800000000     0.178250000000     0.373750000000   
C      0.900000000000     0.153500000000     0.340000000000   
C      0.908000000000     0.197000000000     0.408000000000   
N      0.956100000000     0.155000000000     0.349750000000   
N      0.960800000000     0.180500000000     0.400500000000   
D      0.690600000000     0.124350000000     0.333000000000   
D      0.789700000000     0.121900000000     0.326750000000   
H      0.877600000000     0.133500000000     0.309000000000   
H      0.892600000000     0.222750000000     0.431750000000   
C      0.280800000000     0.154500000000     0.274500000000   
C      0.224400000000     0.155250000000     0.278500000000   
C      0.189400000000     0.188500000000     0.254000000000   
C      0.129200000000     0.178250000000     0.251250000000   
C      0.100000000000     0.153500000000     0.285000000000   
C      0.092000000000     0.197000000000     0.467000000000   
N      0.043900000000     0.155000000000     0.275250000000   
N      0.039200000000     0.180500000000     0.474500000000   
D      0.309400000000     0.124350000000     0.292000000000   
D      0.210300000000     0.121900000000     0.298250000000   
H      0.122400000000     0.133500000000     0.316000000000   
H      0.107400000000     0.222750000000     0.443250000000   
Co     0.000000000000     0.133600000000     0.437500000000   
C      0.280800000000     0.095500000000     0.399500000000   
C      0.224400000000     0.094750000000     0.403500000000   
C      0.189400000000     0.061500000000     0.379000000000   
C      0.129200000000     0.071750000000     0.376250000000   
C      0.100000000000     0.096500000000     0.410000000000   
C      0.092000000000     0.053000000000     0.342000000000   
N      0.043900000000     0.095000000000     0.400250000000   
N      0.039200000000     0.069500000000     0.349500000000   
D      0.309400000000     0.125650000000     0.417000000000   
D      0.210300000000     0.128100000000     0.423250000000   
H      0.122400000000     0.116500000000     0.441000000000   
H      0.107400000000     0.027250000000     0.318250000000   
C      0.719200000000     0.095500000000     0.475500000000   
C      0.775600000000     0.094750000000     0.471500000000   
C      0.810600000000     0.061500000000     0.496000000000   
C      0.870800000000     0.071750000000     0.498750000000   
C      0.900000000000     0.096500000000     0.465000000000   
C      0.908000000000     0.053000000000     0.283000000000   
N      0.956100000000     0.095000000000     0.474750000000   
N      0.960800000000     0.069500000000     0.275500000000   
D      0.690600000000     0.125650000000     0.458000000000   
D      0.789700000000     0.128100000000     0.451750000000   
H      0.877600000000     0.116500000000     0.434000000000   
H      0.892600000000     0.027250000000     0.306750000000   
Co     0.500000000000     0.241400000000     0.562500000000   
C      0.219200000000     0.029500000000     0.600500000000   
C      0.275600000000     0.030250000000     0.596500000000   
C      0.310600000000     0.063500000000     0.621000000000   
C      0.370800000000     0.053250000000     0.623750000000   
C      0.400000000000     0.028500000000     0.590000000000   
C      0.408000000000     0.072000000000     0.658000000000   
N      0.456100000000     0.030000000000     0.599750000000   
N      0.460800000000     0.055500000000     0.650500000000   
D      0.190600000000     0.249350000000     0.583000000000   
D      0.289700000000     0.246900000000     0.576750000000   
H      0.377600000000     0.008500000000     0.559000000000   
H      0.392600000000     0.097750000000     0.681750000000   
C      0.780800000000     0.029500000000     0.524500000000   
C      0.724400000000     0.030250000000     0.528500000000   
C      0.689400000000     0.063500000000     0.504000000000   
C      0.629200000000     0.053250000000     0.501250000000   
C      0.600000000000     0.028500000000     0.535000000000   
C      0.592000000000     0.072000000000     0.717000000000   
N      0.543900000000     0.030000000000     0.525250000000   
N      0.539200000000     0.055500000000     0.724500000000   
D      0.809400000000     0.249350000000     0.542000000000   
D      0.710300000000     0.246900000000     0.548250000000   
H      0.622400000000     0.008500000000     0.566000000000   
H      0.607400000000     0.097750000000     0.693250000000   
Co     0.500000000000     0.008600000000     0.687500000000   
C      0.780800000000     0.220500000000     0.649500000000   
C      0.724400000000     0.219750000000     0.653500000000   
C      0.689400000000     0.186500000000     0.629000000000   
C      0.629200000000     0.196750000000     0.626250000000   
C      0.600000000000     0.221500000000     0.660000000000   
C      0.592000000000     0.178000000000     0.592000000000   
N      0.543900000000     0.220000000000     0.650250000000   
N      0.539200000000     0.194500000000     0.599500000000   
D      0.809400000000     0.000650000000     0.667000000000   
D      0.710300000000     0.003100000000     0.673250000000   
H      0.622400000000     0.241500000000     0.691000000000   
H      0.607400000000     0.152250000000     0.568250000000   
C      0.219200000000     0.220500000000     0.725500000000   
C      0.275600000000     0.219750000000     0.721500000000   
C      0.310600000000     0.186500000000     0.746000000000   
C      0.370800000000     0.196750000000     0.748750000000   
C      0.400000000000     0.221500000000     0.715000000000   
C      0.408000000000     0.178000000000     0.533000000000   
N      0.456100000000     0.220000000000     0.724750000000   
N      0.460800000000     0.194500000000     0.525500000000   
D      0.190600000000     0.000650000000     0.708000000000   
D      0.289700000000     0.003100000000     0.701750000000   
H      0.377600000000     0.241500000000     0.684000000000   
H      0.392600000000     0.152250000000     0.556750000000   
Co     0.000000000000     0.116400000000     0.562500000000   
C      0.719200000000     0.154500000000     0.600500000000   
C      0.775600000000     0.155250000000     0.596500000000   
C      0.810600000000     0.188500000000     0.621000000000   
C      0.870800000000     0.178250000000     0.623750000000   
C      0.900000000000     0.153500000000     0.590000000000   
C      0.908000000000     0.197000000000     0.658000000000   
N      0.956100000000     0.155000000000     0.599750000000   
N      0.960800000000     0.180500000000     0.650500000000   
D      0.690600000000     0.124350000000     0.583000000000   
D      0.789700000000     0.121900000000     0.576750000000   
H      0.877600000000     0.133500000000     0.559000000000   
H      0.892600000000     0.222750000000     0.681750000000   
C      0.280800000000     0.154500000000     0.524500000000   
C      0.224400000000     0.155250000000     0.528500000000   
C      0.189400000000     0.188500000000     0.504000000000   
C      0.129200000000     0.178250000000     0.501250000000   
C      0.100000000000     0.153500000000     0.535000000000   
C      0.092000000000     0.197000000000     0.717000000000   
N      0.043900000000     0.155000000000     0.525250000000   
N      0.039200000000     0.180500000000     0.724500000000   
D      0.309400000000     0.124350000000     0.542000000000   
D      0.210300000000     0.121900000000     0.548250000000   
H      0.122400000000     0.133500000000     0.566000000000   
H      0.107400000000     0.222750000000     0.693250000000   
Co     0.000000000000     0.133600000000     0.687500000000   
C      0.280800000000     0.095500000000     0.649500000000   
C      0.224400000000     0.094750000000     0.653500000000   
C      0.189400000000     0.061500000000     0.629000000000   
C      0.129200000000     0.071750000000     0.626250000000   
C      0.100000000000     0.096500000000     0.660000000000   
C      0.092000000000     0.053000000000     0.592000000000   
N      0.043900000000     0.095000000000     0.650250000000   
N      0.039200000000     0.069500000000     0.599500000000   
D      0.309400000000     0.125650000000     0.667000000000   
D      0.210300000000     0.128100000000     0.673250000000   
H      0.122400000000     0.116500000000     0.691000000000   
H      0.107400000000     0.027250000000     0.568250000000   
C      0.719200000000     0.095500000000     0.725500000000   
C      0.775600000000     0.094750000000     0.721500000000   
C      0.810600000000     0.061500000000     0.746000000000   
C      0.870800000000     0.071750000000     0.748750000000   
C      0.900000000000     0.096500000000     0.715000000000   
C      0.908000000000     0.053000000000     0.533000000000   
N      0.956100000000     0.095000000000     0.724750000000   
N      0.960800000000     0.069500000000     0.525500000000   
D      0.690600000000     0.125650000000     0.708000000000   
D      0.789700000000     0.128100000000     0.701750000000   
H      0.877600000000     0.116500000000     0.684000000000   
H      0.892600000000     0.027250000000     0.556750000000   
Co     0.500000000000     0.241400000000     0.812500000000   
C      0.219200000000     0.029500000000     0.850500000000   
C      0.275600000000     0.030250000000     0.846500000000   
C      0.310600000000     0.063500000000     0.871000000000   
C      0.370800000000     0.053250000000     0.873750000000   
C      0.400000000000     0.028500000000     0.840000000000   
C      0.408000000000     0.072000000000     0.908000000000   
N      0.456100000000     0.030000000000     0.849750000000   
N      0.460800000000     0.055500000000     0.900500000000   
D      0.190600000000     0.249350000000     0.833000000000   
D      0.289700000000     0.246900000000     0.826750000000   
H      0.377600000000     0.008500000000     0.809000000000   
H      0.392600000000     0.097750000000     0.931750000000   
C      0.780800000000     0.029500000000     0.774500000000   
C      0.724400000000     0.030250000000     0.778500000000   
C      0.689400000000     0.063500000000     0.754000000000   
C      0.629200000000     0.053250000000     0.751250000000   
C      0.600000000000     0.028500000000     0.785000000000   
C      0.592000000000     0.072000000000     0.967000000000   
N      0.543900000000     0.030000000000     0.775250000000   
N      0.539200000000     0.055500000000     0.974500000000   
D      0.809400000000     0.249350000000     0.792000000000   
D      0.710300000000     0.246900000000     0.798250000000   
H      0.622400000000     0.008500000000     0.816000000000   
H      0.607400000000     0.097750000000     0.943250000000   
Co     0.500000000000     0.008600000000     0.937500000000   
C      0.780800000000     0.220500000000     0.899500000000   
C      0.724400000000     0.219750000000     0.903500000000   
C      0.689400000000     0.186500000000     0.879000000000   
C      0.629200000000     0.196750000000     0.876250000000   
C      0.600000000000     0.221500000000     0.910000000000   
C      0.592000000000     0.178000000000     0.842000000000   
N      0.543900000000     0.220000000000     0.900250000000   
N      0.539200000000     0.194500000000     0.849500000000   
D      0.809400000000     0.000650000000     0.917000000000   
D      0.710300000000     0.003100000000     0.923250000000   
H      0.622400000000     0.241500000000     0.941000000000   
H      0.607400000000     0.152250000000     0.818250000000   
C      0.219200000000     0.220500000000     0.975500000000   
C      0.275600000000     0.219750000000     0.971500000000   
C      0.310600000000     0.186500000000     0.996000000000   
C      0.370800000000     0.196750000000     0.998750000000   
C      0.400000000000     0.221500000000     0.965000000000   
C      0.408000000000     0.178000000000     0.783000000000   
N      0.456100000000     0.220000000000     0.974750000000   
N      0.460800000000     0.194500000000     0.775500000000   
D      0.190600000000     0.000650000000     0.958000000000   
D      0.289700000000     0.003100000000     0.951750000000   
H      0.377600000000     0.241500000000     0.934000000000   
H      0.392600000000     0.152250000000     0.806750000000   
Co     0.000000000000     0.116400000000     0.812500000000   
C      0.719200000000     0.154500000000     0.850500000000   
C      0.775600000000     0.155250000000     0.846500000000   
C      0.810600000000     0.188500000000     0.871000000000   
C      0.870800000000     0.178250000000     0.873750000000   
C      0.900000000000     0.153500000000     0.840000000000   
C      0.908000000000     0.197000000000     0.908000000000   
N      0.956100000000     0.155000000000     0.849750000000   
N      0.960800000000     0.180500000000     0.900500000000   
D      0.690600000000     0.124350000000     0.833000000000   
D      0.789700000000     0.121900000000     0.826750000000   
H      0.877600000000     0.133500000000     0.809000000000   
H      0.892600000000     0.222750000000     0.931750000000   
C      0.280800000000     0.154500000000     0.774500000000   
C      0.224400000000     0.155250000000     0.778500000000   
C      0.189400000000     0.188500000000     0.754000000000   
C      0.129200000000     0.178250000000     0.751250000000   
C      0.100000000000     0.153500000000     0.785000000000   
C      0.092000000000     0.197000000000     0.967000000000   
N      0.043900000000     0.155000000000     0.775250000000   
N      0.039200000000     0.180500000000     0.974500000000   
D      0.309400000000     0.124350000000     0.792000000000   
D      0.210300000000     0.121900000000     0.798250000000   
H      0.122400000000     0.133500000000     0.816000000000   
H      0.107400000000     0.222750000000     0.943250000000   
Co     0.000000000000     0.133600000000     0.937500000000   
C      0.280800000000     0.095500000000     0.899500000000   
C      0.224400000000     0.094750000000     0.903500000000   
C      0.189400000000     0.061500000000     0.879000000000   
C      0.129200000000     0.071750000000     0.876250000000   
C      0.100000000000     0.096500000000     0.910000000000   
C      0.092000000000     0.053000000000     0.842000000000   
N      0.043900000000     0.095000000000     0.900250000000   
N      0.039200000000     0.069500000000     0.849500000000   
D      0.309400000000     0.125650000000     0.917000000000   
D      0.210300000000     0.128100000000     0.923250000000   
H      0.122400000000     0.116500000000     0.941000000000   
H      0.107400000000     0.027250000000     0.818250000000   
C      0.719200000000     0.095500000000     0.975500000000   
C      0.775600000000     0.094750000000     0.971500000000   
C      0.810600000000     0.061500000000     0.996000000000   
C      0.870800000000     0.071750000000     0.998750000000   
C      0.900000000000     0.096500000000     0.965000000000   
C      0.908000000000     0.053000000000     0.783000000000   
N      0.956100000000     0.095000000000     0.974750000000   
N      0.960800000000     0.069500000000     0.775500000000   
D      0.690600000000     0.125650000000     0.958000000000   
D      0.789700000000     0.128100000000     0.951750000000   
H      0.877600000000     0.116500000000     0.934000000000   
H      0.892600000000     0.027250000000     0.806750000000   
Co     0.500000000000     0.491400000000     0.062500000000   
C      0.219200000000     0.279500000000     0.100500000000   
C      0.275600000000     0.280250000000     0.096500000000   
C      0.310600000000     0.313500000000     0.121000000000   
C      0.370800000000     0.303250000000     0.123750000000   
C      0.400000000000     0.278500000000     0.090000000000   
C      0.408000000000     0.322000000000     0.158000000000   
N      0.456100000000     0.280000000000     0.099750000000   
N      0.460800000000     0.305500000000     0.150500000000   
D      0.190600000000     0.499350000000     0.083000000000   
D      0.289700000000     0.496900000000     0.076750000000   
H      0.377600000000     0.258500000000     0.059000000000   
H      0.392600000000     0.347750000000     0.181750000000   
C      0.780800000000     0.279500000000     0.024500000000   
C      0.724400000000     0.280250000000     0.028500000000   
C      0.689400000000     0.313500000000     0.004000000000   
C      0.629200000000     0.303250000000     0.001250000000   
C      0.600000000000     0.278500000000     0.035000000000   
C      0.592000000000     0.322000000000     0.217000000000   
N      0.543900000000     0.280000000000     0.025250000000   
N      0.539200000000     0.305500000000     0.224500000000   
D      0.809400000000     0.499350000000     0.042000000000   
D      0.710300000000     0.496900000000     0.048250000000   
H      0.622400000000     0.258500000000     0.066000000000   
H      0.607400000000     0.347750000000     0.193250000000   
Co     0.500000000000     0.258600000000     0.187500000000   
C      0.780800000000     0.470500000000     0.149500000000   
C      0.724400000000     0.469750000000     0.153500000000   
C      0.689400000000     0.436500000000     0.129000000000   
C      0.629200000000     0.446750000000     0.126250000000   
C      0.600000000000     0.471500000000     0.160000000000   
C      0.592000000000     0.428000000000     0.092000000000   
N      0.543900000000     0.470000000000     0.150250000000   
N      0.539200000000     0.444500000000     0.099500000000   
D      0.809400000000     0.250650000000     0.167000000000   
D      0.710300000000     0.253100000000     0.173250000000   
H      0.622400000000     0.491500000000     0.191000000000   
H      0.607400000000     0.402250000000     0.068250000000   
C      0.219200000000     0.470500000000     0.225500000000   
C      0.275600000000     0.469750000000     0.221500000000   
C      0.310600000000     0.436500000000     0.246000000000   
C      0.370800000000     0.446750000000     0.248750000000   
C      0.400000000000     0.471500000000     0.215000000000   
C      0.408000000000     0.428000000000     0.033000000000   
N      0.456100000000     0.470000000000     0.224750000000   
N      0.460800000000     0.444500000000     0.025500000000   
D      0.190600000000     0.250650000000     0.208000000000   
D      0.289700000000     0.253100000000     0.201750000000   
H      0.377600000000     0.491500000000     0.184000000000   
H      0.392600000000     0.402250000000     0.056750000000   
Co     0.000000000000     0.366400000000     0.062500000000   
C      0.719200000000     0.404500000000     0.100500000000   
C      0.775600000000     0.405250000000     0.096500000000   
C      0.810600000000     0.438500000000     0.121000000000   
C      0.870800000000     0.428250000000     0.123750000000   
C      0.900000000000     0.403500000000     0.090000000000   
C      0.908000000000     0.447000000000     0.158000000000   
N      0.956100000000     0.405000000000     0.099750000000   
N      0.960800000000     0.430500000000     0.150500000000   
D      0.690600000000     0.374350000000     0.083000000000   
D      0.789700000000     0.371900000000     0.076750000000   
H      0.877600000000     0.383500000000     0.059000000000   
H      0.892600000000     0.472750000000     0.181750000000   
C      0.280800000000     0.404500000000     0.024500000000   
C      0.224400000000     0.405250000000     0.028500000000   
C      0.189400000000     0.438500000000     0.004000000000   
C      0.129200000000     0.428250000000     0.001250000000   
C      0.100000000000     0.403500000000     0.035000000000   
C      0.092000000000     0.447000000000     0.217000000000   
N      0.043900000000     0.405000000000     0.025250000000   
N      0.039200000000     0.430500000000     0.224500000000   
D      0.309400000000     0.374350000000     0.042000000000   
D      0.210300000000     0.371900000000     0.048250000000   
H      0.122400000000     0.383500000000     0.066000000000   
H      0.107400000000     0.472750000000     0.193250000000   
Co     0.000000000000     0.383600000000     0.187500000000   
C      0.280800000000     0.345500000000     0.149500000000   
C      0.224400000000     0.344750000000     0.153500000000   
C      0.189400000000     0.311500000000     0.129000000000   
C      0.129200000000     0.321750000000     0.126250000000   
C      0.100000000000     0.346500000000     0.160000000000   
C      0.092000000000     0.303000000000     0.092000000000   
N      0.043900000000     0.345000000000     0.150250000000   
N      0.039200000000     0.319500000000     0.099500000000   
D      0.309400000000     0.375650000000     0.167000000000   
D      0.210300000000     0.378100000000     0.173250000000   
H      0.122400000000     0.366500000000     0.191000000000   
H      0.107400000000     0.277250000000     0.068250000000   
C      0.719200000000     0.345500000000     0.225500000000   
C      0.775600000000     0.344750000000     0.221500000000   
C      0.810600000000     0.311500000000     0.246000000000   
C      0.870800000000     0.321750000000     0.248750000000   
C      0.900000000000     0.346500000000     0.215000000000   
C      0.908000000000     0.303000000000     0.033000000000   
N      0.956100000000     0.345000000000     0.224750000000   
N      0.960800000000     0.319500000000     0.025500000000   
D      0.690600000000     0.375650000000     0.208000000000   
D      0.789700000000     0.378100000000     0.201750000000   
H      0.877600000000     0.366500000000     0.184000000000   
H      0.892600000000     0.277250000000     0.056750000000   
Co     0.500000000000     0.491400000000     0.312500000000   
C      0.219200000000     0.279500000000     0.350500000000   
C      0.275600000000     0.280250000000     0.346500000000   
C      0.310600000000     0.313500000000     0.371000000000   
C      0.370800000000     0.303250000000     0.373750000000   
C      0.400000000000     0.278500000000     0.340000000000   
C      0.408000000000     0.322000000000     0.408000000000   
N      0.456100000000     0.280000000000     0.349750000000   
N      0.460800000000     0.305500000000     0.400500000000   
D      0.190600000000     0.499350000000     0.333000000000   
D      0.289700000000     0.496900000000     0.326750000000   
H      0.377600000000     0.258500000000     0.309000000000   
H      0.392600000000     0.347750000000     0.431750000000   
C      0.780800000000     0.279500000000     0.274500000000   
C      0.724400000000     0.280250000000     0.278500000000   
C      0.689400000000     0.313500000000     0.254000000000   
C      0.629200000000     0.303250000000     0.251250000000   
C      0.600000000000     0.278500000000     0.285000000000   
C      0.592000000000     0.322000000000     0.467000000000   
N      0.543900000000     0.280000000000     0.275250000000   
N      0.539200000000     0.305500000000     0.474500000000   
D      0.809400000000     0.499350000000     0.292000000000   
D      0.710300000000     0.496900000000     0.298250000000   
H      0.622400000000     0.258500000000     0.316000000000   
H      0.607400000000     0.347750000000     0.443250000000   
Co     0.500000000000     0.258600000000     0.437500000000   
C      0.780800000000     0.470500000000     0.399500000000   
C      0.724400000000     0.469750000000     0.403500000000   
C      0.689400000000     0.436500000000     0.379000000000   
C      0.629200000000     0.446750000000     0.376250000000   
C      0.600000000000     0.471500000000     0.410000000000   
C      0.592000000000     0.428000000000     0.342000000000   
N      0.543900000000     0.470000000000     0.400250000000   
N      0.539200000000     0.444500000000     0.349500000000   
D      0.809400000000     0.250650000000     0.417000000000   
D      0.710300000000     0.253100000000     0.423250000000   
H      0.622400000000     0.491500000000     0.441000000000   
H      0.607400000000     0.402250000000     0.318250000000   
C      0.219200000000     0.470500000000     0.475500000000   
C      0.275600000000     0.469750000000     0.471500000000   
C      0.310600000000     0.436500000000     0.496000000000   
C      0.370800000000     0.446750000000     0.498750000000   
C      0.400000000000     0.471500000000     0.465000000000   
C      0.408000000000     0.428000000000     0.283000000000   
N      0.456100000000     0.470000000000     0.474750000000   
N      0.460800000000     0.444500000000     0.275500000000   
D      0.190600000000     0.250650000000     0.458000000000   
D      0.289700000000     0.253100000000     0.451750000000   
H      0.377600000000     0.491500000000     0.434000000000   
H      0.392600000000     0.402250000000     0.306750000000   
Co     0.000000000000     0.366400000000     0.312500000000   
C      0.719200000000     0.404500000000     0.350500000000   
C      0.775600000000     0.405250000000     0.346500000000   
C      0.810600000000     0.438500000000     0.371000000000   
C      0.870800000000     0.428250000000     0.373750000000   
C      0.900000000000     0.403500000000     0.340000000000   
C      0.908000000000     0.447000000000     0.408000000000   
N      0.956100000000     0.405000000000     0.349750000000   
N      0.960800000000     0.430500000000     0.400500000000   
D      0.690600000000     0.374350000000     0.333000000000   
D      0.789700000000     0.371900000000     0.326750000000   
H      0.877600000000     0.383500000000     0.309000000000   
H      0.892600000000     0.472750000000     0.431750000000   
C      0.280800000000     0.404500000000     0.274500000000   
C      0.224400000000     0.405250000000     0.278500000000   
C      0.189400000000     0.438500000000     0.254000000000   
C      0.129200000000     0.428250000000     0.251250000000   
C      0.100000000000     0.403500000000     0.285000000000   
C      0.092000000000     0.447000000000     0.467000000000   
N      0.043900000000     0.405000000000     0.275250000000   
N      0.039200000000     0.430500000000     0.474500000000   
D      0.309400000000     0.374350000000     0.292000000000   
D      0.210300000000     0.371900000000     0.298250000000   
H      0.122400000000     0.383500000000     0.316000000000   
H      0.107400000000     0.472750000000     0.443250000000   
Co     0.000000000000     0.383600000000     0.437500000000   
C      0.280800000000     0.345500000000     0.399500000000   
C      0.224400000000     0.344750000000     0.403500000000   
C      0.189400000000     0.311500000000     0.379000000000   
C      0.129200000000     0.321750000000     0.376250000000   
C      0.100000000000     0.346500000000     0.410000000000   
C      0.092000000000     0.303000000000     0.342000000000   
N      0.043900000000     0.345000000000     0.400250000000   
N      0.039200000000     0.319500000000     0.349500000000   
D      0.309400000000     0.375650000000     0.417000000000   
D      0.210300000000     0.378100000000     0.423250000000   
H      0.122400000000     0.366500000000     0.441000000000   
H      0.107400000000     0.277250000000     0.318250000000   
C      0.719200000000     0.345500000000     0.475500000000   
C      0.775600000000     0.344750000000     0.471500000000   
C      0.810600000000     0.311500000000     0.496000000000   
C      0.870800000000     0.321750000000     0.498750000000   
C      0.900000000000     0.346500000000     0.465000000000   
C      0.908000000000     0.303000000000     0.283000000000   
N      0.956100000000     0.345000000000     0.474750000000   
N      0.960800000000     0.319500000000     0.275500000000   
D      0.690600000000     0.375650000000     0.458000000000   
D      0.789700000000     0.378100000000     0.451750000000   
H      0.877600000000     0.366500000000     0.434000000000   
H      0.892600000000     0.277250000000     0.306750000000   
Co     0.500000000000     0.491400000000     0.562500000000   
C      0.219200000000     0.279500000000     0.600500000000   
C      0.275600000000     0.280250000000     0.596500000000   
C      0.310600000000     0.313500000000     0.621000000000   
C      0.370800000000     0.303250000000     0.623750000000   
C      0.400000000000     0.278500000000     0.590000000000   
C      0.408000000000     0.322000000000     0.658000000000   
N      0.456100000000     0.280000000000     0.599750000000   
N      0.460800000000     0.305500000000     0.650500000000   
D      0.190600000000     0.499350000000     0.583000000000   
D      0.289700000000     0.496900000000     0.576750000000   
H      0.377600000000     0.258500000000     0.559000000000   
H      0.392600000000     0.347750000000     0.681750000000   
C      0.780800000000     0.279500000000     0.524500000000   
C      0.724400000000     0.280250000000     0.528500000000   
C      0.689400000000     0.313500000000     0.504000000000   
C      0.629200000000     0.303250000000     0.501250000000   
C      0.600000000000     0.278500000000     0.535000000000   
C      0.592000000000     0.322000000000     0.717000000000   
N      0.543900000000     0.280000000000     0.525250000000   
N      0.539200000000     0.305500000000     0.724500000000   
D      0.809400000000     0.499350000000     0.542000000000   
D      0.710300000000     0.496900000000     0.548250000000   
H      0.622400000000     0.258500000000     0.566000000000   
H      0.607400000000     0.347750000000     0.693250000000   
Co     0.500000000000     0.258600000000     0.687500000000   
C      0.780800000000     0.470500000000     0.649500000000   
C      0.724400000000     0.469750000000     0.653500000000   
C      0.689400000000     0.436500000000     0.629000000000   
C      0.629200000000     0.446750000000     0.626250000000   
C      0.600000000000     0.471500000000     0.660000000000   
C      0.592000000000     0.428000000000     0.592000000000   
N      0.543900000000     0.470000000000     0.650250000000   
N      0.539200000000     0.444500000000     0.599500000000   
D      0.809400000000     0.250650000000     0.667000000000   
D      0.710300000000     0.253100000000     0.673250000000   
H      0.622400000000     0.491500000000     0.691000000000   
H      0.607400000000     0.402250000000     0.568250000000   
C      0.219200000000     0.470500000000     0.725500000000   
C      0.275600000000     0.469750000000     0.721500000000   
C      0.310600000000     0.436500000000     0.746000000000   
C      0.370800000000     0.446750000000     0.748750000000   
C      0.400000000000     0.471500000000     0.715000000000   
C      0.408000000000     0.428000000000     0.533000000000   
N      0.456100000000     0.470000000000     0.724750000000   
N      0.460800000000     0.444500000000     0.525500000000   
D      0.190600000000     0.250650000000     0.708000000000   
D      0.289700000000     0.253100000000     0.701750000000   
H      0.377600000000     0.491500000000     0.684000000000   
H      0.392600000000     0.402250000000     0.556750000000   
Co     0.000000000000     0.366400000000     0.562500000000   
C      0.719200000000     0.404500000000     0.600500000000   
C      0.775600000000     0.405250000000     0.596500000000   
C      0.810600000000     0.438500000000     0.621000000000   
C      0.870800000000     0.428250000000     0.623750000000   
C      0.900000000000     0.403500000000     0.590000000000   
C      0.908000000000     0.447000000000     0.658000000000   
N      0.956100000000     0.405000000000     0.599750000000   
N      0.960800000000     0.430500000000     0.650500000000   
D      0.690600000000     0.374350000000     0.583000000000   
D      0.789700000000     0.371900000000     0.576750000000   
H      0.877600000000     0.383500000000     0.559000000000   
H      0.892600000000     0.472750000000     0.681750000000   
C      0.280800000000     0.404500000000     0.524500000000   
C      0.224400000000     0.405250000000     0.528500000000   
C      0.189400000000     0.438500000000     0.504000000000   
C      0.129200000000     0.428250000000     0.501250000000   
C      0.100000000000     0.403500000000     0.535000000000   
C      0.092000000000     0.447000000000     0.717000000000   
N      0.043900000000     0.405000000000     0.525250000000   
N      0.039200000000     0.430500000000     0.724500000000   
D      0.309400000000     0.374350000000     0.542000000000   
D      0.210300000000     0.371900000000     0.548250000000   
H      0.122400000000     0.383500000000     0.566000000000   
H      0.107400000000     0.472750000000     0.693250000000   
Co     0.000000000000     0.383600000000     0.687500000000   
C      0.280800000000     0.345500000000     0.649500000000   
C      0.224400000000     0.344750000000     0.653500000000   
C      0.189400000000     0.311500000000     0.629000000000   
C      0.129200000000     0.321750000000     0.626250000000   
C      0.100000000000     0.346500000000     0.660000000000   
C      0.092000000000     0.303000000000     0.592000000000   
N      0.043900000000     0.345000000000     0.650250000000   
N      0.039200000000     0.319500000000     0.599500000000   
D      0.309400000000     0.375650000000     0.667000000000   
D      0.210300000000     0.378100000000     0.673250000000   
H      0.122400000000     0.366500000000     0.691000000000   
H      0.107400000000     0.277250000000     0.568250000000   
C      0.719200000000     0.345500000000     0.725500000000   
C      0.775600000000     0.344750000000     0.721500000000   
C      0.810600000000     0.311500000000     0.746000000000   
C      0.870800000000     0.321750000000     0.748750000000   
C      0.900000000000     0.346500000000     0.715000000000   
C      0.908000000000     0.303000000000     0.533000000000   
N      0.956100000000     0.345000000000     0.724750000000   
N      0.960800000000     0.319500000000     0.525500000000   
D      0.690600000000     0.375650000000     0.708000000000   
D      0.789700000000     0.378100000000     0.701750000000   
H      0.877600000000     0.366500000000     0.684000000000   
H      0.892600000000     0.277250000000     0.556750000000   
Co     0.500000000000     0.491400000000     0.812500000000   
C      0.219200000000     0.279500000000     0.850500000000   
C      0.275600000000     0.280250000000     0.846500000000   
C      0.310600000000     0.313500000000     0.871000000000   
C      0.370800000000     0.303250000000     0.873750000000   
C      0.400000000000     0.278500000000     0.840000000000   
C      0.408000000000     0.322000000000     0.908000000000   
N      0.456100000000     0.280000000000     0.849750000000   
N      0.460800000000     0.305500000000     0.900500000000   
D      0.190600000000     0.499350000000     0.833000000000   
D      0.289700000000     0.496900000000     0.826750000000   
H      0.377600000000     0.258500000000     0.809000000000   
H      0.392600000000     0.347750000000     0.931750000000   
C      0.780800000000     0.279500000000     0.774500000000   
C      0.724400000000     0.280250000000     0.778500000000   
C      0.689400000000     0.313500000000     0.754000000000   
C      0.629200000000     0.303250000000     0.751250000000   
C      0.600000000000     0.278500000000     0.785000000000   
C      0.592000000000     0.322000000000     0.967000000000   
N      0.543900000000     0.280000000000     0.775250000000   
N      0.539200000000     0.305500000000     0.974500000000   
D      0.809400000000     0.499350000000     0.792000000000   
D      0.710300000000     0.496900000000     0.798250000000   
H      0.622400000000     0.258500000000     0.816000000000   
H      0.607400000000     0.347750000000     0.943250000000   
Co     0.500000000000     0.258600000000     0.937500000000   
C      0.780800000000     0.470500000000     0.899500000000   
C      0.724400000000     0.469750000000     0.903500000000   
C      0.689400000000     0.436500000000     0.879000000000   
C      0.629200000000     0.446750000000     0.876250000000   
C      0.600000000000     0.471500000000     0.910000000000   
C      0.592000000000     0.428000000000     0.842000000000   
N      0.543900000000     0.470000000000     0.900250000000   
N      0.539200000000     0.444500000000     0.849500000000   
D      0.809400000000     0.250650000000     0.917000000000   
D      0.710300000000     0.253100000000     0.923250000000   
H      0.622400000000     0.491500000000     0.941000000000   
H      0.607400000000     0.402250000000     0.818250000000   
C      0.219200000000     0.470500000000     0.975500000000   
C      0.275600000000     0.469750000000     0.971500000000   
C      0.310600000000     0.436500000000     0.996000000000   
C      0.370800000000     0.446750000000     0.998750000000   
C      0.400000000000     0.471500000000     0.965000000000   
C      0.408000000000     0.428000000000     0.783000000000   
N      0.456100000000     0.470000000000     0.974750000000   
N      0.460800000000     0.444500000000     0.775500000000   
D      0.190600000000     0.250650000000     0.958000000000   
D      0.289700000000     0.253100000000     0.951750000000   
H      0.377600000000     0.491500000000     0.934000000000   
H      0.392600000000     0.402250000000     0.806750000000   
Co     0.000000000000     0.366400000000     0.812500000000   
C      0.719200000000     0.404500000000     0.850500000000   
C      0.775600000000     0.405250000000     0.846500000000   
C      0.810600000000     0.438500000000     0.871000000000   
C      0.870800000000     0.428250000000     0.873750000000   
C      0.900000000000     0.403500000000     0.840000000000   
C      0.908000000000     0.447000000000     0.908000000000   
N      0.956100000000     0.405000000000     0.849750000000   
N      0.960800000000     0.430500000000     0.900500000000   
D      0.690600000000     0.374350000000     0.833000000000   
D      0.789700000000     0.371900000000     0.826750000000   
H      0.877600000000     0.383500000000     0.809000000000   
H      0.892600000000     0.472750000000     0.931750000000   
C      0.280800000000     0.404500000000     0.774500000000   
C      0.224400000000     0.405250000000     0.778500000000   
C      0.189400000000     0.438500000000     0.754000000000   
C      0.129200000000     0.428250000000     0.751250000000   
C      0.100000000000     0.403500000000     0.785000000000   
C      0.092000000000     0.447000000000     0.967000000000   
N      0.043900000000     0.405000000000     0.775250000000   
N      0.039200000000     0.430500000000     0.974500000000   
D      0.309400000000     0.374350000000     0.792000000000   
D      0.210300000000     0.371900000000     0.798250000000   
H      0.122400000000     0.383500000000     0.816000000000   
H      0.107400000000     0.472750000000     0.943250000000   
Co     0.000000000000     0.383600000000     0.937500000000   
C      0.280800000000     0.345500000000     0.899500000000   
C      0.224400000000     0.344750000000     0.903500000000   
C      0.189400000000     0.311500000000     0.879000000000   
C      0.129200000000     0.321750000000     0.876250000000   
C      0.100000000000     0.346500000000     0.910000000000   
C      0.092000000000     0.303000000000     0.842000000000   
N      0.043900000000     0.345000000000     0.900250000000   
N      0.039200000000     0.319500000000     0.849500000000   
D      0.309400000000     0.375650000000     0.917000000000   
D      0.210300000000     0.378100000000     0.923250000000   
H      0.122400000000     0.366500000000     0.941000000000   
H      0.107400000000     0.277250000000     0.818250000000   
C      0.719200000000     0.345500000000     0.975500000000   
C      0.775600000000     0.344750000000     0.971500000000   
C      0.810600000000     0.311500000000     0.996000000000   
C      0.870800000000     0.321750000000     0.998750000000   
C      0.900000000000     0.346500000000     0.965000000000   
C      0.908000000000     0.303000000000     0.783000000000   
N      0.956100000000     0.345000000000     0.974750000000   
N      0.960800000000     0.319500000000     0.775500000000   
D      0.690600000000     0.375650000000     0.958000000000   
D      0.789700000000     0.378100000000     0.951750000000   
H      0.877600000000     0.366500000000     0.934000000000   
H      0.892600000000     0.277250000000     0.806750000000   
Co     0.500000000000     0.741400000000     0.062500000000   
C      0.219200000000     0.529500000000     0.100500000000   
C      0.275600000000     0.530250000000     0.096500000000   
C      0.310600000000     0.563500000000     0.121000000000   
C      0.370800000000     0.553250000000     0.123750000000   
C      0.400000000000     0.528500000000     0.090000000000   
C      0.408000000000     0.572000000000     0.158000000000   
N      0.456100000000     0.530000000000     0.099750000000   
N      0.460800000000     0.555500000000     0.150500000000   
D      0.190600000000     0.749350000000     0.083000000000   
D      0.289700000000     0.746900000000     0.076750000000   
H      0.377600000000     0.508500000000     0.059000000000   
H      0.392600000000     0.597750000000     0.181750000000   
C      0.780800000000     0.529500000000     0.024500000000   
C      0.724400000000     0.530250000000     0.028500000000   
C      0.689400000000     0.563500000000     0.004000000000   
C      0.629200000000     0.553250000000     0.001250000000   
C      0.600000000000     0.528500000000     0.035000000000   
C      0.592000000000     0.572000000000     0.217000000000   
N      0.543900000000     0.530000000000     0.025250000000   
N      0.539200000000     0.555500000000     0.224500000000   
D      0.809400000000     0.749350000000     0.042000000000   
D      0.710300000000     0.746900000000     0.048250000000   
H      0.622400000000     0.508500000000     0.066000000000   
H      0.607400000000     0.597750000000     0.193250000000   
Co     0.500000000000     0.508600000000     0.187500000000   
C      0.780800000000     0.720500000000     0.149500000000   
C      0.724400000000     0.719750000000     0.153500000000   
C      0.689400000000     0.686500000000     0.129000000000   
C      0.629200000000     0.696750000000     0.126250000000   
C      0.600000000000     0.721500000000     0.160000000000   
C      0.592000000000     0.678000000000     0.092000000000   
N      0.543900000000     0.720000000000     0.150250000000   
N      0.539200000000     0.694500000000     0.099500000000   
D      0.809400000000     0.500650000000     0.167000000000   
D      0.710300000000     0.503100000000     0.173250000000   
H      0.622400000000     0.741500000000     0.191000000000   
H      0.607400000000     0.652250000000     0.068250000000   
C      0.219200000000     0.720500000000     0.225500000000   
C      0.275600000000     0.719750000000     0.221500000000   
C      0.310600000000     0.686500000000     0.246000000000   
C      0.370800000000     0.696750000000     0.248750000000   
C      0.400000000000     0.721500000000     0.215000000000   
C      0.408000000000     0.678000000000     0.033000000000   
N      0.456100000000     0.720000000000     0.224750000000   
N      0.460800000000     0.694500000000     0.025500000000   
D      0.190600000000     0.500650000000     0.208000000000   
D      0.289700000000     0.503100000000     0.201750000000   
H      0.377600000000     0.741500000000     0.184000000000   
H      0.392600000000     0.652250000000     0.056750000000   
Co     0.000000000000     0.616400000000     0.062500000000   
C      0.719200000000     0.654500000000     0.100500000000   
C      0.775600000000     0.655250000000     0.096500000000   
C      0.810600000000     0.688500000000     0.121000000000   
C      0.870800000000     0.678250000000     0.123750000000   
C      0.900000000000     0.653500000000     0.090000000000   
C      0.908000000000     0.697000000000     0.158000000000   
N      0.956100000000     0.655000000000     0.099750000000   
N      0.960800000000     0.680500000000     0.150500000000   
D      0.690600000000     0.624350000000     0.083000000000   
D      0.789700000000     0.621900000000     0.076750000000   
H      0.877600000000     0.633500000000     0.059000000000   
H      0.892600000000     0.722750000000     0.181750000000   
C      0.280800000000     0.654500000000     0.024500000000   
C      0.224400000000     0.655250000000     0.028500000000   
C      0.189400000000     0.688500000000     0.004000000000   
C      0.129200000000     0.678250000000     0.001250000000   
C      0.100000000000     0.653500000000     0.035000000000   
C      0.092000000000     0.697000000000     0.217000000000   
N      0.043900000000     0.655000000000     0.025250000000   
N      0.039200000000     0.680500000000     0.224500000000   
D      0.309400000000     0.624350000000     0.042000000000   
D      0.210300000000     0.621900000000     0.048250000000   
H      0.122400000000     0.633500000000     0.066000000000   
H      0.107400000000     0.722750000000     0.193250000000   
Co     0.000000000000     0.633600000000     0.187500000000   
C      0.280800000000     0.595500000000     0.149500000000   
C      0.224400000000     0.594750000000     0.153500000000   
C      0.189400000000     0.561500000000     0.129000000000   
C      0.129200000000     0.571750000000     0.126250000000   
C      0.100000000000     0.596500000000     0.160000000000   
C      0.092000000000     0.553000000000     0.092000000000   
N      0.043900000000     0.595000000000     0.150250000000   
N      0.039200000000     0.569500000000     0.099500000000   
D      0.309400000000     0.625650000000     0.167000000000   
D      0.210300000000     0.628100000000     0.173250000000   
H      0.122400000000     0.616500000000     0.191000000000   
H      0.107400000000     0.527250000000     0.068250000000   
C      0.719200000000     0.595500000000     0.225500000000   
C      0.775600000000     0.594750000000     0.221500000000   
C      0.810600000000     0.561500000000     0.246000000000   
C      0.870800000000     0.571750000000     0.248750000000   
C      0.900000000000     0.596500000000     0.215000000000   
C      0.908000000000     0.553000000000     0.033000000000   
N      0.956100000000     0.595000000000     0.224750000000   
N      0.960800000000     0.569500000000     0.025500000000   
D      0.690600000000     0.625650000000     0.208000000000   
D      0.789700000000     0.628100000000     0.201750000000   
H      0.877600000000     0.616500000000     0.184000000000   
H      0.892600000000     0.527250000000     0.056750000000   
Co     0.500000000000     0.741400000000     0.312500000000   
C      0.219200000000     0.529500000000     0.350500000000   
C      0.275600000000     0.530250000000     0.346500000000   
C      0.310600000000     0.563500000000     0.371000000000   
C      0.370800000000     0.553250000000     0.373750000000   
C      0.400000000000     0.528500000000     0.340000000000   
C      0.408000000000     0.572000000000     0.408000000000   
N      0.456100000000     0.530000000000     0.349750000000   
N      0.460800000000     0.555500000000     0.400500000000   
D      0.190600000000     0.749350000000     0.333000000000   
D      0.289700000000     0.746900000000     0.326750000000   
H      0.377600000000     0.508500000000     0.309000000000   
H      0.392600000000     0.597750000000     0.431750000000   
C      0.780800000000     0.529500000000     0.274500000000   
C      0.724400000000     0.530250000000     0.278500000000   
C      0.689400000000     0.563500000000     0.254000000000   
C      0.629200000000     0.553250000000     0.251250000000   
C      0.600000000000     0.528500000000     0.285000000000   
C      0.592000000000     0.572000000000     0.467000000000   
N      0.543900000000     0.530000000000     0.275250000000   
N      0.539200000000     0.555500000000     0.474500000000   
D      0.809400000000     0.749350000000     0.292000000000   
D      0.710300000000     0.746900000000     0.298250000000   
H      0.622400000000     0.508500000000     0.316000000000   
H      0.607400000000     0.597750000000     0.443250000000   
Co     0.500000000000     0.508600000000     0.437500000000   
C      0.780800000000     0.720500000000     0.399500000000   
C      0.724400000000     0.719750000000     0.403500000000   
C      0.689400000000     0.686500000000     0.379000000000   
C      0.629200000000     0.696750000000     0.376250000000   
C      0.600000000000     0.721500000000     0.410000000000   
C      0.592000000000     0.678000000000     0.342000000000   
N      0.543900000000     0.720000000000     0.400250000000   
N      0.539200000000     0.694500000000     0.349500000000   
D      0.809400000000     0.500650000000     0.417000000000   
D      0.710300000000     0.503100000000     0.423250000000   
H      0.622400000000     0.741500000000     0.441000000000   
H      0.607400000000     0.652250000000     0.318250000000   
C      0.219200000000     0.720500000000     0.475500000000   
C      0.275600000000     0.719750000000     0.471500000000   
C      0.310600000000     0.686500000000     0.496000000000   
C      0.370800000000     0.696750000000     0.498750000000   
C      0.400000000000     0.721500000000     0.465000000000   
C      0.408000000000     0.678000000000     0.283000000000   
N      0.456100000000     0.720000000000     0.474750000000   
N      0.460800000000     0.694500000000     0.275500000000   
D      0.190600000000     0.500650000000     0.458000000000   
D      0.289700000000     0.503100000000     0.451750000000   
H      0.377600000000     0.741500000000     0.434000000000   
H      0.392600000000     0.652250000000     0.306750000000   
Co     0.000000000000     0.616400000000     0.312500000000   
C      0.719200000000     0.654500000000     0.350500000000   
C      0.775600000000     0.655250000000     0.346500000000   
C      0.810600000000     0.688500000000     0.371000000000   
C      0.870800000000     0.678250000000     0.373750000000   
C      0.900000000000     0.653500000000     0.340000000000   
C      0.908000000000     0.697000000000     0.408000000000   
N      0.956100000000     0.655000000000     0.349750000000   
N      0.960800000000     0.680500000000     0.400500000000   
D      0.690600000000     0.624350000000     0.333000000000   
D      0.789700000000     0.621900000000     0.326750000000   
H      0.877600000000     0.633500000000     0.309000000000   
H      0.892600000000     0.722750000000     0.431750000000   
C      0.280800000000     0.654500000000     0.274500000000   
C      0.224400000000     0.655250000000     0.278500000000   
C      0.189400000000     0.688500000000     0.254000000000   
C      0.129200000000     0.678250000000     0.251250000000   
C      0.100000000000     0.653500000000     0.285000000000   
C      0.092000000000     0.697000000000     0.467000000000   
N      0.043900000000     0.655000000000     0.275250000000   
N      0.039200000000     0.680500000000     0.474500000000   
D      0.309400000000     0.624350000000     0.292000000000   
D      0.210300000000     0.621900000000     0.298250000000   
H      0.122400000000     0.633500000000     0.316000000000   
H      0.107400000000     0.722750000000     0.443250000000   
Co     0.000000000000     0.633600000000     0.437500000000   
C      0.280800000000     0.595500000000     0.399500000000   
C      0.224400000000     0.594750000000     0.403500000000   
C      0.189400000000     0.561500000000     0.379000000000   
C      0.129200000000     0.571750000000     0.376250000000   
C      0.100000000000     0.596500000000     0.410000000000   
C      0.092000000000     0.553000000000     0.342000000000   
N      0.043900000000     0.595000000000     0.400250000000   
N      0.039200000000     0.569500000000     0.349500000000   
D      0.309400000000     0.625650000000     0.417000000000   
D      0.210300000000     0.628100000000     0.423250000000   
H      0.122400000000     0.616500000000     0.441000000000   
H      0.107400000000     0.527250000000     0.318250000000   
C      0.719200000000     0.595500000000     0.475500000000   
C      0.775600000000     0.594750000000     0.471500000000   
C      0.810600000000     0.561500000000     0.496000000000   
C      0.870800000000     0.571750000000     0.498750000000   
C      0.900000000000     0.596500000000     0.465000000000   
C      0.908000000000     0.553000000000     0.283000000000   
N      0.956100000000     0.595000000000     0.474750000000   
N      0.960800000000     0.569500000000     0.275500000000   
D      0.690600000000     0.625650000000     0.458000000000   
D      0.789700000000     0.628100000000     0.451750000000   
H      0.877600000000     0.616500000000     0.434000000000   
H      0.892600000000     0.527250000000     0.306750000000   
Co     0.500000000000     0.741400000000     0.562500000000   
C      0.219200000000     0.529500000000     0.600500000000   
C      0.275600000000     0.530250000000     0.596500000000   
C      0.310600000000     0.563500000000     0.621000000000   
C      0.370800000000     0.553250000000     0.623750000000   
C      0.400000000000     0.528500000000     0.590000000000   
C      0.408000000000     0.572000000000     0.658000000000   
N      0.456100000000     0.530000000000     0.599750000000   
N      0.460800000000     0.555500000000     0.650500000000   
D      0.190600000000     0.749350000000     0.583000000000   
D      0.289700000000     0.746900000000     0.576750000000   
H      0.377600000000     0.508500000000     0.559000000000   
H      0.392600000000     0.597750000000     0.681750000000   
C      0.780800000000     0.529500000000     0.524500000000   
C      0.724400000000     0.530250000000     0.528500000000   
C      0.689400000000     0.563500000000     0.504000000000   
C      0.629200000000     0.553250000000     0.501250000000   
C      0.600000000000     0.528500000000     0.535000000000   
C      0.592000000000     0.572000000000     0.717000000000   
N      0.543900000000     0.530000000000     0.525250000000   
N      0.539200000000     0.555500000000     0.724500000000   
D      0.809400000000     0.749350000000     0.542000000000   
D      0.710300000000     0.746900000000     0.548250000000   
H      0.622400000000     0.508500000000     0.566000000000   
H      0.607400000000     0.597750000000     0.693250000000   
Co     0.500000000000     0.508600000000     0.687500000000   
C      0.780800000000     0.720500000000     0.649500000000   
C      0.724400000000     0.719750000000     0.653500000000   
C      0.689400000000     0.686500000000     0.629000000000   
C      0.629200000000     0.696750000000     0.626250000000   
C      0.600000000000     0.721500000000     0.660000000000   
C      0.592000000000     0.678000000000     0.592000000000   
N      0.543900000000     0.720000000000     0.650250000000   
N      0.539200000000     0.694500000000     0.599500000000   
D      0.809400000000     0.500650000000     0.667000000000   
D      0.710300000000     0.503100000000     0.673250000000   
H      0.622400000000     0.741500000000     0.691000000000   
H      0.607400000000     0.652250000000     0.568250000000   
C      0.219200000000     0.720500000000     0.725500000000   
C      0.275600000000     0.719750000000     0.721500000000   
C      0.310600000000     0.686500000000     0.746000000000   
C      0.370800000000     0.696750000000     0.748750000000   
C      0.400000000000     0.721500000000     0.715000000000   
C      0.408000000000     0.678000000000     0.533000000000   
N      0.456100000000     0.720000000000     0.724750000000   
N      0.460800000000     0.694500000000     0.525500000000   
D      0.190600000000     0.500650000000     0.708000000000   
D      0.289700000000     0.503100000000     0.701750000000   
H      0.377600000000     0.741500000000     0.684000000000   
H      0.392600000000     0.652250000000     0.556750000000   
Co     0.000000000000     0.616400000000     0.562500000000   
C      0.719200000000     0.654500000000     0.600500000000   
C      0.775600000000     0.655250000000     0.596500000000   
C      0.810600000000     0.688500000000     0.621000000000   
C      0.870800000000     0.678250000000     0.623750000000   
C      0.900000000000     0.653500000000     0.590000000000   
C      0.908000000000     0.697000000000     0.658000000000   
N      0.956100000000     0.655000000000     0.599750000000   
N      0.960800000000     0.680500000000     0.650500000000   
D      0.690600000000     0.624350000000     0.583000000000   
D      0.789700000000     0.621900000000     0.576750000000   
H      0.877600000000     0.633500000000     0.559000000000   
H      0.892600000000     0.722750000000     0.681750000000   
C      0.280800000000     0.654500000000     0.524500000000   
C      0.224400000000     0.655250000000     0.528500000000   
C      0.189400000000     0.688500000000     0.504000000000   
C      0.129200000000     0.678250000000     0.501250000000   
C      0.100000000000     0.653500000000     0.535000000000   
C      0.092000000000     0.697000000000     0.717000000000   
N      0.043900000000     0.655000000000     0.525250000000   
N      0.039200000000     0.680500000000     0.724500000000   
D      0.309400000000     0.624350000000     0.542000000000   
D      0.210300000000     0.621900000000     0.548250000000   
H      0.122400000000     0.633500000000     0.566000000000   
H      0.107400000000     0.722750000000     0.693250000000   
Co     0.000000000000     0.633600000000     0.687500000000   
C      0.280800000000     0.595500000000     0.649500000000   
C      0.224400000000     0.594750000000     0.653500000000   
C      0.189400000000     0.561500000000     0.629000000000   
C      0.129200000000     0.571750000000     0.626250000000   
C      0.100000000000     0.596500000000     0.660000000000   
C      0.092000000000     0.553000000000     0.592000000000   
N      0.043900000000     0.595000000000     0.650250000000   
N      0.039200000000     0.569500000000     0.599500000000   
D      0.309400000000     0.625650000000     0.667000000000   
D      0.210300000000     0.628100000000     0.673250000000   
H      0.122400000000     0.616500000000     0.691000000000   
H      0.107400000000     0.527250000000     0.568250000000   
C      0.719200000000     0.595500000000     0.725500000000   
C      0.775600000000     0.594750000000     0.721500000000   
C      0.810600000000     0.561500000000     0.746000000000   
C      0.870800000000     0.571750000000     0.748750000000   
C      0.900000000000     0.596500000000     0.715000000000   
C      0.908000000000     0.553000000000     0.533000000000   
N      0.956100000000     0.595000000000     0.724750000000   
N      0.960800000000     0.569500000000     0.525500000000   
D      0.690600000000     0.625650000000     0.708000000000   
D      0.789700000000     0.628100000000     0.701750000000   
H      0.877600000000     0.616500000000     0.684000000000   
H      0.892600000000     0.527250000000     0.556750000000   
Co     0.500000000000     0.741400000000     0.812500000000   
C      0.219200000000     0.529500000000     0.850500000000   
C      0.275600000000     0.530250000000     0.846500000000   
C      0.310600000000     0.563500000000     0.871000000000   
C      0.370800000000     0.553250000000     0.873750000000   
C      0.400000000000     0.528500000000     0.840000000000   
C      0.408000000000     0.572000000000     0.908000000000   
N      0.456100000000     0.530000000000     0.849750000000   
N      0.460800000000     0.555500000000     0.900500000000   
D      0.190600000000     0.749350000000     0.833000000000   
D      0.289700000000     0.746900000000     0.826750000000   
H      0.377600000000     0.508500000000     0.809000000000   
H      0.392600000000     0.597750000000     0.931750000000   
C      0.780800000000     0.529500000000     0.774500000000   
C      0.724400000000     0.530250000000     0.778500000000   
C      0.689400000000     0.563500000000     0.754000000000   
C      0.629200000000     0.553250000000     0.751250000000   
C      0.600000000000     0.528500000000     0.785000000000   
C      0.592000000000     0.572000000000     0.967000000000   
N      0.543900000000     0.530000000000     0.775250000000   
N      0.539200000000     0.555500000000     0.974500000000   
D      0.809400000000     0.749350000000     0.792000000000   
D      0.710300000000     0.746900000000     0.798250000000   
H      0.622400000000     0.508500000000     0.816000000000   
H      0.607400000000     0.597750000000     0.943250000000   
Co     0.500000000000     0.508600000000     0.937500000000   
C      0.780800000000     0.720500000000     0.899500000000   
C      0.724400000000     0.719750000000     0.903500000000   
C      0.689400000000     0.686500000000     0.879000000000   
C      0.629200000000     0.696750000000     0.876250000000   
C      0.600000000000     0.721500000000     0.910000000000   
C      0.592000000000     0.678000000000     0.842000000000   
N      0.543900000000     0.720000000000     0.900250000000   
N      0.539200000000     0.694500000000     0.849500000000   
D      0.809400000000     0.500650000000     0.917000000000   
D      0.710300000000     0.503100000000     0.923250000000   
H      0.622400000000     0.741500000000     0.941000000000   
H      0.607400000000     0.652250000000     0.818250000000   
C      0.219200000000     0.720500000000     0.975500000000   
C      0.275600000000     0.719750000000     0.971500000000   
C      0.310600000000     0.686500000000     0.996000000000   
C      0.370800000000     0.696750000000     0.998750000000   
C      0.400000000000     0.721500000000     0.965000000000   
C      0.408000000000     0.678000000000     0.783000000000   
N      0.456100000000     0.720000000000     0.974750000000   
N      0.460800000000     0.694500000000     0.775500000000   
D      0.190600000000     0.500650000000     0.958000000000   
D      0.289700000000     0.503100000000     0.951750000000   
H      0.377600000000     0.741500000000     0.934000000000   
H      0.392600000000     0.652250000000     0.806750000000   
Co     0.000000000000     0.616400000000     0.812500000000   
C      0.719200000000     0.654500000000     0.850500000000   
C      0.775600000000     0.655250000000     0.846500000000   
C      0.810600000000     0.688500000000     0.871000000000   
C      0.870800000000     0.678250000000     0.873750000000   
C      0.900000000000     0.653500000000     0.840000000000   
C      0.908000000000     0.697000000000     0.908000000000   
N      0.956100000000     0.655000000000     0.849750000000   
N      0.960800000000     0.680500000000     0.900500000000   
D      0.690600000000     0.624350000000     0.833000000000   
D      0.789700000000     0.621900000000     0.826750000000   
H      0.877600000000     0.633500000000     0.809000000000   
H      0.892600000000     0.722750000000     0.931750000000   
C      0.280800000000     0.654500000000     0.774500000000   
C      0.224400000000     0.655250000000     0.778500000000   
C      0.189400000000     0.688500000000     0.754000000000   
C      0.129200000000     0.678250000000     0.751250000000   
C      0.100000000000     0.653500000000     0.785000000000   
C      0.092000000000     0.697000000000     0.967000000000   
N      0.043900000000     0.655000000000     0.775250000000   
N      0.039200000000     0.680500000000     0.974500000000   
D      0.309400000000     0.624350000000     0.792000000000   
D      0.210300000000     0.621900000000     0.798250000000   
H      0.122400000000     0.633500000000     0.816000000000   
H      0.107400000000     0.722750000000     0.943250000000   
Co     0.000000000000     0.633600000000     0.937500000000   
C      0.280800000000     0.595500000000     0.899500000000   
C      0.224400000000     0.594750000000     0.903500000000   
C      0.189400000000     0.561500000000     0.879000000000   
C      0.129200000000     0.571750000000     0.876250000000   
C      0.100000000000     0.596500000000     0.910000000000   
C      0.092000000000     0.553000000000     0.842000000000   
N      0.043900000000     0.595000000000     0.900250000000   
N      0.039200000000     0.569500000000     0.849500000000   
D      0.309400000000     0.625650000000     0.917000000000   
D      0.210300000000     0.628100000000     0.923250000000   
H      0.122400000000     0.616500000000     0.941000000000   
H      0.107400000000     0.527250000000     0.818250000000   
C      0.719200000000     0.595500000000     0.975500000000   
C      0.775600000000     0.594750000000     0.971500000000   
C      0.810600000000     0.561500000000     0.996000000000   
C      0.870800000000     0.571750000000     0.998750000000   
C      0.900000000000     0.596500000000     0.965000000000   
C      0.908000000000     0.553000000000     0.783000000000   
N      0.956100000000     0.595000000000     0.974750000000   
N      0.960800000000     0.569500000000     0.775500000000   
D      0.690600000000     0.625650000000     0.958000000000   
D      0.789700000000     0.628100000000     0.951750000000   
H      0.877600000000     0.616500000000     0.934000000000   
H      0.892600000000     0.527250000000     0.806750000000   
Co     0.500000000000     0.991400000000     0.062500000000   
C      0.219200000000     0.779500000000     0.100500000000   
C      0.275600000000     0.780250000000     0.096500000000   
C      0.310600000000     0.813500000000     0.121000000000   
C      0.370800000000     0.803250000000     0.123750000000   
C      0.400000000000     0.778500000000     0.090000000000   
C      0.408000000000     0.822000000000     0.158000000000   
N      0.456100000000     0.780000000000     0.099750000000   
N      0.460800000000     0.805500000000     0.150500000000   
D      0.190600000000     0.999350000000     0.083000000000   
D      0.289700000000     0.996900000000     0.076750000000   
H      0.377600000000     0.758500000000     0.059000000000   
H      0.392600000000     0.847750000000     0.181750000000   
C      0.780800000000     0.779500000000     0.024500000000   
C      0.724400000000     0.780250000000     0.028500000000   
C      0.689400000000     0.813500000000     0.004000000000   
C      0.629200000000     0.803250000000     0.001250000000   
C      0.600000000000     0.778500000000     0.035000000000   
C      0.592000000000     0.822000000000     0.217000000000   
N      0.543900000000     0.780000000000     0.025250000000   
N      0.539200000000     0.805500000000     0.224500000000   
D      0.809400000000     0.999350000000     0.042000000000   
D      0.710300000000     0.996900000000     0.048250000000   
H      0.622400000000     0.758500000000     0.066000000000   
H      0.607400000000     0.847750000000     0.193250000000   
Co     0.500000000000     0.758600000000     0.187500000000   
C      0.780800000000     0.970500000000     0.149500000000   
C      0.724400000000     0.969750000000     0.153500000000   
C      0.689400000000     0.936500000000     0.129000000000   
C      0.629200000000     0.946750000000     0.126250000000   
C      0.600000000000     0.971500000000     0.160000000000   
C      0.592000000000     0.928000000000     0.092000000000   
N      0.543900000000     0.970000000000     0.150250000000   
N      0.539200000000     0.944500000000     0.099500000000   
D      0.809400000000     0.750650000000     0.167000000000   
D      0.710300000000     0.753100000000     0.173250000000   
H      0.622400000000     0.991500000000     0.191000000000   
H      0.607400000000     0.902250000000     0.068250000000   
C      0.219200000000     0.970500000000     0.225500000000   
C      0.275600000000     0.969750000000     0.221500000000   
C      0.310600000000     0.936500000000     0.246000000000   
C      0.370800000000     0.946750000000     0.248750000000   
C      0.400000000000     0.971500000000     0.215000000000   
C      0.408000000000     0.928000000000     0.033000000000   
N      0.456100000000     0.970000000000     0.224750000000   
N      0.460800000000     0.944500000000     0.025500000000   
D      0.190600000000     0.750650000000     0.208000000000   
D      0.289700000000     0.753100000000     0.201750000000   
H      0.377600000000     0.991500000000     0.184000000000   
H      0.392600000000     0.902250000000     0.056750000000   
Co     0.000000000000     0.866400000000     0.062500000000   
C      0.719200000000     0.904500000000     0.100500000000   
C      0.775600000000     0.905250000000     0.096500000000   
C      0.810600000000     0.938500000000     0.121000000000   
C      0.870800000000     0.928250000000     0.123750000000   
C      0.900000000000     0.903500000000     0.090000000000   
C      0.908000000000     0.947000000000     0.158000000000   
N      0.956100000000     0.905000000000     0.099750000000   
N      0.960800000000     0.930500000000     0.150500000000   
D      0.690600000000     0.874350000000     0.083000000000   
D      0.789700000000     0.871900000000     0.076750000000   
H      0.877600000000     0.883500000000     0.059000000000   
H      0.892600000000     0.972750000000     0.181750000000   
C      0.280800000000     0.904500000000     0.024500000000   
C      0.224400000000     0.905250000000     0.028500000000   
C      0.189400000000     0.938500000000     0.004000000000   
C      0.129200000000     0.928250000000     0.001250000000   
C      0.100000000000     0.903500000000     0.035000000000   
C      0.092000000000     0.947000000000     0.217000000000   
N      0.043900000000     0.905000000000     0.025250000000   
N      0.039200000000     0.930500000000     0.224500000000   
D      0.309400000000     0.874350000000     0.042000000000   
D      0.210300000000     0.871900000000     0.048250000000   
H      0.122400000000     0.883500000000     0.066000000000   
H      0.107400000000     0.972750000000     0.193250000000   
Co     0.000000000000     0.883600000000     0.187500000000   
C      0.280800000000     0.845500000000     0.149500000000   
C      0.224400000000     0.844750000000     0.153500000000   
C      0.189400000000     0.811500000000     0.129000000000   
C      0.129200000000     0.821750000000     0.126250000000   
C      0.100000000000     0.846500000000     0.160000000000   
C      0.092000000000     0.803000000000     0.092000000000   
N      0.043900000000     0.845000000000     0.150250000000   
N      0.039200000000     0.819500000000     0.099500000000   
D      0.309400000000     0.875650000000     0.167000000000   
D      0.210300000000     0.878100000000     0.173250000000   
H      0.122400000000     0.866500000000     0.191000000000   
H      0.107400000000     0.777250000000     0.068250000000   
C      0.719200000000     0.845500000000     0.225500000000   
C      0.775600000000     0.844750000000     0.221500000000   
C      0.810600000000     0.811500000000     0.246000000000   
C      0.870800000000     0.821750000000     0.248750000000   
C      0.900000000000     0.846500000000     0.215000000000   
C      0.908000000000     0.803000000000     0.033000000000   
N      0.956100000000     0.845000000000     0.224750000000   
N      0.960800000000     0.819500000000     0.025500000000   
D      0.690600000000     0.875650000000     0.208000000000   
D      0.789700000000     0.878100000000     0.201750000000   
H      0.877600000000     0.866500000000     0.184000000000   
H      0.892600000000     0.777250000000     0.056750000000   
Co     0.500000000000     0.991400000000     0.312500000000   
C      0.219200000000     0.779500000000     0.350500000000   
C      0.275600000000     0.780250000000     0.346500000000   
C      0.310600000000     0.813500000000     0.371000000000   
C      0.370800000000     0.803250000000     0.373750000000   
C      0.400000000000     0.778500000000     0.340000000000   
C      0.408000000000     0.822000000000     0.408000000000   
N      0.456100000000     0.780000000000     0.349750000000   
N      0.460800000000     0.805500000000     0.400500000000   
D      0.190600000000     0.999350000000     0.333000000000   
D      0.289700000000     0.996900000000     0.326750000000   
H      0.377600000000     0.758500000000     0.309000000000   
H      0.392600000000     0.847750000000     0.431750000000   
C      0.780800000000     0.779500000000     0.274500000000   
C      0.724400000000     0.780250000000     0.278500000000   
C      0.689400000000     0.813500000000     0.254000000000   
C      0.629200000000     0.803250000000     0.251250000000   
C      0.600000000000     0.778500000000     0.285000000000   
C      0.592000000000     0.822000000000     0.467000000000   
N      0.543900000000     0.780000000000     0.275250000000   
N      0.539200000000     0.805500000000     0.474500000000   
D      0.809400000000     0.999350000000     0.292000000000   
D      0.710300000000     0.996900000000     0.298250000000   
H      0.622400000000     0.758500000000     0.316000000000   
H      0.607400000000     0.847750000000     0.443250000000   
Co     0.500000000000     0.758600000000     0.437500000000   
C      0.780800000000     0.970500000000     0.399500000000   
C      0.724400000000     0.969750000000     0.403500000000   
C      0.689400000000     0.936500000000     0.379000000000   
C      0.629200000000     0.946750000000     0.376250000000   
C      0.600000000000     0.971500000000     0.410000000000   
C      0.592000000000     0.928000000000     0.342000000000   
N      0.543900000000     0.970000000000     0.400250000000   
N      0.539200000000     0.944500000000     0.349500000000   
D      0.809400000000     0.750650000000     0.417000000000   
D      0.710300000000     0.753100000000     0.423250000000   
H      0.622400000000     0.991500000000     0.441000000000   
H      0.607400000000     0.902250000000     0.318250000000   
C      0.219200000000     0.970500000000     0.475500000000   
C      0.275600000000     0.969750000000     0.471500000000   
C      0.310600000000     0.936500000000     0.496000000000   
C      0.370800000000     0.946750000000     0.498750000000   
C      0.400000000000     0.971500000000     0.465000000000   
C      0.408000000000     0.928000000000     0.283000000000   
N      0.456100000000     0.970000000000     0.474750000000   
N      0.460800000000     0.944500000000     0.275500000000   
D      0.190600000000     0.750650000000     0.458000000000   
D      0.289700000000     0.753100000000     0.451750000000   
H      0.377600000000     0.991500000000     0.434000000000   
H      0.392600000000     0.902250000000     0.306750000000   
Co     0.000000000000     0.866400000000     0.312500000000   
C      0.719200000000     0.904500000000     0.350500000000   
C      0.775600000000     0.905250000000     0.346500000000   
C      0.810600000000     0.938500000000     0.371000000000   
C      0.870800000000     0.928250000000     0.373750000000   
C      0.900000000000     0.903500000000     0.340000000000   
C      0.908000000000     0.947000000000     0.408000000000   
N      0.956100000000     0.905000000000     0.349750000000   
N      0.960800000000     0.930500000000     0.400500000000   
D      0.690600000000     0.874350000000     0.333000000000   
D      0.789700000000     0.871900000000     0.326750000000   
H      0.877600000000     0.883500000000     0.309000000000   
H      0.892600000000     0.972750000000     0.431750000000   
C      0.280800000000     0.904500000000     0.274500000000   
C      0.224400000000     0.905250000000     0.278500000000   
C      0.189400000000     0.938500000000     0.254000000000   
C      0.129200000000     0.928250000000     0.251250000000   
C      0.100000000000     0.903500000000     0.285000000000   
C      0.092000000000     0.947000000000     0.467000000000   
N      0.043900000000     0.905000000000     0.275250000000   
N      0.039200000000     0.930500000000     0.474500000000   
D      0.309400000000     0.874350000000     0.292000000000   
D      0.210300000000     0.871900000000     0.298250000000   
H      0.122400000000     0.883500000000     0.316000000000   
H      0.107400000000     0.972750000000     0.443250000000   
Co     0.000000000000     0.883600000000     0.437500000000   
C      0.280800000000     0.845500000000     0.399500000000   
C      0.224400000000     0.844750000000     0.403500000000   
C      0.189400000000     0.811500000000     0.379000000000   
C      0.129200000000     0.821750000000     0.376250000000   
C      0.100000000000     0.846500000000     0.410000000000   
C      0.092000000000     0.803000000000     0.342000000000   
N      0.043900000000     0.845000000000     0.400250000000   
N      0.039200000000     0.819500000000     0.349500000000   
D      0.309400000000     0.875650000000     0.417000000000   
D      0.210300000000     0.878100000000     0.423250000000   
H      0.122400000000     0.866500000000     0.441000000000   
H      0.107400000000     0.777250000000     0.318250000000   
C      0.719200000000     0.845500000000     0.475500000000   
C      0.775600000000     0.844750000000     0.471500000000   
C      0.810600000000     0.811500000000     0.496000000000   
C      0.870800000000     0.821750000000     0.498750000000   
C      0.900000000000     0.846500000000     0.465000000000   
C      0.908000000000     0.803000000000     0.283000000000   
N      0.956100000000     0.845000000000     0.474750000000   
N      0.960800000000     0.819500000000     0.275500000000   
D      0.690600000000     0.875650000000     0.458000000000   
D      0.789700000000     0.878100000000     0.451750000000   
H      0.877600000000     0.866500000000     0.434000000000   
H      0.892600000000     0.777250000000     0.306750000000   
Co     0.500000000000     0.991400000000     0.562500000000   
C      0.219200000000     0.779500000000     0.600500000000   
C      0.275600000000     0.780250000000     0.596500000000   
C      0.310600000000     0.813500000000     0.621000000000   
C      0.370800000000     0.803250000000     0.623750000000   
C      0.400000000000     0.778500000000     0.590000000000   
C      0.408000000000     0.822000000000     0.658000000000   
N      0.456100000000     0.780000000000     0.599750000000   
N      0.460800000000     0.805500000000     0.650500000000   
D      0.190600000000     0.999350000000     0.583000000000   
D      0.289700000000     0.996900000000     0.576750000000   
H      0.377600000000     0.758500000000     0.559000000000   
H      0.392600000000     0.847750000000     0.681750000000   
C      0.780800000000     0.779500000000     0.524500000000   
C      0.724400000000     0.780250000000     0.528500000000   
C      0.689400000000     0.813500000000     0.504000000000   
C      0.629200000000     0.803250000000     0.501250000000   
C      0.600000000000     0.778500000000     0.535000000000   
C      0.592000000000     0.822000000000     0.717000000000   
N      0.543900000000     0.780000000000     0.525250000000   
N      0.539200000000     0.805500000000     0.724500000000   
D      0.809400000000     0.999350000000     0.542000000000   
D      0.710300000000     0.996900000000     0.548250000000   
H      0.622400000000     0.758500000000     0.566000000000   
H      0.607400000000     0.847750000000     0.693250000000   
Co     0.500000000000     0.758600000000     0.687500000000   
C      0.780800000000     0.970500000000     0.649500000000   
C      0.724400000000     0.969750000000     0.653500000000   
C      0.689400000000     0.936500000000     0.629000000000   
C      0.629200000000     0.946750000000     0.626250000000   
C      0.600000000000     0.971500000000     0.660000000000   
C      0.592000000000     0.928000000000     0.592000000000   
N      0.543900000000     0.970000000000     0.650250000000   
N      0.539200000000     0.944500000000     0.599500000000   
D      0.809400000000     0.750650000000     0.667000000000   
D      0.710300000000     0.753100000000     0.673250000000   
H      0.622400000000     0.991500000000     0.691000000000   
H      0.607400000000     0.902250000000     0.568250000000   
C      0.219200000000     0.970500000000     0.725500000000   
C      0.275600000000     0.969750000000     0.721500000000   
C      0.310600000000     0.936500000000     0.746000000000   
C      0.370800000000     0.946750000000     0.748750000000   
C      0.400000000000     0.971500000000     0.715000000000   
C      0.408000000000     0.928000000000     0.533000000000   
N      0.456100000000     0.970000000000     0.724750000000   
N      0.460800000000     0.944500000000     0.525500000000   
D      0.190600000000     0.750650000000     0.708000000000   
D      0.289700000000     0.753100000000     0.701750000000   
H      0.377600000000     0.991500000000     0.684000000000   
H      0.392600000000     0.902250000000     0.556750000000   
Co     0.000000000000     0.866400000000     0.562500000000   
C      0.719200000000     0.904500000000     0.600500000000   
C      0.775600000000     0.905250000000     0.596500000000   
C      0.810600000000     0.938500000000     0.621000000000   
C      0.870800000000     0.928250000000     0.623750000000   
C      0.900000000000     0.903500000000     0.590000000000   
C      0.908000000000     0.947000000000     0.658000000000   
N      0.956100000000     0.905000000000     0.599750000000   
N      0.960800000000     0.930500000000     0.650500000000   
D      0.690600000000     0.874350000000     0.583000000000   
D      0.789700000000     0.871900000000     0.576750000000   
H      0.877600000000     0.883500000000     0.559000000000   
H      0.892600000000     0.972750000000     0.681750000000   
C      0.280800000000     0.904500000000     0.524500000000   
C      0.224400000000     0.905250000000     0.528500000000   
C      0.189400000000     0.938500000000     0.504000000000   
C      0.129200000000     0.928250000000     0.501250000000   
C      0.100000000000     0.903500000000     0.535000000000   
C      0.092000000000     0.947000000000     0.717000000000   
N      0.043900000000     0.905000000000     0.525250000000   
N      0.039200000000     0.930500000000     0.724500000000   
D      0.309400000000     0.874350000000     0.542000000000   
D      0.210300000000     0.871900000000     0.548250000000   
H      0.122400000000     0.883500000000     0.566000000000   
H      0.107400000000     0.972750000000     0.693250000000   
Co     0.000000000000     0.883600000000     0.687500000000   
C      0.280800000000     0.845500000000     0.649500000000   
C      0.224400000000     0.844750000000     0.653500000000   
C      0.189400000000     0.811500000000     0.629000000000   
C      0.129200000000     0.821750000000     0.626250000000   
C      0.100000000000     0.846500000000     0.660000000000   
C      0.092000000000     0.803000000000     0.592000000000   
N      0.043900000000     0.845000000000     0.650250000000   
N      0.039200000000     0.819500000000     0.599500000000   
D      0.309400000000     0.875650000000     0.667000000000   
D      0.210300000000     0.878100000000     0.673250000000   
H      0.122400000000     0.866500000000     0.691000000000   
H      0.107400000000     0.777250000000     0.568250000000   
C      0.719200000000     0.845500000000     0.725500000000   
C      0.775600000000     0.844750000000     0.721500000000   
C      0.810600000000     0.811500000000     0.746000000000   
C      0.870800000000     0.821750000000     0.748750000000   
C      0.900000000000     0.846500000000     0.715000000000   
C      0.908000000000     0.803000000000     0.533000000000   
N      0.956100000000     0.845000000000     0.724750000000   
N      0.960800000000     0.819500000000     0.525500000000   
D      0.690600000000     0.875650000000     0.708000000000   
D      0.789700000000     0.878100000000     0.701750000000   
H      0.877600000000     0.866500000000     0.684000000000   
H      0.892600000000     0.777250000000     0.556750000000   
Co     0.500000000000     0.991400000000     0.812500000000   
C      0.219200000000     0.779500000000     0.850500000000   
C      0.275600000000     0.780250000000     0.846500000000   
C      0.310600000000     0.813500000000     0.871000000000   
C      0.370800000000     0.803250000000     0.873750000000   
C      0.400000000000     0.778500000000     0.840000000000   
C      0.408000000000     0.822000000000     0.908000000000   
N      0.456100000000     0.780000000000     0.849750000000   
N      0.460800000000     0.805500000000     0.900500000000   
D      0.190600000000     0.999350000000     0.833000000000   
D      0.289700000000     0.996900000000     0.826750000000   
H      0.377600000000     0.758500000000     0.809000000000   
H      0.392600000000     0.847750000000     0.931750000000   
C      0.780800000000     0.779500000000     0.774500000000   
C      0.724400000000     0.780250000000     0.778500000000   
C      0.689400000000     0.813500000000     0.754000000000   
C      0.629200000000     0.803250000000     0.751250000000   
C      0.600000000000     0.778500000000     0.785000000000   
C      0.592000000000     0.822000000000     0.967000000000   
N      0.543900000000     0.780000000000     0.775250000000   
N      0.539200000000     0.805500000000     0.974500000000   
D      0.809400000000     0.999350000000     0.792000000000   
D      0.710300000000     0.996900000000     0.798250000000   
H      0.622400000000     0.758500000000     0.816000000000   
H      0.607400000000     0.847750000000     0.943250000000   
Co     0.500000000000     0.758600000000     0.937500000000   
C      0.780800000000     0.970500000000     0.899500000000   
C      0.724400000000     0.969750000000     0.903500000000   
C      0.689400000000     0.936500000000     0.879000000000   
C      0.629200000000     0.946750000000     0.876250000000   
C      0.600000000000     0.971500000000     0.910000000000   
C      0.592000000000     0.928000000000     0.842000000000   
N      0.543900000000     0.970000000000     0.900250000000   
N      0.539200000000     0.944500000000     0.849500000000   
D      0.809400000000     0.750650000000     0.917000000000   
D      0.710300000000     0.753100000000     0.923250000000   
H      0.622400000000     0.991500000000     0.941000000000   
H      0.607400000000     0.902250000000     0.818250000000   
C      0.219200000000     0.970500000000     0.975500000000   
C      0.275600000000     0.969750000000     0.971500000000   
C      0.310600000000     0.936500000000     0.996000000000   
C      0.370800000000     0.946750000000     0.998750000000   
C      0.400000000000     0.971500000000     0.965000000000   
C      0.408000000000     0.928000000000     0.783000000000   
N      0.456100000000     0.970000000000     0.974750000000   
N      0.460800000000     0.944500000000     0.775500000000   
D      0.190600000000     0.750650000000     0.958000000000   
D      0.289700000000     0.753100000000     0.951750000000   
H      0.377600000000     0.991500000000     0.934000000000   
H      0.392600000000     0.902250000000     0.806750000000   
Co     0.000000000000     0.866400000000     0.812500000000   
C      0.719200000000     0.904500000000     0.850500000000   
C      0.775600000000     0.905250000000     0.846500000000   
C      0.810600000000     0.938500000000     0.871000000000   
C      0.870800000000     0.928250000000     0.873750000000   
C      0.900000000000     0.903500000000     0.840000000000   
C      0.908000000000     0.947000000000     0.908000000000   
N      0.956100000000     0.905000000000     0.849750000000   
N      0.960800000000     0.930500000000     0.900500000000   
D      0.690600000000     0.874350000000     0.833000000000   
D      0.789700000000     0.871900000000     0.826750000000   
H      0.877600000000     0.883500000000     0.809000000000   
H      0.892600000000     0.972750000000     0.931750000000   
C      0.280800000000     0.904500000000     0.774500000000   
C      0.224400000000     0.905250000000     0.778500000000   
C      0.189400000000     0.938500000000     0.754000000000   
C      0.129200000000     0.928250000000     0.751250000000   
C      0.100000000000     0.903500000000     0.785000000000   
C      0.092000000000     0.947000000000     0.967000000000   
N      0.043900000000     0.905000000000     0.775250000000   
N      0.039200000000     0.930500000000     0.974500000000   
D      0.309400000000     0.874350000000     0.792000000000   
D      0.210300000000     0.871900000000     0.798250000000   
H      0.122400000000     0.883500000000     0.816000000000   
H      0.107400000000     0.972750000000     0.943250000000   
Co     0.000000000000     0.883600000000     0.937500000000   
C      0.280800000000     0.845500000000     0.899500000000   
C      0.224400000000     0.844750000000     0.903500000000   
C      0.189400000000     0.811500000000     0.879000000000   
C      0.129200000000     0.821750000000     0.876250000000   
C      0.100000000000     0.846500000000     0.910000000000   
C      0.092000000000     0.803000000000     0.842000000000   
N      0.043900000000     0.845000000000     0.900250000000   
N      0.039200000000     0.819500000000     0.849500000000   
D      0.309400000000     0.875650000000     0.917000000000   
D      0.210300000000     0.878100000000     0.923250000000   
H      0.122400000000     0.866500000000     0.941000000000   
H      0.107400000000     0.777250000000     0.818250000000   
C      0.719200000000     0.845500000000     0.975500000000   
C      0.775600000000     0.844750000000     0.971500000000   
C      0.810600000000     0.811500000000     0.996000000000   
C      0.870800000000     0.821750000000     0.998750000000   
C      0.900000000000     0.846500000000     0.965000000000   
C      0.908000000000     0.803000000000     0.783000000000   
N      0.956100000000     0.845000000000     0.974750000000   
N      0.960800000000     0.819500000000     0.775500000000   
D      0.690600000000     0.875650000000     0.958000000000   
D      0.789700000000     0.878100000000     0.951750000000   
H      0.877600000000     0.866500000000     0.934000000000   
H      0.892600000000     0.777250000000     0.806750000000   
%ENDBLOCK POSITIONS_FRAC
