# Co-dmd_CoMe2bdp
1.000000
 24.6401000000000003   0.0000000000000000         0.0000000000
  0.0000000000000016  26.0886300000000020         0.0000000000
 -0.0403160765101913   0.0000000000000017        28.5177715022
Co C C C C C C C N N H H H H H H 
48 96 96 96 96 96 96 96 96 96 96 96 96 96 96 96 
Direct
0.5000000000000000 0.0117233333333333 0.0625000000000000
0.4999999999999999 0.3216100000000000 0.1875000000000000
0.0000000000000000 0.1783900000000000 0.0625000000000000
0.0000000000000000 0.1549433333333333 0.1875000000000000
0.4999999999999999 0.0117233333333333 0.3124999999999999
0.4999999999999999 0.3216099999999999 0.4374999999999999
0.0000000000000000 0.1783900000000000 0.3124999999999999
0.0000000000000000 0.1549433333333333 0.4374999999999999
0.4999999999999999 0.0117233333333333 0.5624999999999999
0.5000000000000000 0.3216100000000000 0.6874999999999999
0.0000000000000000 0.1783900000000000 0.5624999999999999
0.0000000000000000 0.1549433333333333 0.6874999999999999
0.4999999999999999 0.0117233333333333 0.8124999999999999
0.4999999999999999 0.3216100000000000 0.9374999999999998
0.0000000000000000 0.1783900000000000 0.8124999999999999
0.0000000000000000 0.1549433333333333 0.9374999999999998
0.5000000000000000 0.3450566666666666 0.0625000000000000
0.4999999999999999 0.6549433333333331 0.1875000000000000
0.0000000000000000 0.5117233333333332 0.0625000000000000
0.0000000000000000 0.4882766666666666 0.1875000000000000
0.4999999999999999 0.3450566666666666 0.3124999999999999
0.5000000000000000 0.6549433333333331 0.4374999999999999
0.0000000000000000 0.5117233333333332 0.3124999999999999
0.0000000000000000 0.4882766666666665 0.4374999999999999
0.4999999999999999 0.3450566666666666 0.5624999999999999
0.5000000000000000 0.6549433333333331 0.6874999999999999
0.0000000000000000 0.5117233333333333 0.5624999999999999
0.0000000000000000 0.4882766666666666 0.6874999999999999
0.4999999999999999 0.3450566666666666 0.8124999999999999
0.4999999999999999 0.6549433333333330 0.9374999999999998
0.0000000000000000 0.5117233333333333 0.8124999999999999
0.0000000000000000 0.4882766666666666 0.9374999999999998
0.5000000000000000 0.6783899999999997 0.0625000000000000
0.4999999999999999 0.9882766666666665 0.1875000000000000
0.0000000000000000 0.8450566666666666 0.0625000000000000
0.0000000000000000 0.8216099999999998 0.1875000000000000
0.4999999999999999 0.6783899999999997 0.3124999999999999
0.5000000000000000 0.9882766666666665 0.4374999999999999
0.0000000000000000 0.8450566666666666 0.3124999999999999
0.0000000000000000 0.8216099999999998 0.4374999999999999
0.4999999999999999 0.6783899999999997 0.5624999999999999
0.5000000000000000 0.9882766666666665 0.6874999999999999
0.0000000000000000 0.8450566666666666 0.5624999999999999
0.0000000000000000 0.8216099999999998 0.6874999999999999
0.4999999999999999 0.6783899999999997 0.8124999999999999
0.4999999999999999 0.9882766666666664 0.9374999999999998
0.0000000000000000 0.8450566666666666 0.8124999999999999
0.0000000000000000 0.8216099999999997 0.9374999999999998
0.4050000000000000 0.0676666666666667 0.0982500000000000
0.5949999999999999 0.0676666666666667 0.0267500000000000
0.5949999999999999 0.2656666666666666 0.1517500000000000
0.4050000000000001 0.2656666666666666 0.2232499999999999
0.9050000000000000 0.2343333333333333 0.0982500000000000
0.0950000000000000 0.2343333333333333 0.0267500000000000
0.0950000000000000 0.0990000000000000 0.1517500000000000
0.9050000000000000 0.0990000000000000 0.2232499999999999
0.4050000000000000 0.0676666666666667 0.3482499999999999
0.5950000000000000 0.0676666666666667 0.2767499999999999
0.5949999999999999 0.2656666666666666 0.4017499999999999
0.4050000000000000 0.2656666666666666 0.4732499999999999
0.9049999999999999 0.2343333333333333 0.3482499999999999
0.0950000000000000 0.2343333333333333 0.2767499999999999
0.0950000000000000 0.0990000000000000 0.4017499999999999
0.9049999999999999 0.0990000000000000 0.4732499999999999
0.4050000000000000 0.0676666666666667 0.5982499999999998
0.5950000000000000 0.0676666666666667 0.5267499999999999
0.5950000000000000 0.2656666666666666 0.6517499999999999
0.4050000000000000 0.2656666666666666 0.7232499999999997
0.9050000000000000 0.2343333333333333 0.5982499999999998
0.0950000000000000 0.2343333333333333 0.5267499999999999
0.0950000000000000 0.0990000000000000 0.6517499999999999
0.9049999999999999 0.0990000000000000 0.7232499999999997
0.4050000000000000 0.0676666666666667 0.8482499999999998
0.5949999999999999 0.0676666666666667 0.7767499999999998
0.5949999999999999 0.2656666666666666 0.9017499999999998
0.4050000000000000 0.2656666666666666 0.9732499999999997
0.9049999999999999 0.2343333333333333 0.8482499999999998
0.0950000000000000 0.2343333333333333 0.7767499999999998
0.0950000000000000 0.0990000000000000 0.9017499999999998
0.9050000000000000 0.0990000000000000 0.9732499999999997
0.4050000000000000 0.4010000000000000 0.0982500000000000
0.5949999999999999 0.4010000000000000 0.0267500000000000
0.5950000000000000 0.5989999999999999 0.1517500000000000
0.4050000000000001 0.5989999999999999 0.2232499999999999
0.9050000000000000 0.5676666666666665 0.0982500000000000
0.0950000000000000 0.5676666666666665 0.0267500000000000
0.0950000000000000 0.4323333333333332 0.1517500000000000
0.9050000000000000 0.4323333333333332 0.2232499999999999
0.4050000000000000 0.4010000000000000 0.3482499999999999
0.5950000000000000 0.4010000000000000 0.2767499999999999
0.5950000000000000 0.5989999999999999 0.4017499999999999
0.4050000000000000 0.5989999999999999 0.4732499999999999
0.9049999999999999 0.5676666666666665 0.3482499999999999
0.0950000000000000 0.5676666666666665 0.2767499999999999
0.0950000000000000 0.4323333333333332 0.4017499999999999
0.9049999999999999 0.4323333333333331 0.4732499999999999
0.4050000000000000 0.4010000000000000 0.5982499999999998
0.5950000000000000 0.4010000000000000 0.5267499999999999
0.5950000000000000 0.5989999999999999 0.6517499999999999
0.4050000000000000 0.5989999999999999 0.7232499999999997
0.9050000000000000 0.5676666666666665 0.5982499999999998
0.0950000000000000 0.5676666666666665 0.5267499999999999
0.0950000000000000 0.4323333333333332 0.6517499999999999
0.9049999999999999 0.4323333333333332 0.7232499999999997
0.4050000000000000 0.4010000000000000 0.8482499999999998
0.5949999999999999 0.4010000000000000 0.7767499999999998
0.5950000000000000 0.5989999999999998 0.9017499999999998
0.4050000000000000 0.5989999999999998 0.9732499999999997
0.9049999999999999 0.5676666666666664 0.8482499999999998
0.0949999999999999 0.5676666666666665 0.7767499999999998
0.0950000000000000 0.4323333333333332 0.9017499999999998
0.9050000000000000 0.4323333333333332 0.9732499999999997
0.4050000000000000 0.7343333333333331 0.0982500000000000
0.5950000000000000 0.7343333333333331 0.0267500000000000
0.5949999999999999 0.9323333333333331 0.1517500000000000
0.4050000000000001 0.9323333333333331 0.2232499999999999
0.9049999999999999 0.9009999999999999 0.0982500000000000
0.0950000000000000 0.9009999999999999 0.0267500000000000
0.0950000000000000 0.7656666666666666 0.1517500000000000
0.9050000000000000 0.7656666666666666 0.2232499999999999
0.4050000000000000 0.7343333333333331 0.3482499999999999
0.5950000000000000 0.7343333333333331 0.2767499999999999
0.5949999999999999 0.9323333333333331 0.4017499999999999
0.4050000000000000 0.9323333333333331 0.4732499999999999
0.9049999999999998 0.9009999999999999 0.3482499999999999
0.0950000000000000 0.9009999999999999 0.2767499999999999
0.0950000000000000 0.7656666666666666 0.4017499999999999
0.9049999999999999 0.7656666666666666 0.4732499999999999
0.4050000000000000 0.7343333333333331 0.5982499999999998
0.5950000000000001 0.7343333333333331 0.5267499999999999
0.5949999999999999 0.9323333333333331 0.6517499999999999
0.4050000000000000 0.9323333333333331 0.7232499999999997
0.9049999999999999 0.9009999999999999 0.5982499999999998
0.0950000000000000 0.9009999999999999 0.5267499999999999
0.0950000000000000 0.7656666666666666 0.6517499999999999
0.9049999999999999 0.7656666666666666 0.7232499999999997
0.4050000000000000 0.7343333333333329 0.8482499999999998
0.5950000000000000 0.7343333333333331 0.7767499999999998
0.5949999999999999 0.9323333333333330 0.9017499999999998
0.4050000000000000 0.9323333333333330 0.9732499999999997
0.9049999999999998 0.9009999999999998 0.8482499999999998
0.0949999999999999 0.9009999999999999 0.7767499999999998
0.0950000000000000 0.7656666666666665 0.9017499999999998
0.9050000000000000 0.7656666666666665 0.9732499999999997
0.3892000000000000 0.0390000000000000 0.1695000000000000
0.6107999999999999 0.0390000000000000 0.2054999999999999
0.6108000000000000 0.2943333333333333 0.0805000000000000
0.3891999999999999 0.2943333333333333 0.0445000000000000
0.8891999999999998 0.2056666666666666 0.1695000000000000
0.1108000000000000 0.2056666666666666 0.2054999999999999
0.1108000000000000 0.1276666666666667 0.0805000000000000
0.8891999999999999 0.1276666666666667 0.0445000000000000
0.3892000000000000 0.0390000000000000 0.4194999999999999
0.6108000000000000 0.0390000000000000 0.4554999999999999
0.6107999999999999 0.2943333333333333 0.3305000000000000
0.3891999999999999 0.2943333333333333 0.2944999999999999
0.8891999999999999 0.2056666666666666 0.4194999999999999
0.1108000000000000 0.2056666666666666 0.4554999999999999
0.1108000000000000 0.1276666666666667 0.3305000000000000
0.8891999999999999 0.1276666666666667 0.2944999999999999
0.3891999999999999 0.0390000000000000 0.6694999999999999
0.6107999999999999 0.0390000000000000 0.7054999999999999
0.6107999999999999 0.2943333333333332 0.5804999999999998
0.3891999999999999 0.2943333333333332 0.5444999999999999
0.8892000000000000 0.2056666666666666 0.6694999999999999
0.1108000000000000 0.2056666666666666 0.7054999999999999
0.1108000000000000 0.1276666666666667 0.5804999999999998
0.8891999999999998 0.1276666666666667 0.5444999999999999
0.3891999999999999 0.0390000000000000 0.9194999999999998
0.6108000000000000 0.0390000000000000 0.9554999999999998
0.6108000000000000 0.2943333333333333 0.8304999999999999
0.3892000000000000 0.2943333333333333 0.7944999999999999
0.8891999999999999 0.2056666666666666 0.9194999999999998
0.1108000000000000 0.2056666666666666 0.9554999999999998
0.1108000000000000 0.1276666666666667 0.8304999999999999
0.8891999999999999 0.1276666666666667 0.7944999999999999
0.3892000000000000 0.3723333333333332 0.1695000000000000
0.6107999999999999 0.3723333333333332 0.2054999999999999
0.6108000000000000 0.6276666666666665 0.0805000000000000
0.3891999999999999 0.6276666666666665 0.0445000000000000
0.8891999999999998 0.5389999999999999 0.1695000000000000
0.1108000000000000 0.5389999999999999 0.2054999999999999
0.1108000000000000 0.4609999999999999 0.0805000000000000
0.8891999999999999 0.4609999999999999 0.0445000000000000
0.3892000000000000 0.3723333333333332 0.4194999999999999
0.6108000000000000 0.3723333333333332 0.4554999999999999
0.6108000000000000 0.6276666666666665 0.3305000000000000
0.3891999999999999 0.6276666666666665 0.2944999999999999
0.8891999999999999 0.5389999999999999 0.4194999999999999
0.1108000000000000 0.5389999999999999 0.4554999999999999
0.1108000000000000 0.4609999999999999 0.3305000000000000
0.8891999999999999 0.4609999999999999 0.2944999999999999
0.3891999999999999 0.3723333333333332 0.6694999999999999
0.6107999999999999 0.3723333333333332 0.7054999999999999
0.6108000000000000 0.6276666666666665 0.5804999999999998
0.3892000000000000 0.6276666666666665 0.5444999999999999
0.8892000000000000 0.5389999999999999 0.6694999999999999
0.1108000000000000 0.5389999999999999 0.7054999999999999
0.1108000000000000 0.4609999999999999 0.5804999999999998
0.8891999999999998 0.4609999999999999 0.5444999999999999
0.3891999999999999 0.3723333333333332 0.9194999999999998
0.6108000000000000 0.3723333333333332 0.9554999999999998
0.6108000000000001 0.6276666666666664 0.8304999999999999
0.3892000000000000 0.6276666666666665 0.7944999999999999
0.8891999999999999 0.5389999999999998 0.9194999999999998
0.1108000000000000 0.5389999999999998 0.9554999999999998
0.1108000000000000 0.4609999999999999 0.8304999999999999
0.8891999999999999 0.4609999999999999 0.7944999999999999
0.3892000000000000 0.7056666666666666 0.1695000000000000
0.6108000000000000 0.7056666666666666 0.2054999999999999
0.6107999999999999 0.9609999999999997 0.0805000000000000
0.3891999999999999 0.9609999999999997 0.0445000000000000
0.8891999999999997 0.8723333333333332 0.1695000000000000
0.1108000000000000 0.8723333333333332 0.2054999999999999
0.1108000000000000 0.7943333333333331 0.0805000000000000
0.8891999999999999 0.7943333333333331 0.0445000000000000
0.3892000000000000 0.7056666666666666 0.4194999999999999
0.6108000000000000 0.7056666666666666 0.4554999999999999
0.6107999999999999 0.9609999999999997 0.3305000000000000
0.3891999999999999 0.9609999999999997 0.2944999999999999
0.8891999999999998 0.8723333333333332 0.4194999999999999
0.1108000000000000 0.8723333333333332 0.4554999999999999
0.1108000000000000 0.7943333333333331 0.3305000000000000
0.8891999999999999 0.7943333333333331 0.2944999999999999
0.3891999999999999 0.7056666666666666 0.6694999999999999
0.6108000000000000 0.7056666666666666 0.7054999999999999
0.6107999999999999 0.9609999999999997 0.5804999999999998
0.3892000000000000 0.9609999999999997 0.5444999999999999
0.8891999999999999 0.8723333333333332 0.6694999999999999
0.1108000000000000 0.8723333333333332 0.7054999999999999
0.1108000000000000 0.7943333333333331 0.5804999999999998
0.8891999999999998 0.7943333333333331 0.5444999999999999
0.3891999999999999 0.7056666666666664 0.9194999999999998
0.6108000000000000 0.7056666666666664 0.9554999999999998
0.6108000000000000 0.9609999999999996 0.8304999999999999
0.3892000000000000 0.9609999999999997 0.7944999999999999
0.8891999999999998 0.8723333333333331 0.9194999999999998
0.1108000000000000 0.8723333333333331 0.9554999999999998
0.1108000000000000 0.7943333333333330 0.8304999999999999
0.8891999999999999 0.7943333333333331 0.7944999999999999
0.3658000000000000 0.0610000000000000 0.1312500000000000
0.6341999999999999 0.0610000000000000 0.2437499999999999
0.6341999999999999 0.2723333333333333 0.1187500000000000
0.3658000000000000 0.2723333333333333 0.0062500000000000
0.8658000000000000 0.2276666666666666 0.1312500000000000
0.1342000000000000 0.2276666666666666 0.2437499999999999
0.1342000000000000 0.1056666666666666 0.1187500000000000
0.8657999999999999 0.1056666666666666 0.0062500000000000
0.3658000000000000 0.0610000000000000 0.3812499999999999
0.6341999999999999 0.0610000000000000 0.4937499999999999
0.6341999999999999 0.2723333333333333 0.3687500000000000
0.3658000000000000 0.2723333333333333 0.2562499999999999
0.8657999999999999 0.2276666666666666 0.3812499999999999
0.1342000000000000 0.2276666666666666 0.4937499999999999
0.1342000000000000 0.1056666666666666 0.3687500000000000
0.8657999999999999 0.1056666666666666 0.2562499999999999
0.3658000000000000 0.0610000000000000 0.6312499999999999
0.6342000000000000 0.0610000000000000 0.7437499999999999
0.6341999999999999 0.2723333333333333 0.6187499999999999
0.3658000000000000 0.2723333333333333 0.5062499999999999
0.8657999999999999 0.2276666666666666 0.6312499999999999
0.1342000000000000 0.2276666666666666 0.7437499999999999
0.1342000000000000 0.1056666666666666 0.6187499999999999
0.8658000000000000 0.1056666666666666 0.5062499999999999
0.3658000000000000 0.0610000000000000 0.8812499999999998
0.6341999999999999 0.0610000000000000 0.9937499999999998
0.6342000000000000 0.2723333333333333 0.8687499999999998
0.3658000000000000 0.2723333333333333 0.7562499999999999
0.8657999999999999 0.2276666666666666 0.8812499999999998
0.1342000000000000 0.2276666666666666 0.9937499999999998
0.1342000000000000 0.1056666666666666 0.8687499999999998
0.8657999999999999 0.1056666666666666 0.7562499999999999
0.3658000000000000 0.3943333333333333 0.1312500000000000
0.6341999999999999 0.3943333333333333 0.2437499999999999
0.6342000000000000 0.6056666666666666 0.1187500000000000
0.3658000000000000 0.6056666666666666 0.0062500000000000
0.8658000000000000 0.5609999999999999 0.1312500000000000
0.1342000000000000 0.5609999999999999 0.2437499999999999
0.1342000000000000 0.4389999999999999 0.1187500000000000
0.8657999999999999 0.4389999999999999 0.0062500000000000
0.3658000000000000 0.3943333333333333 0.3812499999999999
0.6341999999999999 0.3943333333333332 0.4937499999999999
0.6342000000000000 0.6056666666666666 0.3687500000000000
0.3658000000000000 0.6056666666666666 0.2562499999999999
0.8657999999999999 0.5609999999999999 0.3812499999999999
0.1342000000000000 0.5609999999999999 0.4937499999999999
0.1342000000000000 0.4389999999999999 0.3687500000000000
0.8657999999999999 0.4389999999999999 0.2562499999999999
0.3658000000000000 0.3943333333333333 0.6312499999999999
0.6342000000000000 0.3943333333333333 0.7437499999999999
0.6342000000000000 0.6056666666666666 0.6187499999999999
0.3658000000000000 0.6056666666666666 0.5062499999999999
0.8657999999999999 0.5609999999999999 0.6312499999999999
0.1342000000000000 0.5609999999999999 0.7437499999999999
0.1342000000000000 0.4389999999999999 0.6187499999999999
0.8658000000000000 0.4389999999999999 0.5062499999999999
0.3658000000000000 0.3943333333333333 0.8812499999999998
0.6341999999999999 0.3943333333333333 0.9937499999999998
0.6342000000000000 0.6056666666666665 0.8687499999999998
0.3658000000000000 0.6056666666666666 0.7562499999999999
0.8657999999999999 0.5609999999999998 0.8812499999999998
0.1342000000000000 0.5609999999999998 0.9937499999999998
0.1342000000000000 0.4389999999999999 0.8687499999999998
0.8657999999999999 0.4389999999999999 0.7562499999999999
0.3658000000000000 0.7276666666666665 0.1312500000000000
0.6342000000000000 0.7276666666666665 0.2437499999999999
0.6341999999999999 0.9389999999999998 0.1187500000000000
0.3658000000000000 0.9389999999999998 0.0062500000000000
0.8657999999999999 0.8943333333333331 0.1312500000000000
0.1342000000000000 0.8943333333333331 0.2437499999999999
0.1342000000000000 0.7723333333333332 0.1187500000000000
0.8657999999999999 0.7723333333333332 0.0062500000000000
0.3658000000000000 0.7276666666666665 0.3812499999999999
0.6342000000000000 0.7276666666666665 0.4937499999999999
0.6341999999999999 0.9389999999999998 0.3687500000000000
0.3658000000000000 0.9389999999999998 0.2562499999999999
0.8657999999999998 0.8943333333333331 0.3812499999999999
0.1342000000000000 0.8943333333333331 0.4937499999999999
0.1342000000000000 0.7723333333333332 0.3687500000000000
0.8657999999999999 0.7723333333333332 0.2562499999999999
0.3658000000000000 0.7276666666666665 0.6312499999999999
0.6342000000000001 0.7276666666666665 0.7437499999999999
0.6341999999999999 0.9389999999999998 0.6187499999999999
0.3658000000000000 0.9389999999999998 0.5062499999999999
0.8657999999999998 0.8943333333333331 0.6312499999999999
0.1342000000000000 0.8943333333333331 0.7437499999999999
0.1342000000000000 0.7723333333333332 0.6187499999999999
0.8658000000000000 0.7723333333333332 0.5062499999999999
0.3658000000000000 0.7276666666666664 0.8812499999999998
0.6342000000000000 0.7276666666666664 0.9937499999999998
0.6341999999999999 0.9389999999999997 0.8687499999999998
0.3658000000000000 0.9389999999999998 0.7562499999999999
0.8657999999999998 0.8943333333333330 0.8812499999999998
0.1342000000000000 0.8943333333333330 0.9937499999999998
0.1342000000000000 0.7723333333333331 0.8687499999999998
0.8657999999999999 0.7723333333333332 0.7562499999999999
0.3071999999999999 0.0753333333333333 0.1262500000000000
0.6928000000000000 0.0753333333333333 0.2487499999999999
0.6928000000000001 0.2580000000000000 0.1237500000000000
0.3071999999999999 0.2580000000000000 0.0012500000000000
0.8071999999999999 0.2419999999999999 0.1262500000000000
0.1928000000000000 0.2419999999999999 0.2487499999999999
0.1928000000000000 0.0913333333333333 0.1237500000000000
0.8071999999999999 0.0913333333333333 0.0012500000000000
0.3071999999999999 0.0753333333333333 0.3762499999999999
0.6928000000000000 0.0753333333333333 0.4987499999999999
0.6928000000000001 0.2580000000000000 0.3737499999999999
0.3071999999999999 0.2580000000000000 0.2512499999999999
0.8071999999999999 0.2419999999999999 0.3762499999999999
0.1928000000000000 0.2419999999999999 0.4987499999999999
0.1928000000000000 0.0913333333333333 0.3737499999999999
0.8071999999999998 0.0913333333333333 0.2512499999999999
0.3071999999999999 0.0753333333333333 0.6262499999999999
0.6928000000000002 0.0753333333333333 0.7487499999999999
0.6928000000000000 0.2580000000000000 0.6237499999999998
0.3072000000000000 0.2580000000000000 0.5012499999999999
0.8071999999999998 0.2419999999999999 0.6262499999999999
0.1928000000000000 0.2419999999999999 0.7487499999999999
0.1928000000000000 0.0913333333333333 0.6237499999999998
0.8071999999999998 0.0913333333333333 0.5012499999999999
0.3071999999999999 0.0753333333333333 0.8762499999999998
0.6928000000000001 0.0753333333333333 0.9987499999999998
0.6928000000000001 0.2580000000000000 0.8737499999999999
0.3071999999999999 0.2580000000000000 0.7512499999999999
0.8071999999999999 0.2419999999999999 0.8762499999999998
0.1928000000000000 0.2419999999999999 0.9987499999999998
0.1928000000000000 0.0913333333333333 0.8737499999999999
0.8072000000000000 0.0913333333333333 0.7512499999999999
0.3072000000000000 0.4086666666666666 0.1262500000000000
0.6928000000000000 0.4086666666666666 0.2487499999999999
0.6928000000000001 0.5913333333333332 0.1237500000000000
0.3071999999999999 0.5913333333333332 0.0012500000000000
0.8071999999999999 0.5753333333333333 0.1262500000000000
0.1928000000000001 0.5753333333333333 0.2487499999999999
0.1928000000000000 0.4246666666666666 0.1237500000000000
0.8071999999999999 0.4246666666666666 0.0012500000000000
0.3072000000000000 0.4086666666666666 0.3762499999999999
0.6928000000000000 0.4086666666666665 0.4987499999999999
0.6928000000000001 0.5913333333333332 0.3737499999999999
0.3071999999999999 0.5913333333333332 0.2512499999999999
0.8071999999999999 0.5753333333333333 0.3762499999999999
0.1928000000000000 0.5753333333333333 0.4987499999999999
0.1928000000000000 0.4246666666666666 0.3737499999999999
0.8071999999999998 0.4246666666666666 0.2512499999999999
0.3072000000000000 0.4086666666666666 0.6262499999999999
0.6928000000000002 0.4086666666666666 0.7487499999999999
0.6928000000000000 0.5913333333333333 0.6237499999999998
0.3071999999999999 0.5913333333333332 0.5012499999999999
0.8071999999999998 0.5753333333333334 0.6262499999999999
0.1928000000000001 0.5753333333333334 0.7487499999999999
0.1928000000000000 0.4246666666666666 0.6237499999999998
0.8071999999999998 0.4246666666666665 0.5012499999999999
0.3072000000000000 0.4086666666666666 0.8762499999999998
0.6928000000000001 0.4086666666666666 0.9987499999999998
0.6928000000000001 0.5913333333333332 0.8737499999999999
0.3071999999999999 0.5913333333333333 0.7512499999999999
0.8071999999999999 0.5753333333333333 0.8762499999999998
0.1928000000000000 0.5753333333333333 0.9987499999999998
0.1928000000000000 0.4246666666666666 0.8737499999999999
0.8072000000000000 0.4246666666666666 0.7512499999999999
0.3071999999999999 0.7419999999999998 0.1262500000000000
0.6928000000000000 0.7419999999999998 0.2487499999999999
0.6928000000000000 0.9246666666666664 0.1237500000000000
0.3071999999999999 0.9246666666666664 0.0012500000000000
0.8071999999999998 0.9086666666666664 0.1262500000000000
0.1928000000000001 0.9086666666666664 0.2487499999999999
0.1928000000000000 0.7579999999999998 0.1237500000000000
0.8071999999999999 0.7579999999999998 0.0012500000000000
0.3071999999999999 0.7419999999999998 0.3762499999999999
0.6928000000000000 0.7419999999999998 0.4987499999999999
0.6928000000000000 0.9246666666666664 0.3737499999999999
0.3071999999999999 0.9246666666666664 0.2512499999999999
0.8071999999999998 0.9086666666666664 0.3762499999999999
0.1928000000000001 0.9086666666666664 0.4987499999999999
0.1928000000000000 0.7579999999999998 0.3737499999999999
0.8071999999999998 0.7579999999999998 0.2512499999999999
0.3071999999999999 0.7419999999999998 0.6262499999999999
0.6928000000000002 0.7419999999999998 0.7487499999999999
0.6927999999999999 0.9246666666666664 0.6237499999999998
0.3072000000000000 0.9246666666666664 0.5012499999999999
0.8071999999999997 0.9086666666666664 0.6262499999999999
0.1928000000000001 0.9086666666666664 0.7487499999999999
0.1928000000000000 0.7579999999999998 0.6237499999999998
0.8071999999999998 0.7579999999999998 0.5012499999999999
0.3071999999999999 0.7419999999999997 0.8762499999999998
0.6928000000000001 0.7419999999999997 0.9987499999999998
0.6928000000000000 0.9246666666666663 0.8737499999999999
0.3072000000000000 0.9246666666666664 0.7512499999999999
0.8071999999999998 0.9086666666666663 0.8762499999999998
0.1928000000000000 0.9086666666666663 0.9987499999999998
0.1928000000000000 0.7579999999999997 0.8737499999999999
0.8072000000000000 0.7579999999999998 0.7512499999999999
0.2806999999999999 0.1010000000000000 0.1630000000000000
0.7193000000000001 0.1010000000000000 0.2120000000000000
0.7193000000000001 0.2323333333333333 0.0870000000000000
0.2807000000000000 0.2323333333333333 0.0380000000000000
0.7806999999999998 0.2676666666666666 0.1630000000000000
0.2192999999999999 0.2676666666666666 0.2120000000000000
0.2193000000000000 0.0656666666666667 0.0870000000000000
0.7806999999999999 0.0656666666666667 0.0380000000000000
0.2806999999999999 0.1010000000000000 0.4129999999999999
0.7193000000000001 0.1010000000000000 0.4619999999999999
0.7193000000000001 0.2323333333333333 0.3369999999999999
0.2807000000000000 0.2323333333333333 0.2880000000000000
0.7807000000000001 0.2676666666666666 0.4129999999999999
0.2193000000000000 0.2676666666666666 0.4619999999999999
0.2193000000000000 0.0656666666666667 0.3369999999999999
0.7806999999999998 0.0656666666666667 0.2880000000000000
0.2807000000000000 0.1010000000000000 0.6629999999999999
0.7193000000000001 0.1010000000000000 0.7119999999999999
0.7192999999999999 0.2323333333333333 0.5869999999999997
0.2806999999999999 0.2323333333333333 0.5379999999999999
0.7806999999999999 0.2676666666666666 0.6629999999999999
0.2193000000000000 0.2676666666666666 0.7119999999999999
0.2193000000000000 0.0656666666666667 0.5869999999999997
0.7806999999999999 0.0656666666666666 0.5379999999999999
0.2807000000000000 0.1010000000000000 0.9129999999999998
0.7192999999999999 0.1010000000000000 0.9619999999999997
0.7193000000000001 0.2323333333333333 0.8369999999999999
0.2806999999999999 0.2323333333333333 0.7879999999999999
0.7806999999999999 0.2676666666666666 0.9129999999999998
0.2193000000000000 0.2676666666666666 0.9619999999999997
0.2193000000000000 0.0656666666666667 0.8369999999999999
0.7806999999999998 0.0656666666666667 0.7879999999999999
0.2806999999999999 0.4343333333333332 0.1630000000000000
0.7193000000000001 0.4343333333333332 0.2120000000000000
0.7193000000000001 0.5656666666666665 0.0870000000000000
0.2806999999999999 0.5656666666666665 0.0380000000000000
0.7806999999999998 0.6009999999999999 0.1630000000000000
0.2193000000000000 0.6009999999999999 0.2120000000000000
0.2193000000000000 0.3989999999999999 0.0870000000000000
0.7806999999999999 0.3989999999999999 0.0380000000000000
0.2806999999999999 0.4343333333333332 0.4129999999999999
0.7193000000000001 0.4343333333333332 0.4619999999999999
0.7193000000000001 0.5656666666666665 0.3369999999999999
0.2806999999999999 0.5656666666666665 0.2880000000000000
0.7807000000000001 0.6009999999999999 0.4129999999999999
0.2193000000000000 0.6009999999999999 0.4619999999999999
0.2193000000000000 0.3989999999999999 0.3369999999999999
0.7806999999999998 0.3989999999999999 0.2880000000000000
0.2806999999999999 0.4343333333333332 0.6629999999999999
0.7193000000000001 0.4343333333333332 0.7119999999999999
0.7192999999999999 0.5656666666666667 0.5869999999999997
0.2806999999999999 0.5656666666666667 0.5379999999999999
0.7806999999999999 0.6009999999999999 0.6629999999999999
0.2193000000000000 0.6009999999999999 0.7119999999999999
0.2193000000000000 0.3989999999999999 0.5869999999999997
0.7806999999999999 0.3989999999999999 0.5379999999999999
0.2806999999999999 0.4343333333333332 0.9129999999999998
0.7192999999999999 0.4343333333333332 0.9619999999999997
0.7193000000000001 0.5656666666666665 0.8369999999999999
0.2806999999999999 0.5656666666666667 0.7879999999999999
0.7806999999999999 0.6009999999999998 0.9129999999999998
0.2193000000000000 0.6009999999999998 0.9619999999999997
0.2193000000000000 0.3989999999999999 0.8369999999999999
0.7806999999999998 0.3989999999999999 0.7879999999999999
0.2806999999999999 0.7676666666666665 0.1630000000000000
0.7193000000000001 0.7676666666666665 0.2120000000000000
0.7192999999999999 0.8989999999999998 0.0870000000000000
0.2807000000000000 0.8989999999999998 0.0380000000000000
0.7806999999999997 0.9343333333333331 0.1630000000000000
0.2193000000000000 0.9343333333333331 0.2120000000000000
0.2193000000000000 0.7323333333333332 0.0870000000000000
0.7806999999999999 0.7323333333333332 0.0380000000000000
0.2806999999999999 0.7676666666666665 0.4129999999999999
0.7193000000000001 0.7676666666666665 0.4619999999999999
0.7192999999999999 0.8989999999999998 0.3369999999999999
0.2807000000000000 0.8989999999999998 0.2880000000000000
0.7806999999999999 0.9343333333333331 0.4129999999999999
0.2193000000000000 0.9343333333333331 0.4619999999999999
0.2193000000000000 0.7323333333333332 0.3369999999999999
0.7806999999999998 0.7323333333333332 0.2880000000000000
0.2806999999999999 0.7676666666666665 0.6629999999999999
0.7193000000000001 0.7676666666666665 0.7119999999999999
0.7192999999999998 0.8989999999999998 0.5869999999999997
0.2807000000000000 0.8989999999999998 0.5379999999999999
0.7806999999999998 0.9343333333333331 0.6629999999999999
0.2193000000000000 0.9343333333333331 0.7119999999999999
0.2192999999999999 0.7323333333333332 0.5869999999999997
0.7806999999999999 0.7323333333333332 0.5379999999999999
0.2806999999999999 0.7676666666666664 0.9129999999999998
0.7192999999999999 0.7676666666666664 0.9619999999999997
0.7192999999999999 0.8989999999999997 0.8369999999999999
0.2807000000000000 0.8989999999999998 0.7879999999999999
0.7806999999999998 0.9343333333333330 0.9129999999999998
0.2193000000000000 0.9343333333333330 0.9619999999999997
0.2193000000000000 0.7323333333333331 0.8369999999999999
0.7806999999999998 0.7323333333333332 0.7879999999999999
0.3127000000000000 0.1210000000000000 0.2037499999999999
0.6873000000000000 0.1210000000000000 0.1712500000000000
0.6872999999999999 0.2123333333333333 0.0462500000000000
0.3127000000000000 0.2123333333333333 0.0787500000000000
0.8126999999999999 0.2876666666666666 0.2037499999999999
0.1873000000000000 0.2876666666666666 0.1712500000000000
0.1873000000000000 0.0456666666666667 0.0462500000000000
0.8126999999999998 0.0456666666666667 0.0787500000000000
0.3126999999999999 0.1210000000000000 0.4537499999999999
0.6872999999999999 0.1210000000000000 0.4212500000000000
0.6873000000000000 0.2123333333333333 0.2962499999999999
0.3127000000000000 0.2123333333333333 0.3287499999999999
0.8126999999999999 0.2876666666666666 0.4537499999999999
0.1873000000000000 0.2876666666666666 0.4212500000000000
0.1873000000000000 0.0456666666666667 0.2962499999999999
0.8126999999999999 0.0456666666666667 0.3287499999999999
0.3127000000000000 0.1210000000000000 0.7037499999999998
0.6872999999999999 0.1210000000000000 0.6712499999999999
0.6873000000000000 0.2123333333333333 0.5462499999999999
0.3127000000000000 0.2123333333333333 0.5787499999999999
0.8126999999999999 0.2876666666666666 0.7037499999999998
0.1873000000000000 0.2876666666666666 0.6712499999999999
0.1873000000000000 0.0456666666666667 0.5462499999999999
0.8126999999999999 0.0456666666666667 0.5787499999999999
0.3126999999999999 0.1210000000000000 0.9537499999999999
0.6873000000000000 0.1210000000000000 0.9212499999999998
0.6872999999999999 0.2123333333333333 0.7962499999999998
0.3127000000000000 0.2123333333333333 0.8287499999999999
0.8126999999999999 0.2876666666666666 0.9537499999999999
0.1873000000000000 0.2876666666666666 0.9212499999999998
0.1873000000000000 0.0456666666666667 0.7962499999999998
0.8126999999999999 0.0456666666666667 0.8287499999999999
0.3127000000000000 0.4543333333333332 0.2037499999999999
0.6873000000000000 0.4543333333333332 0.1712500000000000
0.6872999999999999 0.5456666666666665 0.0462500000000000
0.3126999999999999 0.5456666666666665 0.0787500000000000
0.8126999999999999 0.6209999999999999 0.2037499999999999
0.1873000000000000 0.6209999999999999 0.1712500000000000
0.1873000000000000 0.3789999999999999 0.0462500000000000
0.8126999999999998 0.3789999999999999 0.0787500000000000
0.3126999999999999 0.4543333333333331 0.4537499999999999
0.6872999999999999 0.4543333333333331 0.4212500000000000
0.6873000000000000 0.5456666666666665 0.2962499999999999
0.3126999999999999 0.5456666666666665 0.3287499999999999
0.8126999999999999 0.6209999999999999 0.4537499999999999
0.1873000000000000 0.6209999999999999 0.4212500000000000
0.1873000000000000 0.3789999999999999 0.2962499999999999
0.8126999999999999 0.3789999999999999 0.3287499999999999
0.3126999999999999 0.4543333333333333 0.7037499999999998
0.6872999999999999 0.4543333333333333 0.6712499999999999
0.6873000000000000 0.5456666666666665 0.5462499999999999
0.3127000000000000 0.5456666666666665 0.5787499999999999
0.8126999999999999 0.6209999999999999 0.7037499999999998
0.1873000000000000 0.6209999999999999 0.6712499999999999
0.1873000000000000 0.3789999999999999 0.5462499999999999
0.8126999999999999 0.3789999999999999 0.5787499999999999
0.3126999999999999 0.4543333333333333 0.9537499999999999
0.6873000000000000 0.4543333333333333 0.9212499999999998
0.6872999999999999 0.5456666666666665 0.7962499999999998
0.3127000000000000 0.5456666666666664 0.8287499999999999
0.8126999999999999 0.6209999999999998 0.9537499999999999
0.1873000000000000 0.6209999999999998 0.9212499999999998
0.1873000000000000 0.3789999999999999 0.7962499999999998
0.8126999999999999 0.3789999999999999 0.8287499999999999
0.3127000000000000 0.7876666666666664 0.2037499999999999
0.6873000000000000 0.7876666666666664 0.1712500000000000
0.6872999999999998 0.8789999999999998 0.0462500000000000
0.3127000000000000 0.8789999999999998 0.0787500000000000
0.8126999999999998 0.9543333333333331 0.2037499999999999
0.1873000000000000 0.9543333333333331 0.1712500000000000
0.1873000000000000 0.7123333333333333 0.0462500000000000
0.8126999999999998 0.7123333333333333 0.0787500000000000
0.3126999999999999 0.7876666666666664 0.4537499999999999
0.6872999999999999 0.7876666666666664 0.4212500000000000
0.6872999999999999 0.8789999999999998 0.2962499999999999
0.3127000000000000 0.8789999999999998 0.3287499999999999
0.8126999999999998 0.9543333333333331 0.4537499999999999
0.1873000000000000 0.9543333333333331 0.4212500000000000
0.1873000000000000 0.7123333333333333 0.2962499999999999
0.8126999999999999 0.7123333333333333 0.3287499999999999
0.3126999999999999 0.7876666666666664 0.7037499999999998
0.6872999999999999 0.7876666666666664 0.6712499999999999
0.6872999999999999 0.8789999999999998 0.5462499999999999
0.3127000000000000 0.8789999999999998 0.5787499999999999
0.8126999999999998 0.9543333333333331 0.7037499999999998
0.1873000000000000 0.9543333333333331 0.6712499999999999
0.1873000000000000 0.7123333333333333 0.5462499999999999
0.8126999999999999 0.7123333333333333 0.5787499999999999
0.3126999999999999 0.7876666666666663 0.9537499999999999
0.6873000000000000 0.7876666666666663 0.9212499999999998
0.6872999999999998 0.8789999999999998 0.7962499999999998
0.3127000000000000 0.8789999999999997 0.8287499999999999
0.8126999999999998 0.9543333333333330 0.9537499999999999
0.1873000000000000 0.9543333333333330 0.9212499999999998
0.1873000000000000 0.7123333333333333 0.7962499999999998
0.8126999999999999 0.7123333333333332 0.8287499999999999
0.2245000000000000 0.1083333333333333 0.1612500000000000
0.7754999999999999 0.1083333333333333 0.2137500000000000
0.7755000000000000 0.2250000000000000 0.0887500000000000
0.2244999999999999 0.2250000000000000 0.0362500000000000
0.7244999999999999 0.2749999999999999 0.1612500000000000
0.2755000000000000 0.2749999999999999 0.2137500000000000
0.2755000000000000 0.0583333333333333 0.0887500000000000
0.7244999999999999 0.0583333333333333 0.0362500000000000
0.2245000000000000 0.1083333333333333 0.4112499999999999
0.7754999999999999 0.1083333333333333 0.4637499999999999
0.7755000000000000 0.2250000000000000 0.3387499999999999
0.2244999999999999 0.2250000000000000 0.2862499999999999
0.7244999999999999 0.2749999999999999 0.4112499999999999
0.2755000000000000 0.2749999999999999 0.4637499999999999
0.2754999999999999 0.0583333333333333 0.3387499999999999
0.7244999999999999 0.0583333333333333 0.2862499999999999
0.2245000000000000 0.1083333333333333 0.6612499999999999
0.7755000000000000 0.1083333333333333 0.7137499999999999
0.7755000000000000 0.2250000000000000 0.5887499999999999
0.2244999999999999 0.2250000000000000 0.5362499999999999
0.7244999999999999 0.2749999999999999 0.6612499999999999
0.2755000000000000 0.2749999999999999 0.7137499999999999
0.2754999999999999 0.0583333333333333 0.5887499999999999
0.7244999999999998 0.0583333333333333 0.5362499999999999
0.2244999999999999 0.1083333333333333 0.9112499999999998
0.7755000000000000 0.1083333333333333 0.9637499999999998
0.7754999999999999 0.2250000000000000 0.8387499999999998
0.2244999999999999 0.2250000000000000 0.7862499999999999
0.7244999999999998 0.2749999999999999 0.9112499999999998
0.2754999999999999 0.2749999999999999 0.9637499999999998
0.2755000000000000 0.0583333333333333 0.8387499999999998
0.7244999999999999 0.0583333333333333 0.7862499999999999
0.2245000000000000 0.4416666666666665 0.1612500000000000
0.7754999999999999 0.4416666666666665 0.2137500000000000
0.7755000000000000 0.5583333333333332 0.0887500000000000
0.2245000000000000 0.5583333333333332 0.0362500000000000
0.7244999999999999 0.6083333333333331 0.1612500000000000
0.2755000000000000 0.6083333333333331 0.2137500000000000
0.2755000000000000 0.3916666666666666 0.0887500000000000
0.7244999999999999 0.3916666666666666 0.0362500000000000
0.2245000000000000 0.4416666666666665 0.4112499999999999
0.7754999999999999 0.4416666666666665 0.4637499999999999
0.7755000000000000 0.5583333333333332 0.3387499999999999
0.2245000000000000 0.5583333333333332 0.2862499999999999
0.7244999999999999 0.6083333333333331 0.4112499999999999
0.2754999999999999 0.6083333333333331 0.4637499999999999
0.2755000000000000 0.3916666666666666 0.3387499999999999
0.7244999999999999 0.3916666666666666 0.2862499999999999
0.2245000000000000 0.4416666666666665 0.6612499999999999
0.7755000000000000 0.4416666666666665 0.7137499999999999
0.7755000000000000 0.5583333333333332 0.5887499999999999
0.2245000000000000 0.5583333333333332 0.5362499999999999
0.7244999999999999 0.6083333333333332 0.6612499999999999
0.2754999999999999 0.6083333333333332 0.7137499999999999
0.2755000000000000 0.3916666666666666 0.5887499999999999
0.7244999999999998 0.3916666666666666 0.5362499999999999
0.2245000000000000 0.4416666666666665 0.9112499999999998
0.7755000000000000 0.4416666666666665 0.9637499999999998
0.7754999999999999 0.5583333333333331 0.8387499999999998
0.2245000000000000 0.5583333333333332 0.7862499999999999
0.7244999999999998 0.6083333333333331 0.9112499999999998
0.2754999999999999 0.6083333333333331 0.9637499999999998
0.2755000000000000 0.3916666666666666 0.8387499999999998
0.7244999999999999 0.3916666666666666 0.7862499999999999
0.2245000000000000 0.7749999999999999 0.1612500000000000
0.7754999999999999 0.7749999999999999 0.2137500000000000
0.7754999999999999 0.8916666666666664 0.0887500000000000
0.2245000000000000 0.8916666666666664 0.0362500000000000
0.7244999999999998 0.9416666666666665 0.1612500000000000
0.2755000000000000 0.9416666666666665 0.2137500000000000
0.2754999999999999 0.7249999999999998 0.0887500000000000
0.7244999999999999 0.7249999999999998 0.0362500000000000
0.2245000000000000 0.7749999999999999 0.4112499999999999
0.7754999999999999 0.7749999999999999 0.4637499999999999
0.7754999999999999 0.8916666666666664 0.3387499999999999
0.2245000000000000 0.8916666666666664 0.2862499999999999
0.7244999999999998 0.9416666666666665 0.4112499999999999
0.2755000000000000 0.9416666666666665 0.4637499999999999
0.2754999999999999 0.7249999999999998 0.3387499999999999
0.7244999999999999 0.7249999999999998 0.2862499999999999
0.2244999999999999 0.7749999999999999 0.6612499999999999
0.7755000000000000 0.7749999999999999 0.7137499999999999
0.7754999999999999 0.8916666666666664 0.5887499999999999
0.2245000000000000 0.8916666666666664 0.5362499999999999
0.7244999999999998 0.9416666666666665 0.6612499999999999
0.2755000000000000 0.9416666666666665 0.7137499999999999
0.2754999999999999 0.7249999999999998 0.5887499999999999
0.7244999999999998 0.7249999999999998 0.5362499999999999
0.2244999999999999 0.7749999999999998 0.9112499999999998
0.7755000000000000 0.7749999999999998 0.9637499999999998
0.7754999999999997 0.8916666666666663 0.8387499999999998
0.2245000000000000 0.8916666666666664 0.7862499999999999
0.7244999999999997 0.9416666666666664 0.9112499999999998
0.2755000000000000 0.9416666666666664 0.9637499999999998
0.2754999999999999 0.7249999999999996 0.8387499999999998
0.7244999999999999 0.7249999999999998 0.7862499999999999
0.4525000000000000 0.0496666666666667 0.1160000000000000
0.5475000000000000 0.0496666666666667 0.0090000000000000
0.5474999999999999 0.2836666666666666 0.1340000000000000
0.4525000000000000 0.2836666666666666 0.2409999999999999
0.9525000000000000 0.2163333333333333 0.1160000000000000
0.0475000000000000 0.2163333333333333 0.0090000000000000
0.0475000000000000 0.1170000000000000 0.1340000000000000
0.9524999999999999 0.1170000000000000 0.2409999999999999
0.4525000000000000 0.0496666666666667 0.3659999999999999
0.5475000000000000 0.0496666666666667 0.2590000000000000
0.5475000000000000 0.2836666666666667 0.3840000000000000
0.4525000000000000 0.2836666666666666 0.4909999999999999
0.9525000000000000 0.2163333333333333 0.3659999999999999
0.0475000000000000 0.2163333333333333 0.2590000000000000
0.0475000000000000 0.1170000000000000 0.3840000000000000
0.9524999999999999 0.1170000000000000 0.4909999999999999
0.4525000000000000 0.0496666666666667 0.6159999999999999
0.5474999999999999 0.0496666666666667 0.5089999999999999
0.5474999999999999 0.2836666666666666 0.6339999999999999
0.4525000000000000 0.2836666666666666 0.7409999999999998
0.9525000000000000 0.2163333333333333 0.6159999999999999
0.0475000000000000 0.2163333333333333 0.5089999999999999
0.0475000000000000 0.1170000000000000 0.6339999999999999
0.9525000000000000 0.1170000000000000 0.7409999999999998
0.4525000000000000 0.0496666666666667 0.8659999999999999
0.5474999999999999 0.0496666666666667 0.7589999999999998
0.5474999999999999 0.2836666666666666 0.8839999999999998
0.4525000000000000 0.2836666666666666 0.9909999999999998
0.9524999999999999 0.2163333333333333 0.8659999999999999
0.0475000000000000 0.2163333333333333 0.7589999999999998
0.0475000000000000 0.1170000000000000 0.8839999999999998
0.9525000000000000 0.1170000000000000 0.9909999999999998
0.4525000000000000 0.3829999999999999 0.1160000000000000
0.5475000000000000 0.3829999999999999 0.0090000000000000
0.5475000000000000 0.6169999999999999 0.1340000000000000
0.4525000000000000 0.6169999999999999 0.2409999999999999
0.9525000000000000 0.5496666666666665 0.1160000000000000
0.0475000000000000 0.5496666666666665 0.0090000000000000
0.0475000000000000 0.4503333333333332 0.1340000000000000
0.9524999999999999 0.4503333333333332 0.2409999999999999
0.4525000000000000 0.3829999999999999 0.3659999999999999
0.5475000000000000 0.3829999999999999 0.2590000000000000
0.5475000000000000 0.6169999999999999 0.3840000000000000
0.4525000000000000 0.6169999999999999 0.4909999999999999
0.9525000000000000 0.5496666666666665 0.3659999999999999
0.0475000000000000 0.5496666666666665 0.2590000000000000
0.0475000000000000 0.4503333333333332 0.3840000000000000
0.9524999999999999 0.4503333333333331 0.4909999999999999
0.4525000000000000 0.3829999999999999 0.6159999999999999
0.5474999999999999 0.3829999999999999 0.5089999999999999
0.5475000000000000 0.6169999999999999 0.6339999999999999
0.4525000000000000 0.6169999999999999 0.7409999999999998
0.9525000000000000 0.5496666666666666 0.6159999999999999
0.0475000000000000 0.5496666666666666 0.5089999999999999
0.0475000000000000 0.4503333333333332 0.6339999999999999
0.9525000000000000 0.4503333333333332 0.7409999999999998
0.4525000000000000 0.3829999999999999 0.8659999999999999
0.5474999999999999 0.3829999999999999 0.7589999999999998
0.5475000000000000 0.6169999999999998 0.8839999999999998
0.4525000000000000 0.6169999999999998 0.9909999999999998
0.9524999999999999 0.5496666666666665 0.8659999999999999
0.0475000000000000 0.5496666666666666 0.7589999999999998
0.0475000000000000 0.4503333333333332 0.8839999999999998
0.9525000000000000 0.4503333333333332 0.9909999999999998
0.4525000000000000 0.7163333333333332 0.1160000000000000
0.5475000000000000 0.7163333333333332 0.0090000000000000
0.5474999999999999 0.9503333333333331 0.1340000000000000
0.4525000000000000 0.9503333333333331 0.2409999999999999
0.9524999999999999 0.8829999999999998 0.1160000000000000
0.0475000000000000 0.8829999999999998 0.0090000000000000
0.0475000000000000 0.7836666666666665 0.1340000000000000
0.9524999999999999 0.7836666666666665 0.2409999999999999
0.4525000000000000 0.7163333333333332 0.3659999999999999
0.5475000000000001 0.7163333333333332 0.2590000000000000
0.5474999999999999 0.9503333333333331 0.3840000000000000
0.4525000000000000 0.9503333333333331 0.4909999999999999
0.9524999999999999 0.8829999999999998 0.3659999999999999
0.0475000000000000 0.8829999999999998 0.2590000000000000
0.0475000000000000 0.7836666666666665 0.3840000000000000
0.9524999999999999 0.7836666666666665 0.4909999999999999
0.4525000000000000 0.7163333333333332 0.6159999999999999
0.5475000000000000 0.7163333333333332 0.5089999999999999
0.5474999999999999 0.9503333333333331 0.6339999999999999
0.4525000000000000 0.9503333333333331 0.7409999999999998
0.9524999999999999 0.8829999999999998 0.6159999999999999
0.0475000000000000 0.8829999999999998 0.5089999999999999
0.0475000000000000 0.7836666666666665 0.6339999999999999
0.9525000000000000 0.7836666666666665 0.7409999999999998
0.4525000000000000 0.7163333333333330 0.8659999999999999
0.5475000000000000 0.7163333333333332 0.7589999999999998
0.5474999999999999 0.9503333333333330 0.8839999999999998
0.4525000000000000 0.9503333333333330 0.9909999999999998
0.9524999999999998 0.8829999999999997 0.8659999999999999
0.0475000000000000 0.8829999999999998 0.7589999999999998
0.0475000000000000 0.7836666666666664 0.8839999999999998
0.9525000000000000 0.7836666666666664 0.9909999999999998
0.4428000000000000 0.0320000000000000 0.1600000000000000
0.5571999999999998 0.0320000000000000 0.2150000000000000
0.5571999999999998 0.3013333333333333 0.0900000000000000
0.4427999999999999 0.3013333333333333 0.0350000000000000
0.9428000000000002 0.1986666666666666 0.1600000000000000
0.0572000000000000 0.1986666666666666 0.2150000000000000
0.0572000000000000 0.1346666666666667 0.0900000000000000
0.9428000000000001 0.1346666666666667 0.0350000000000000
0.4428000000000000 0.0320000000000000 0.4099999999999999
0.5571999999999999 0.0320000000000000 0.4649999999999999
0.5571999999999999 0.3013333333333333 0.3399999999999999
0.4428000000000000 0.3013333333333333 0.2850000000000000
0.9428000000000001 0.1986666666666666 0.4099999999999999
0.0572000000000000 0.1986666666666666 0.4649999999999999
0.0572000000000000 0.1346666666666666 0.3399999999999999
0.9428000000000001 0.1346666666666666 0.2850000000000000
0.4427999999999999 0.0320000000000000 0.6599999999999998
0.5571999999999999 0.0320000000000000 0.7149999999999997
0.5571999999999999 0.3013333333333332 0.5899999999999999
0.4428000000000000 0.3013333333333332 0.5349999999999999
0.9428000000000001 0.1986666666666666 0.6599999999999998
0.0572000000000000 0.1986666666666666 0.7149999999999997
0.0572000000000000 0.1346666666666667 0.5899999999999999
0.9428000000000000 0.1346666666666667 0.5349999999999999
0.4428000000000000 0.0320000000000000 0.9099999999999999
0.5571999999999999 0.0320000000000000 0.9649999999999997
0.5571999999999999 0.3013333333333333 0.8399999999999997
0.4428000000000000 0.3013333333333333 0.7849999999999999
0.9428000000000000 0.1986666666666666 0.9099999999999999
0.0572000000000000 0.1986666666666666 0.9649999999999997
0.0572000000000000 0.1346666666666667 0.8399999999999997
0.9428000000000001 0.1346666666666667 0.7849999999999999
0.4428000000000000 0.3653333333333332 0.1600000000000000
0.5571999999999998 0.3653333333333332 0.2150000000000000
0.5571999999999999 0.6346666666666665 0.0900000000000000
0.4428000000000000 0.6346666666666665 0.0350000000000000
0.9428000000000002 0.5319999999999999 0.1600000000000000
0.0572000000000000 0.5319999999999999 0.2150000000000000
0.0572000000000000 0.4679999999999999 0.0900000000000000
0.9428000000000001 0.4679999999999999 0.0350000000000000
0.4428000000000000 0.3653333333333332 0.4099999999999999
0.5571999999999999 0.3653333333333332 0.4649999999999999
0.5572000000000000 0.6346666666666665 0.3399999999999999
0.4428000000000000 0.6346666666666665 0.2850000000000000
0.9428000000000001 0.5319999999999999 0.4099999999999999
0.0572000000000000 0.5319999999999999 0.4649999999999999
0.0572000000000000 0.4679999999999999 0.3399999999999999
0.9428000000000001 0.4679999999999999 0.2850000000000000
0.4427999999999999 0.3653333333333332 0.6599999999999998
0.5571999999999999 0.3653333333333332 0.7149999999999997
0.5572000000000000 0.6346666666666665 0.5899999999999999
0.4428000000000000 0.6346666666666665 0.5349999999999999
0.9428000000000001 0.5319999999999999 0.6599999999999998
0.0572000000000000 0.5319999999999999 0.7149999999999997
0.0572000000000000 0.4679999999999999 0.5899999999999999
0.9428000000000000 0.4679999999999999 0.5349999999999999
0.4428000000000000 0.3653333333333332 0.9099999999999999
0.5571999999999999 0.3653333333333332 0.9649999999999997
0.5572000000000000 0.6346666666666664 0.8399999999999997
0.4428000000000000 0.6346666666666665 0.7849999999999999
0.9428000000000000 0.5319999999999998 0.9099999999999999
0.0572000000000000 0.5319999999999998 0.9649999999999997
0.0572000000000000 0.4679999999999999 0.8399999999999997
0.9428000000000001 0.4679999999999999 0.7849999999999999
0.4428000000000000 0.6986666666666664 0.1600000000000000
0.5571999999999999 0.6986666666666664 0.2150000000000000
0.5571999999999998 0.9679999999999997 0.0900000000000000
0.4428000000000000 0.9679999999999997 0.0350000000000000
0.9428000000000001 0.8653333333333332 0.1600000000000000
0.0572000000000000 0.8653333333333332 0.2150000000000000
0.0572000000000000 0.8013333333333332 0.0900000000000000
0.9428000000000001 0.8013333333333332 0.0350000000000000
0.4428000000000000 0.6986666666666664 0.4099999999999999
0.5572000000000000 0.6986666666666664 0.4649999999999999
0.5571999999999999 0.9679999999999997 0.3399999999999999
0.4428000000000000 0.9679999999999997 0.2850000000000000
0.9428000000000000 0.8653333333333332 0.4099999999999999
0.0572000000000000 0.8653333333333332 0.4649999999999999
0.0572000000000000 0.8013333333333332 0.3399999999999999
0.9428000000000001 0.8013333333333332 0.2850000000000000
0.4428000000000000 0.6986666666666664 0.6599999999999998
0.5571999999999999 0.6986666666666664 0.7149999999999997
0.5571999999999999 0.9679999999999997 0.5899999999999999
0.4428000000000000 0.9679999999999997 0.5349999999999999
0.9428000000000000 0.8653333333333332 0.6599999999999998
0.0572000000000000 0.8653333333333332 0.7149999999999997
0.0572000000000000 0.8013333333333332 0.5899999999999999
0.9428000000000000 0.8013333333333332 0.5349999999999999
0.4428000000000000 0.6986666666666663 0.9099999999999999
0.5571999999999999 0.6986666666666663 0.9649999999999997
0.5571999999999999 0.9679999999999996 0.8399999999999997
0.4428000000000000 0.9679999999999997 0.7849999999999999
0.9427999999999999 0.8653333333333331 0.9099999999999999
0.0572000000000000 0.8653333333333331 0.9649999999999997
0.0572000000000000 0.8013333333333331 0.8399999999999997
0.9428000000000001 0.8013333333333332 0.7849999999999999
0.3992879999999999 0.0844960000000000 0.0636477500000000
0.6007119999999999 0.0844960000000000 0.0613522500000000
0.6007120000000000 0.2488373333333333 0.1863522500000000
0.3992879999999999 0.2488373333333333 0.1886477500000000
0.8992880000000000 0.2511626666666666 0.0636477500000000
0.1007120000000000 0.2511626666666666 0.0613522500000000
0.1007120000000000 0.0821706666666667 0.1863522500000000
0.8992880000000000 0.0821706666666667 0.1886477500000000
0.3992880000000000 0.0844960000000000 0.3136477499999999
0.6007119999999999 0.0844960000000000 0.3113522499999999
0.6007120000000000 0.2488373333333333 0.4363522499999999
0.3992880000000000 0.2488373333333333 0.4386477499999999
0.8992880000000000 0.2511626666666666 0.3136477499999999
0.1007120000000000 0.2511626666666666 0.3113522499999999
0.1007120000000000 0.0821706666666667 0.4363522499999999
0.8992879999999999 0.0821706666666667 0.4386477499999999
0.3992880000000000 0.0844960000000000 0.5636477499999999
0.6007120000000000 0.0844960000000000 0.5613522499999999
0.6007119999999999 0.2488373333333333 0.6863522499999998
0.3992879999999999 0.2488373333333333 0.6886477499999998
0.8992880000000000 0.2511626666666665 0.5636477499999999
0.1007120000000000 0.2511626666666665 0.5613522499999999
0.1007120000000000 0.0821706666666667 0.6863522499999998
0.8992880000000000 0.0821706666666667 0.6886477499999998
0.3992880000000000 0.0844960000000000 0.8136477499999998
0.6007119999999999 0.0844960000000000 0.8113522499999998
0.6007119999999999 0.2488373333333333 0.9363522499999999
0.3992880000000000 0.2488373333333333 0.9386477499999999
0.8992879999999999 0.2511626666666666 0.8136477499999998
0.1007120000000000 0.2511626666666666 0.8113522499999998
0.1007120000000000 0.0821706666666666 0.9363522499999999
0.8992880000000000 0.0821706666666666 0.9386477499999999
0.3992879999999999 0.4178293333333332 0.0636477500000000
0.6007119999999999 0.4178293333333332 0.0613522500000000
0.6007120000000000 0.5821706666666666 0.1863522500000000
0.3992879999999999 0.5821706666666666 0.1886477500000000
0.8992880000000000 0.5844959999999999 0.0636477500000000
0.1007120000000000 0.5844959999999999 0.0613522500000000
0.1007120000000000 0.4155039999999999 0.1863522500000000
0.8992880000000000 0.4155039999999999 0.1886477500000000
0.3992880000000000 0.4178293333333332 0.3136477499999999
0.6007119999999999 0.4178293333333332 0.3113522499999999
0.6007120000000000 0.5821706666666666 0.4363522499999999
0.3992880000000000 0.5821706666666666 0.4386477499999999
0.8992880000000000 0.5844959999999999 0.3136477499999999
0.1007120000000000 0.5844959999999999 0.3113522499999999
0.1007120000000000 0.4155039999999999 0.4363522499999999
0.8992879999999999 0.4155039999999999 0.4386477499999999
0.3992880000000000 0.4178293333333332 0.5636477499999999
0.6007120000000000 0.4178293333333332 0.5613522499999999
0.6007120000000000 0.5821706666666666 0.6863522499999998
0.3992880000000000 0.5821706666666666 0.6886477499999998
0.8992880000000000 0.5844960000000000 0.5636477499999999
0.1007120000000000 0.5844960000000000 0.5613522499999999
0.1007120000000000 0.4155039999999999 0.6863522499999998
0.8992880000000000 0.4155039999999999 0.6886477499999998
0.3992880000000000 0.4178293333333332 0.8136477499999998
0.6007119999999999 0.4178293333333332 0.8113522499999998
0.6007120000000000 0.5821706666666665 0.9363522499999999
0.3992880000000000 0.5821706666666665 0.9386477499999999
0.8992879999999999 0.5844960000000000 0.8136477499999998
0.1007120000000000 0.5844960000000000 0.8113522499999998
0.1007120000000000 0.4155039999999999 0.9363522499999999
0.8992880000000000 0.4155039999999999 0.9386477499999999
0.3992880000000000 0.7511626666666664 0.0636477500000000
0.6007119999999999 0.7511626666666664 0.0613522500000000
0.6007119999999999 0.9155039999999999 0.1863522500000000
0.3992879999999999 0.9155039999999999 0.1886477500000000
0.8992879999999999 0.9178293333333331 0.0636477500000000
0.1007120000000000 0.9178293333333331 0.0613522500000000
0.1007120000000000 0.7488373333333332 0.1863522500000000
0.8992880000000000 0.7488373333333332 0.1886477500000000
0.3992880000000000 0.7511626666666664 0.3136477499999999
0.6007120000000000 0.7511626666666664 0.3113522499999999
0.6007119999999999 0.9155039999999999 0.4363522499999999
0.3992880000000000 0.9155039999999999 0.4386477499999999
0.8992879999999999 0.9178293333333331 0.3136477499999999
0.1007120000000000 0.9178293333333331 0.3113522499999999
0.1007120000000000 0.7488373333333332 0.4363522499999999
0.8992879999999999 0.7488373333333332 0.4386477499999999
0.3992880000000000 0.7511626666666664 0.5636477499999999
0.6007120000000000 0.7511626666666664 0.5613522499999999
0.6007119999999999 0.9155039999999999 0.6863522499999998
0.3992880000000000 0.9155039999999999 0.6886477499999998
0.8992879999999999 0.9178293333333331 0.5636477499999999
0.1007120000000000 0.9178293333333331 0.5613522499999999
0.1007120000000000 0.7488373333333332 0.6863522499999998
0.8992880000000000 0.7488373333333332 0.6886477499999998
0.3992879999999999 0.7511626666666664 0.8136477499999998
0.6007120000000000 0.7511626666666664 0.8113522499999998
0.6007119999999999 0.9155039999999998 0.9363522499999999
0.3992880000000000 0.9155039999999998 0.9386477499999999
0.8992879999999998 0.9178293333333331 0.8136477499999998
0.1007120000000000 0.9178293333333331 0.8113522499999998
0.1007120000000000 0.7488373333333331 0.9363522499999999
0.8992880000000000 0.7488373333333331 0.9386477499999999
0.3686759999999999 0.0287930666666667 0.2019797500000000
0.6313240000000000 0.0287930666666667 0.1730202499999999
0.6313240000000000 0.3045402666666666 0.0480202500000000
0.3686759999999999 0.3045402666666666 0.0769797500000000
0.8686760000000000 0.1954597333333333 0.2019797500000000
0.1313240000000000 0.1954597333333333 0.1730202499999999
0.1313240000000000 0.1378736000000000 0.0480202500000000
0.8686759999999999 0.1378736000000000 0.0769797500000000
0.3686759999999999 0.0287930666666667 0.4519797500000000
0.6313240000000000 0.0287930666666667 0.4230202499999999
0.6313240000000000 0.3045402666666666 0.2980202499999999
0.3686759999999999 0.3045402666666666 0.3269797499999999
0.8686759999999999 0.1954597333333333 0.4519797500000000
0.1313240000000000 0.1954597333333333 0.4230202499999999
0.1313240000000000 0.1378736000000000 0.2980202499999999
0.8686759999999999 0.1378736000000000 0.3269797499999999
0.3686760000000000 0.0287930666666667 0.7019797499999999
0.6313240000000000 0.0287930666666667 0.6730202499999999
0.6313240000000000 0.3045402666666666 0.5480202499999999
0.3686759999999999 0.3045402666666666 0.5769797499999998
0.8686759999999999 0.1954597333333333 0.7019797499999999
0.1313240000000000 0.1954597333333333 0.6730202499999999
0.1313240000000000 0.1378736000000000 0.5480202499999999
0.8686760000000000 0.1378736000000000 0.5769797499999998
0.3686759999999999 0.0287930666666667 0.9519797499999998
0.6313239999999999 0.0287930666666667 0.9230202499999998
0.6313240000000000 0.3045402666666666 0.7980202499999998
0.3686759999999999 0.3045402666666666 0.8269797499999999
0.8686760000000000 0.1954597333333333 0.9519797499999998
0.1313240000000000 0.1954597333333333 0.9230202499999998
0.1313240000000000 0.1378736000000000 0.7980202499999998
0.8686759999999999 0.1378736000000000 0.8269797499999999
0.3686759999999999 0.3621263999999999 0.2019797500000000
0.6313240000000000 0.3621263999999999 0.1730202499999999
0.6313240000000001 0.6378735999999998 0.0480202500000000
0.3686759999999999 0.6378735999999998 0.0769797500000000
0.8686760000000000 0.5287930666666666 0.2019797500000000
0.1313240000000000 0.5287930666666666 0.1730202499999999
0.1313240000000000 0.4712069333333332 0.0480202500000000
0.8686759999999999 0.4712069333333332 0.0769797500000000
0.3686759999999999 0.3621263999999998 0.4519797500000000
0.6313240000000000 0.3621263999999998 0.4230202499999999
0.6313240000000001 0.6378735999999998 0.2980202499999999
0.3686759999999999 0.6378735999999998 0.3269797499999999
0.8686759999999999 0.5287930666666666 0.4519797500000000
0.1313240000000000 0.5287930666666666 0.4230202499999999
0.1313240000000000 0.4712069333333332 0.2980202499999999
0.8686759999999999 0.4712069333333332 0.3269797499999999
0.3686760000000000 0.3621264000000000 0.7019797499999999
0.6313240000000000 0.3621264000000000 0.6730202499999999
0.6313240000000001 0.6378735999999998 0.5480202499999999
0.3686759999999999 0.6378735999999998 0.5769797499999998
0.8686759999999999 0.5287930666666666 0.7019797499999999
0.1313240000000000 0.5287930666666666 0.6730202499999999
0.1313240000000000 0.4712069333333332 0.5480202499999999
0.8686760000000000 0.4712069333333332 0.5769797499999998
0.3686759999999999 0.3621264000000000 0.9519797499999998
0.6313239999999999 0.3621264000000000 0.9230202499999998
0.6313240000000000 0.6378735999999998 0.7980202499999998
0.3686759999999999 0.6378735999999998 0.8269797499999999
0.8686760000000000 0.5287930666666665 0.9519797499999998
0.1313240000000000 0.5287930666666665 0.9230202499999998
0.1313240000000000 0.4712069333333332 0.7980202499999998
0.8686759999999999 0.4712069333333332 0.8269797499999999
0.3686759999999999 0.6954597333333332 0.2019797500000000
0.6313240000000001 0.6954597333333332 0.1730202499999999
0.6313240000000000 0.9712069333333331 0.0480202500000000
0.3686759999999999 0.9712069333333331 0.0769797500000000
0.8686759999999999 0.8621263999999998 0.2019797500000000
0.1313240000000000 0.8621263999999998 0.1730202499999999
0.1313240000000000 0.8045402666666664 0.0480202500000000
0.8686759999999999 0.8045402666666664 0.0769797500000000
0.3686759999999999 0.6954597333333332 0.4519797500000000
0.6313240000000000 0.6954597333333332 0.4230202499999999
0.6313240000000000 0.9712069333333331 0.2980202499999999
0.3686759999999999 0.9712069333333331 0.3269797499999999
0.8686759999999998 0.8621263999999998 0.4519797500000000
0.1313240000000000 0.8621263999999998 0.4230202499999999
0.1313240000000000 0.8045402666666664 0.2980202499999999
0.8686759999999999 0.8045402666666664 0.3269797499999999
0.3686760000000000 0.6954597333333332 0.7019797499999999
0.6313240000000001 0.6954597333333332 0.6730202499999999
0.6313240000000000 0.9712069333333331 0.5480202499999999
0.3686759999999999 0.9712069333333331 0.5769797499999998
0.8686759999999998 0.8621263999999998 0.7019797499999999
0.1313240000000000 0.8621263999999998 0.6730202499999999
0.1313240000000000 0.8045402666666664 0.5480202499999999
0.8686760000000000 0.8045402666666664 0.5769797499999998
0.3686759999999999 0.6954597333333331 0.9519797499999998
0.6313240000000000 0.6954597333333331 0.9230202499999998
0.6313239999999999 0.9712069333333331 0.7980202499999998
0.3686759999999999 0.9712069333333331 0.8269797499999999
0.8686759999999999 0.8621263999999997 0.9519797499999998
0.1313240000000000 0.8621263999999997 0.9230202499999998
0.1313240000000000 0.8045402666666664 0.7980202499999998
0.8686759999999999 0.8045402666666664 0.8269797499999999
0.3425300000000000 0.1486316666666666 0.1913377499999999
0.6574699999999999 0.1486316666666666 0.1836622499999999
0.6574699999999999 0.1847016666666667 0.0586622500000000
0.3425300000000000 0.1847016666666667 0.0663377500000000
0.8425299999999999 0.3152983333333332 0.1913377499999999
0.1574700000000000 0.3152983333333332 0.1836622499999999
0.1574700000000000 0.0180350000000000 0.0586622500000000
0.8425299999999999 0.0180350000000000 0.0663377500000000
0.3425299999999999 0.1486316666666666 0.4413377499999999
0.6574699999999999 0.1486316666666666 0.4336622499999999
0.6574700000000000 0.1847016666666667 0.3086622500000000
0.3425299999999999 0.1847016666666667 0.3163377499999999
0.8425299999999998 0.3152983333333332 0.4413377499999999
0.1574700000000000 0.3152983333333332 0.4336622499999999
0.1574700000000000 0.0180350000000000 0.3086622500000000
0.8425299999999998 0.0180350000000000 0.3163377499999999
0.3425300000000000 0.1486316666666666 0.6913377499999999
0.6574699999999999 0.1486316666666666 0.6836622499999998
0.6574700000000000 0.1847016666666667 0.5586622499999999
0.3425300000000000 0.1847016666666667 0.5663377499999999
0.8425299999999998 0.3152983333333332 0.6913377499999999
0.1574699999999999 0.3152983333333332 0.6836622499999998
0.1574700000000000 0.0180350000000000 0.5586622499999999
0.8425299999999999 0.0180350000000000 0.5663377499999999
0.3425299999999999 0.1486316666666666 0.9413377499999998
0.6574700000000000 0.1486316666666666 0.9336622499999999
0.6574700000000000 0.1847016666666667 0.8086622499999999
0.3425300000000000 0.1847016666666667 0.8163377499999998
0.8425300000000000 0.3152983333333332 0.9413377499999998
0.1574700000000000 0.3152983333333332 0.9336622499999999
0.1574700000000000 0.0180350000000000 0.8086622499999999
0.8425299999999998 0.0180350000000000 0.8163377499999998
0.3425299999999999 0.4819649999999999 0.1913377499999999
0.6574699999999999 0.4819649999999999 0.1836622499999999
0.6574699999999999 0.5180349999999999 0.0586622500000000
0.3425299999999999 0.5180349999999999 0.0663377500000000
0.8425299999999999 0.6486316666666665 0.1913377499999999
0.1574700000000000 0.6486316666666665 0.1836622499999999
0.1574700000000000 0.3513683333333333 0.0586622500000000
0.8425299999999999 0.3513683333333333 0.0663377500000000
0.3425299999999999 0.4819649999999998 0.4413377499999999
0.6574699999999999 0.4819649999999998 0.4336622499999999
0.6574700000000000 0.5180349999999999 0.3086622500000000
0.3425299999999999 0.5180349999999999 0.3163377499999999
0.8425299999999998 0.6486316666666665 0.4413377499999999
0.1574700000000000 0.6486316666666665 0.4336622499999999
0.1574699999999999 0.3513683333333333 0.3086622500000000
0.8425299999999998 0.3513683333333333 0.3163377499999999
0.3425299999999999 0.4819649999999999 0.6913377499999999
0.6574699999999999 0.4819649999999999 0.6836622499999998
0.6574700000000000 0.5180350000000000 0.5586622499999999
0.3425299999999999 0.5180350000000000 0.5663377499999999
0.8425299999999998 0.6486316666666665 0.6913377499999999
0.1574699999999999 0.6486316666666665 0.6836622499999998
0.1574700000000000 0.3513683333333333 0.5586622499999999
0.8425299999999999 0.3513683333333333 0.5663377499999999
0.3425299999999999 0.4819649999999999 0.9413377499999998
0.6574700000000000 0.4819649999999999 0.9336622499999999
0.6574700000000000 0.5180350000000000 0.8086622499999999
0.3425299999999999 0.5180350000000000 0.8163377499999998
0.8425300000000000 0.6486316666666664 0.9413377499999998
0.1574699999999999 0.6486316666666664 0.9336622499999999
0.1574700000000000 0.3513683333333333 0.8086622499999999
0.8425299999999998 0.3513683333333333 0.8163377499999998
0.3425300000000000 0.8152983333333331 0.1913377499999999
0.6574699999999999 0.8152983333333331 0.1836622499999999
0.6574699999999999 0.8513683333333331 0.0586622500000000
0.3425300000000001 0.8513683333333331 0.0663377500000000
0.8425299999999998 0.9819649999999999 0.1913377499999999
0.1574700000000000 0.9819649999999999 0.1836622499999999
0.1574700000000000 0.6847016666666665 0.0586622500000000
0.8425299999999999 0.6847016666666665 0.0663377500000000
0.3425299999999999 0.8152983333333331 0.4413377499999999
0.6574699999999999 0.8152983333333331 0.4336622499999999
0.6574700000000000 0.8513683333333331 0.3086622500000000
0.3425300000000000 0.8513683333333331 0.3163377499999999
0.8425299999999997 0.9819649999999999 0.4413377499999999
0.1574700000000000 0.9819649999999999 0.4336622499999999
0.1574699999999999 0.6847016666666665 0.3086622500000000
0.8425299999999998 0.6847016666666665 0.3163377499999999
0.3425300000000001 0.8152983333333331 0.6913377499999999
0.6574699999999999 0.8152983333333331 0.6836622499999998
0.6574700000000000 0.8513683333333331 0.5586622499999999
0.3425300000000000 0.8513683333333331 0.5663377499999999
0.8425299999999997 0.9819649999999999 0.6913377499999999
0.1574700000000000 0.9819649999999999 0.6836622499999998
0.1574699999999999 0.6847016666666665 0.5586622499999999
0.8425299999999999 0.6847016666666665 0.5663377499999999
0.3425300000000000 0.8152983333333330 0.9413377499999998
0.6574700000000000 0.8152983333333330 0.9336622499999999
0.6574700000000000 0.8513683333333331 0.8086622499999999
0.3425300000000000 0.8513683333333331 0.8163377499999998
0.8425299999999999 0.9819649999999998 0.9413377499999998
0.1574700000000000 0.9819649999999998 0.9336622499999999
0.1574700000000000 0.6847016666666665 0.8086622499999999
0.8425299999999998 0.6847016666666665 0.8163377499999998
0.2854280000000000 0.1395823333333333 0.2284957499999999
0.7145720000000000 0.1395823333333333 0.1465042500000000
0.7145719999999999 0.1937510000000000 0.0215042500000000
0.2854280000000000 0.1937510000000000 0.1034957500000000
0.7854279999999999 0.3062489999999999 0.2284957499999999
0.2145720000000000 0.3062489999999999 0.1465042500000000
0.2145720000000000 0.0270843333333333 0.0215042500000000
0.7854280000000000 0.0270843333333333 0.1034957500000000
0.2854280000000000 0.1395823333333333 0.4784957499999999
0.7145719999999999 0.1395823333333333 0.3965042499999999
0.7145719999999999 0.1937510000000000 0.2715042499999999
0.2854280000000000 0.1937510000000000 0.3534957499999999
0.7854279999999999 0.3062489999999999 0.4784957499999999
0.2145720000000000 0.3062490000000000 0.3965042499999999
0.2145720000000000 0.0270843333333333 0.2715042499999999
0.7854280000000000 0.0270843333333333 0.3534957499999999
0.2854280000000000 0.1395823333333333 0.7284957499999999
0.7145719999999999 0.1395823333333333 0.6465042499999999
0.7145719999999998 0.1937510000000000 0.5215042499999999
0.2854280000000000 0.1937510000000000 0.6034957499999999
0.7854280000000000 0.3062489999999999 0.7284957499999999
0.2145720000000000 0.3062489999999999 0.6465042499999999
0.2145720000000000 0.0270843333333333 0.5215042499999999
0.7854279999999999 0.0270843333333333 0.6034957499999999
0.2854280000000000 0.1395823333333333 0.9784957499999998
0.7145719999999998 0.1395823333333333 0.8965042499999998
0.7145719999999999 0.1937510000000000 0.7715042499999999
0.2854280000000000 0.1937510000000000 0.8534957499999998
0.7854279999999999 0.3062489999999999 0.9784957499999998
0.2145720000000000 0.3062489999999999 0.8965042499999998
0.2145719999999999 0.0270843333333333 0.7715042499999999
0.7854279999999999 0.0270843333333333 0.8534957499999998
0.2854280000000000 0.4729156666666666 0.2284957499999999
0.7145720000000000 0.4729156666666666 0.1465042500000000
0.7145719999999999 0.5270843333333333 0.0215042500000000
0.2854280000000000 0.5270843333333333 0.1034957500000000
0.7854279999999999 0.6395823333333331 0.2284957499999999
0.2145720000000000 0.6395823333333331 0.1465042500000000
0.2145720000000000 0.3604176666666666 0.0215042500000000
0.7854280000000000 0.3604176666666666 0.1034957500000000
0.2854280000000000 0.4729156666666666 0.4784957499999999
0.7145719999999999 0.4729156666666666 0.3965042499999999
0.7145719999999999 0.5270843333333333 0.2715042499999999
0.2854279999999999 0.5270843333333333 0.3534957499999999
0.7854279999999999 0.6395823333333331 0.4784957499999999
0.2145720000000000 0.6395823333333331 0.3965042499999999
0.2145720000000000 0.3604176666666666 0.2715042499999999
0.7854280000000000 0.3604176666666666 0.3534957499999999
0.2854280000000000 0.4729156666666666 0.7284957499999999
0.7145719999999999 0.4729156666666666 0.6465042499999999
0.7145719999999998 0.5270843333333333 0.5215042499999999
0.2854280000000000 0.5270843333333333 0.6034957499999999
0.7854280000000000 0.6395823333333331 0.7284957499999999
0.2145720000000000 0.6395823333333331 0.6465042499999999
0.2145720000000000 0.3604176666666666 0.5215042499999999
0.7854279999999999 0.3604176666666666 0.6034957499999999
0.2854280000000000 0.4729156666666666 0.9784957499999998
0.7145719999999998 0.4729156666666666 0.8965042499999998
0.7145719999999999 0.5270843333333333 0.7715042499999999
0.2854280000000000 0.5270843333333332 0.8534957499999998
0.7854279999999999 0.6395823333333330 0.9784957499999998
0.2145720000000000 0.6395823333333330 0.8965042499999998
0.2145720000000000 0.3604176666666666 0.7715042499999999
0.7854279999999999 0.3604176666666666 0.8534957499999998
0.2854280000000000 0.8062489999999997 0.2284957499999999
0.7145720000000000 0.8062489999999997 0.1465042500000000
0.7145719999999998 0.8604176666666665 0.0215042500000000
0.2854280000000000 0.8604176666666665 0.1034957500000000
0.7854279999999998 0.9729156666666664 0.2284957499999999
0.2145720000000000 0.9729156666666664 0.1465042500000000
0.2145720000000000 0.6937510000000000 0.0215042500000000
0.7854280000000000 0.6937510000000000 0.1034957500000000
0.2854280000000000 0.8062489999999997 0.4784957499999999
0.7145719999999999 0.8062489999999997 0.3965042499999999
0.7145719999999998 0.8604176666666665 0.2715042499999999
0.2854280000000000 0.8604176666666665 0.3534957499999999
0.7854279999999998 0.9729156666666664 0.4784957499999999
0.2145720000000000 0.9729156666666664 0.3965042499999999
0.2145720000000000 0.6937510000000000 0.2715042499999999
0.7854280000000000 0.6937510000000000 0.3534957499999999
0.2854280000000000 0.8062489999999997 0.7284957499999999
0.7145719999999999 0.8062489999999997 0.6465042499999999
0.7145719999999997 0.8604176666666665 0.5215042499999999
0.2854280000000000 0.8604176666666665 0.6034957499999999
0.7854279999999999 0.9729156666666664 0.7284957499999999
0.2145720000000000 0.9729156666666664 0.6465042499999999
0.2145720000000000 0.6937510000000000 0.5215042499999999
0.7854279999999999 0.6937510000000000 0.6034957499999999
0.2854280000000000 0.8062489999999995 0.9784957499999998
0.7145719999999998 0.8062489999999995 0.8965042499999998
0.7145719999999998 0.8604176666666665 0.7715042499999999
0.2854280000000000 0.8604176666666664 0.8534957499999998
0.7854279999999998 0.9729156666666663 0.9784957499999998
0.2145720000000000 0.9729156666666663 0.8965042499999998
0.2145719999999999 0.6937510000000000 0.7715042499999999
0.7854279999999999 0.6937509999999999 0.8534957499999998
0.3334160000000000 0.0893326666666667 0.2210547499999999
0.6665840000000001 0.0893326666666667 0.1539452500000000
0.6665840000000000 0.2440006666666666 0.0289452500000000
0.3334160000000000 0.2440006666666666 0.0960547500000000
0.8334159999999999 0.2559993333333332 0.2210547499999999
0.1665840000000000 0.2559993333333332 0.1539452500000000
0.1665840000000000 0.0773340000000000 0.0289452500000000
0.8334159999999998 0.0773340000000000 0.0960547500000000
0.3334159999999999 0.0893326666666667 0.4710547499999999
0.6665840000000001 0.0893326666666667 0.4039452499999999
0.6665840000000001 0.2440006666666666 0.2789452500000000
0.3334160000000000 0.2440006666666666 0.3460547499999999
0.8334159999999998 0.2559993333333332 0.4710547499999999
0.1665840000000000 0.2559993333333332 0.4039452499999999
0.1665840000000000 0.0773340000000000 0.2789452500000000
0.8334159999999999 0.0773340000000000 0.3460547499999999
0.3334160000000000 0.0893326666666667 0.7210547499999999
0.6665840000000001 0.0893326666666667 0.6539452499999999
0.6665840000000002 0.2440006666666666 0.5289452499999999
0.3334160000000000 0.2440006666666666 0.5960547499999999
0.8334159999999998 0.2559993333333332 0.7210547499999999
0.1665840000000000 0.2559993333333332 0.6539452499999999
0.1665840000000000 0.0773340000000000 0.5289452499999999
0.8334159999999999 0.0773340000000000 0.5960547499999999
0.3334160000000000 0.0893326666666666 0.9710547499999997
0.6665840000000002 0.0893326666666667 0.9039452499999998
0.6665840000000001 0.2440006666666666 0.7789452499999999
0.3334160000000000 0.2440006666666666 0.8460547499999999
0.8334159999999999 0.2559993333333332 0.9710547499999997
0.1665840000000000 0.2559993333333332 0.9039452499999998
0.1665840000000000 0.0773340000000000 0.7789452499999999
0.8334159999999998 0.0773340000000000 0.8460547499999999
0.3334160000000000 0.4226659999999999 0.2210547499999999
0.6665840000000001 0.4226659999999999 0.1539452500000000
0.6665840000000000 0.5773339999999999 0.0289452500000000
0.3334160000000000 0.5773339999999999 0.0960547500000000
0.8334159999999999 0.5893326666666664 0.2210547499999999
0.1665840000000000 0.5893326666666664 0.1539452500000000
0.1665840000000000 0.4106673333333333 0.0289452500000000
0.8334159999999998 0.4106673333333333 0.0960547500000000
0.3334159999999999 0.4226659999999998 0.4710547499999999
0.6665840000000001 0.4226659999999999 0.4039452499999999
0.6665840000000001 0.5773339999999999 0.2789452500000000
0.3334160000000000 0.5773339999999999 0.3460547499999999
0.8334159999999998 0.5893326666666664 0.4710547499999999
0.1665840000000000 0.5893326666666664 0.4039452499999999
0.1665840000000000 0.4106673333333333 0.2789452500000000
0.8334159999999999 0.4106673333333333 0.3460547499999999
0.3334160000000000 0.4226659999999999 0.7210547499999999
0.6665840000000001 0.4226659999999999 0.6539452499999999
0.6665840000000002 0.5773339999999999 0.5289452499999999
0.3334160000000000 0.5773339999999999 0.5960547499999999
0.8334159999999998 0.5893326666666665 0.7210547499999999
0.1665840000000000 0.5893326666666665 0.6539452499999999
0.1665840000000000 0.4106673333333333 0.5289452499999999
0.8334159999999999 0.4106673333333333 0.5960547499999999
0.3334160000000000 0.4226659999999999 0.9710547499999997
0.6665840000000002 0.4226659999999999 0.9039452499999998
0.6665840000000001 0.5773339999999999 0.7789452499999999
0.3334160000000000 0.5773339999999998 0.8460547499999999
0.8334159999999999 0.5893326666666664 0.9710547499999997
0.1665840000000000 0.5893326666666664 0.9039452499999998
0.1665840000000000 0.4106673333333333 0.7789452499999999
0.8334159999999998 0.4106673333333333 0.8460547499999999
0.3334160000000000 0.7559993333333332 0.2210547499999999
0.6665840000000001 0.7559993333333332 0.1539452500000000
0.6665839999999998 0.9106673333333332 0.0289452500000000
0.3334160000000000 0.9106673333333332 0.0960547500000000
0.8334159999999998 0.9226659999999997 0.2210547499999999
0.1665840000000000 0.9226659999999997 0.1539452500000000
0.1665840000000000 0.7440006666666664 0.0289452500000000
0.8334159999999998 0.7440006666666664 0.0960547500000000
0.3334160000000000 0.7559993333333332 0.4710547499999999
0.6665840000000001 0.7559993333333332 0.4039452499999999
0.6665840000000000 0.9106673333333332 0.2789452500000000
0.3334160000000000 0.9106673333333332 0.3460547499999999
0.8334159999999997 0.9226659999999997 0.4710547499999999
0.1665840000000000 0.9226659999999997 0.4039452499999999
0.1665840000000000 0.7440006666666664 0.2789452500000000
0.8334159999999999 0.7440006666666664 0.3460547499999999
0.3334160000000000 0.7559993333333332 0.7210547499999999
0.6665840000000001 0.7559993333333332 0.6539452499999999
0.6665840000000001 0.9106673333333332 0.5289452499999999
0.3334160000000000 0.9106673333333332 0.5960547499999999
0.8334159999999997 0.9226659999999997 0.7210547499999999
0.1665840000000000 0.9226659999999997 0.6539452499999999
0.1665840000000000 0.7440006666666664 0.5289452499999999
0.8334159999999999 0.7440006666666664 0.5960547499999999
0.3334160000000000 0.7559993333333331 0.9710547499999997
0.6665840000000002 0.7559993333333331 0.9039452499999998
0.6665840000000000 0.9106673333333332 0.7789452499999999
0.3334160000000000 0.9106673333333331 0.8460547499999999
0.8334159999999998 0.9226659999999995 0.9710547499999997
0.1665840000000000 0.9226659999999995 0.9039452499999998
0.1665840000000000 0.7440006666666664 0.7789452499999999
0.8334159999999998 0.7440006666666663 0.8460547499999999
0.2047370000000000 0.1280460000000000 0.1902334999999999
0.7952630000000001 0.1280460000000000 0.1847664999999999
0.7952629999999999 0.2052873333333333 0.0597665000000000
0.2047370000000000 0.2052873333333333 0.0652335000000000
0.7047369999999999 0.2947126666666666 0.1902334999999999
0.2952630000000000 0.2947126666666666 0.1847664999999999
0.2952630000000000 0.0386206666666667 0.0597665000000000
0.7047369999999998 0.0386206666666667 0.0652335000000000
0.2047370000000000 0.1280460000000000 0.4402334999999999
0.7952629999999999 0.1280460000000000 0.4347664999999999
0.7952630000000001 0.2052873333333333 0.3097664999999999
0.2047370000000000 0.2052873333333333 0.3152334999999999
0.7047369999999999 0.2947126666666666 0.4402334999999999
0.2952630000000000 0.2947126666666666 0.4347664999999999
0.2952630000000000 0.0386206666666667 0.3097664999999999
0.7047369999999998 0.0386206666666667 0.3152334999999999
0.2047370000000000 0.1280460000000000 0.6902334999999998
0.7952629999999999 0.1280460000000000 0.6847664999999999
0.7952630000000001 0.2052873333333333 0.5597664999999999
0.2047370000000000 0.2052873333333333 0.5652334999999998
0.7047369999999999 0.2947126666666666 0.6902334999999998
0.2952630000000000 0.2947126666666666 0.6847664999999999
0.2952629999999999 0.0386206666666667 0.5597664999999999
0.7047370000000001 0.0386206666666667 0.5652334999999998
0.2047370000000000 0.1280460000000000 0.9402334999999997
0.7952630000000001 0.1280460000000000 0.9347664999999998
0.7952629999999999 0.2052873333333333 0.8097664999999998
0.2047370000000000 0.2052873333333333 0.8152334999999998
0.7047369999999998 0.2947126666666666 0.9402334999999997
0.2952630000000000 0.2947126666666666 0.9347664999999998
0.2952630000000000 0.0386206666666667 0.8097664999999998
0.7047369999999999 0.0386206666666667 0.8152334999999998
0.2047370000000000 0.4613793333333332 0.1902334999999999
0.7952630000000001 0.4613793333333332 0.1847664999999999
0.7952629999999999 0.5386206666666665 0.0597665000000000
0.2047370000000000 0.5386206666666665 0.0652335000000000
0.7047369999999999 0.6280459999999998 0.1902334999999999
0.2952629999999999 0.6280459999999998 0.1847664999999999
0.2952630000000001 0.3719539999999998 0.0597665000000000
0.7047369999999998 0.3719539999999998 0.0652335000000000
0.2047370000000000 0.4613793333333331 0.4402334999999999
0.7952629999999999 0.4613793333333331 0.4347664999999999
0.7952630000000001 0.5386206666666665 0.3097664999999999
0.2047370000000000 0.5386206666666665 0.3152334999999999
0.7047369999999999 0.6280459999999998 0.4402334999999999
0.2952629999999999 0.6280459999999998 0.4347664999999999
0.2952630000000000 0.3719539999999998 0.3097664999999999
0.7047369999999998 0.3719539999999998 0.3152334999999999
0.2047370000000000 0.4613793333333333 0.6902334999999998
0.7952629999999999 0.4613793333333333 0.6847664999999999
0.7952630000000001 0.5386206666666666 0.5597664999999999
0.2047370000000000 0.5386206666666666 0.5652334999999998
0.7047369999999999 0.6280459999999998 0.6902334999999998
0.2952629999999999 0.6280459999999998 0.6847664999999999
0.2952629999999999 0.3719539999999998 0.5597664999999999
0.7047370000000001 0.3719539999999998 0.5652334999999998
0.2047370000000000 0.4613793333333333 0.9402334999999997
0.7952630000000001 0.4613793333333333 0.9347664999999998
0.7952629999999999 0.5386206666666666 0.8097664999999998
0.2047370000000000 0.5386206666666666 0.8152334999999998
0.7047369999999998 0.6280459999999997 0.9402334999999997
0.2952629999999999 0.6280459999999997 0.9347664999999998
0.2952630000000000 0.3719539999999998 0.8097664999999998
0.7047369999999999 0.3719539999999998 0.8152334999999998
0.2047369999999999 0.7947126666666665 0.1902334999999999
0.7952630000000001 0.7947126666666665 0.1847664999999999
0.7952629999999998 0.8719539999999999 0.0597665000000000
0.2047370000000000 0.8719539999999999 0.0652335000000000
0.7047369999999998 0.9613793333333331 0.1902334999999999
0.2952630000000000 0.9613793333333331 0.1847664999999999
0.2952630000000000 0.7052873333333332 0.0597665000000000
0.7047369999999998 0.7052873333333332 0.0652335000000000
0.2047370000000000 0.7947126666666665 0.4402334999999999
0.7952629999999999 0.7947126666666665 0.4347664999999999
0.7952629999999999 0.8719539999999999 0.3097664999999999
0.2047370000000000 0.8719539999999999 0.3152334999999999
0.7047369999999998 0.9613793333333331 0.4402334999999999
0.2952630000000000 0.9613793333333331 0.4347664999999999
0.2952629999999999 0.7052873333333332 0.3097664999999999
0.7047369999999998 0.7052873333333332 0.3152334999999999
0.2047370000000000 0.7947126666666665 0.6902334999999998
0.7952629999999999 0.7947126666666665 0.6847664999999999
0.7952629999999999 0.8719539999999999 0.5597664999999999
0.2047370000000000 0.8719539999999999 0.5652334999999998
0.7047369999999998 0.9613793333333331 0.6902334999999998
0.2952629999999999 0.9613793333333331 0.6847664999999999
0.2952629999999999 0.7052873333333332 0.5597664999999999
0.7047370000000001 0.7052873333333332 0.5652334999999998
0.2047370000000000 0.7947126666666664 0.9402334999999997
0.7952630000000001 0.7947126666666664 0.9347664999999998
0.7952629999999998 0.8719539999999999 0.8097664999999998
0.2047370000000000 0.8719539999999999 0.8152334999999998
0.7047369999999997 0.9613793333333330 0.9402334999999997
0.2952630000000000 0.9613793333333330 0.9347664999999998
0.2952629999999999 0.7052873333333332 0.8097664999999998
0.7047369999999999 0.7052873333333332 0.8152334999999998
