 Entering Gaussian System
 *********************************************
 Gaussian 98:
 frequency output generated by the xtb code
 *********************************************
                         Standard orientation:
 --------------------------------------------------------------------
  Center     Atomic     Atomic              Coordinates (Angstroms)
  Number     Number      Type              X           Y           Z
 --------------------------------------------------------------------
    1          6             0        1.879654   -0.147470   -0.063084
    2          6             0        0.395685   -0.188274   -0.067197
    3          7             0       -0.342697   -1.207542   -0.411802
    4          6             0       -1.635484   -0.809327   -0.266639
    5          6             0       -1.682380    0.478603    0.175321
    6          7             0       -0.376051    0.871006    0.301183
    7          1             0        2.256585    0.056222    0.938969
    8          1             0        2.245448    0.629817   -0.733679
    9          1             0        2.255832   -1.109346   -0.395441
   10          1             0       -2.442542   -1.477274   -0.490313
   11          1             0       -2.500478    1.129867    0.404095
   12          1             0       -0.053572    1.773719    0.608589
 --------------------------------------------------------------------
     1 basis functions        1 primitive gaussians
     1 alpha electrons        1 beta electrons

 Harmonic frequencies (cm**-1), IR intensities (km*mol⁻¹),
 Raman scattering activities (A**4/amu), Raman depolarization ratios,
 reduced masses (AMU), force constants (mDyne/A) and normal coordinates:
                      1                      2                      3
                        a                      a                      a 
 Frequencies --    79.9743               253.6040               319.0225
 Red. masses --     1.6318                 9.4941                 8.9611
 Frc consts  --     0.0000                 0.0000                 0.0000
 IR Inten    --     0.2264                 1.6569                 3.3508
 Raman Activ --     0.0000                 0.0000                 0.0000
 Depolar     --     0.0000                 0.0000                 0.0000
 Atom AN      X      Y      Z        X      Y      Z        X      Y      Z
   1   6     0.00  -0.01   0.02     0.00  -0.12   0.34    -0.03   0.44   0.15
   2   6    -0.00   0.01  -0.03    -0.00   0.16  -0.46    -0.01  -0.35  -0.12
   3   7     0.00  -0.04   0.11    -0.00   0.10  -0.30    -0.25  -0.24  -0.08
   4   6     0.00  -0.03   0.10     0.00  -0.08   0.24    -0.15   0.10   0.04
   5   6    -0.00   0.02  -0.05     0.00  -0.10   0.30     0.16   0.12   0.04
   6   7    -0.00   0.05  -0.14    -0.00   0.10  -0.29     0.25  -0.23  -0.08
   7   1     0.00  -0.56   0.12    -0.19  -0.02   0.17    -0.14   0.22   0.07
   8   1     0.00   0.37   0.44     0.20  -0.09   0.15    -0.14   0.22   0.08
   9   1    -0.00   0.17  -0.51     0.00  -0.07   0.22     0.25   0.22   0.07
  10   1     0.00  -0.02   0.05     0.00  -0.06   0.16    -0.09   0.08   0.03
  11   1    -0.00   0.01  -0.03     0.00  -0.06   0.18     0.09   0.09   0.03
  12   1    -0.00   0.02  -0.07    -0.00   0.03  -0.10     0.15  -0.09  -0.03
                      4                      5                      6
                        a                      a                      a 
 Frequencies --   568.4948               614.8943               651.8504
 Red. masses --     9.9141                 5.1435                10.1314
 Frc consts  --     0.0000                 0.0000                 0.0000
 IR Inten    --    29.8533                53.3884                 0.0275
 Raman Activ --     0.0000                 0.0000                 0.0000
 Depolar     --     0.0000                 0.0000                 0.0000
 Atom AN      X      Y      Z        X      Y      Z        X      Y      Z
   1   6    -0.00   0.01  -0.03    -0.00  -0.00   0.00    -0.00   0.03  -0.08
   2   6    -0.00   0.11  -0.32     0.00  -0.01   0.03    -0.00   0.18  -0.54
   3   7    -0.00   0.02  -0.04     0.00  -0.07   0.21     0.00  -0.19   0.55
   4   6     0.00  -0.08   0.23    -0.00   0.14  -0.40    -0.00   0.09  -0.27
   5   6    -0.00   0.13  -0.37     0.00  -0.12   0.35     0.00  -0.03   0.09
   6   7     0.00  -0.21   0.60     0.00  -0.00   0.01     0.00  -0.04   0.11
   7   1    -0.11  -0.01   0.03     0.01  -0.00  -0.00    -0.16  -0.02   0.05
   8   1     0.11  -0.01   0.03    -0.01   0.00  -0.00     0.16  -0.01   0.05
   9   1     0.00  -0.01   0.04    -0.00   0.00  -0.01     0.00  -0.02   0.05
  10   1     0.00  -0.04   0.12    -0.00   0.06  -0.18    -0.00   0.05  -0.16
  11   1    -0.00   0.06  -0.17     0.00  -0.06   0.18    -0.00   0.01  -0.04
  12   1    -0.00   0.14  -0.41    -0.00   0.24  -0.71     0.00  -0.12   0.36
                      7                      8                      9
                        a                      a                      a 
 Frequencies --   686.7501               754.3948               832.1895
 Red. masses --    10.6379                 3.1438                 3.1166
 Frc consts  --     0.0000                 0.0000                 0.0000
 IR Inten    --     1.0332                 4.9741                 4.9011
 Raman Activ --     0.0000                 0.0000                 0.0000
 Depolar     --     0.0000                 0.0000                 0.0000
 Atom AN      X      Y      Z        X      Y      Z        X      Y      Z
   1   6     0.68   0.01  -0.00    -0.00   0.00  -0.00    -0.00   0.00  -0.01
   2   6     0.24  -0.03  -0.01    -0.00  -0.00   0.01    -0.00   0.01  -0.03
   3   7    -0.22   0.16   0.06    -0.00   0.03  -0.09    -0.00   0.02  -0.05
   4   6    -0.30   0.03   0.01     0.00   0.02  -0.06     0.00  -0.14   0.40
   5   6    -0.29   0.00   0.00     0.00  -0.14   0.40     0.00  -0.01   0.03
   6   7    -0.19  -0.18  -0.06    -0.00   0.01  -0.02    -0.00   0.02  -0.05
   7   1     0.19   0.01  -0.00     0.01   0.00  -0.00    -0.02  -0.00   0.00
   8   1     0.19   0.01   0.00    -0.01  -0.00  -0.00     0.02  -0.00   0.00
   9   1     0.23   0.01   0.00    -0.00   0.00  -0.00     0.00  -0.00   0.01
  10   1    -0.04  -0.04  -0.01     0.00  -0.03   0.10    -0.01   0.29  -0.84
  11   1    -0.03   0.06   0.02    -0.01   0.29  -0.84    -0.00   0.04  -0.11
  12   1    -0.14  -0.02  -0.01     0.00   0.01  -0.03    -0.00   0.02  -0.05
                     10                     11                     12
                        a                      a                      a 
 Frequencies --   888.4102               961.3208               995.4507
 Red. masses --    11.6261                 6.7296                 5.4506
 Frc consts  --     0.0000                 0.0000                 0.0000
 IR Inten    --     3.5221                 2.4750                 4.9988
 Raman Activ --     0.0000                 0.0000                 0.0000
 Depolar     --     0.0000                 0.0000                 0.0000
 Atom AN      X      Y      Z        X      Y      Z        X      Y      Z
   1   6    -0.00   0.01   0.00     0.18  -0.24  -0.08    -0.19  -0.32  -0.11
   2   6    -0.00   0.13   0.05    -0.10  -0.15  -0.05     0.12  -0.03  -0.01
   3   7    -0.25   0.26   0.09    -0.00  -0.22  -0.08     0.07   0.37   0.13
   4   6    -0.42  -0.34  -0.11     0.08   0.04   0.01     0.04   0.02   0.01
   5   6     0.42  -0.35  -0.12     0.02  -0.01  -0.00    -0.13   0.02   0.01
   6   7     0.28   0.23   0.08    -0.07   0.48   0.17     0.04  -0.14  -0.05
   7   1    -0.01   0.02   0.00    -0.13   0.10   0.01    -0.31   0.14   0.03
   8   1    -0.01   0.02   0.01    -0.13   0.09   0.05    -0.31   0.13   0.07
   9   1     0.02   0.01   0.00     0.45   0.08   0.02     0.41   0.09   0.03
  10   1    -0.12  -0.09  -0.03    -0.12   0.16   0.06     0.28  -0.28  -0.10
  11   1     0.15  -0.06  -0.02    -0.28  -0.33  -0.11     0.12   0.18   0.06
  12   1    -0.13   0.12   0.04    -0.09   0.15   0.05    -0.09  -0.01  -0.00
                     13                     14                     15
                        a                      a                      a 
 Frequencies --  1035.7303              1079.0893              1126.7470
 Red. masses --     4.5465                 3.0119                 6.6907
 Frc consts  --     0.0000                 0.0000                 0.0000
 IR Inten    --    10.9917                18.6983                 0.5436
 Raman Activ --     0.0000                 0.0000                 0.0000
 Depolar     --     0.0000                 0.0000                 0.0000
 Atom AN      X      Y      Z        X      Y      Z        X      Y      Z
   1   6    -0.00   0.14  -0.41    -0.03  -0.04  -0.01     0.15   0.02   0.01
   2   6     0.00  -0.12   0.35     0.04  -0.01  -0.00    -0.23  -0.01  -0.00
   3   7    -0.00   0.01  -0.04     0.17  -0.15  -0.05    -0.04  -0.35  -0.12
   4   6     0.00   0.00  -0.01     0.04   0.05   0.02    -0.01  -0.21  -0.07
   5   6    -0.00  -0.00   0.00     0.18   0.00   0.00    -0.07   0.14   0.05
   6   7    -0.00   0.01  -0.04    -0.24  -0.08  -0.02    -0.06   0.38   0.13
   7   1    -0.53  -0.10   0.14    -0.04   0.02   0.00     0.08  -0.01  -0.01
   8   1     0.54  -0.00   0.16    -0.04   0.01   0.01     0.08  -0.02  -0.00
   9   1     0.00  -0.07   0.21     0.03   0.00   0.00     0.06   0.01   0.00
  10   1     0.00  -0.00   0.01    -0.25   0.30   0.10     0.26  -0.36  -0.12
  11   1    -0.00  -0.00   0.00     0.35   0.33   0.11     0.31   0.42   0.14
  12   1     0.00   0.00  -0.00    -0.63   0.16   0.06     0.12   0.06   0.02
                     16                     17                     18
                        a                      a                      a 
 Frequencies --  1146.8425              1246.0450              1359.8390
 Red. masses --     4.5362                11.6464                11.3004
 Frc consts  --     0.0000                 0.0000                 0.0000
 IR Inten    --     6.2817                 9.9256                21.1822
 Raman Activ --     0.0000                 0.0000                 0.0000
 Depolar     --     0.0000                 0.0000                 0.0000
 Atom AN      X      Y      Z        X      Y      Z        X      Y      Z
   1   6     0.04  -0.13  -0.04    -0.10   0.06   0.02    -0.01   0.03   0.01
   2   6    -0.08   0.25   0.08     0.24  -0.21  -0.07     0.11   0.03   0.01
   3   7     0.31   0.03   0.01     0.48  -0.12  -0.04    -0.36   0.01   0.01
   4   6    -0.17  -0.16  -0.06    -0.51   0.07   0.03     0.42  -0.17  -0.06
   5   6    -0.18  -0.12  -0.04    -0.34   0.04   0.02    -0.52  -0.15  -0.05
   6   7    -0.04  -0.00  -0.00     0.32   0.17   0.06     0.46   0.10   0.03
   7   1    -0.07   0.05   0.00    -0.04  -0.03   0.01    -0.03   0.01   0.01
   8   1    -0.07   0.04   0.03    -0.04  -0.01  -0.03    -0.04   0.02  -0.00
   9   1     0.18   0.03   0.01    -0.17  -0.04  -0.01    -0.09  -0.02  -0.00
  10   1    -0.39   0.32   0.11    -0.04  -0.10  -0.03    -0.12   0.20   0.07
  11   1     0.16   0.21   0.07    -0.11   0.01   0.00     0.03   0.16   0.05
  12   1     0.52  -0.17  -0.06    -0.15   0.12   0.04    -0.13   0.11   0.04
                     19                     20                     21
                        a                      a                      a 
 Frequencies --  1388.2640              1402.9457              1465.3964
 Red. masses --     4.7975                 9.8227                 2.7711
 Frc consts  --     0.0000                 0.0000                 0.0000
 IR Inten    --    16.4751                90.6107                 5.1203
 Raman Activ --     0.0000                 0.0000                 0.0000
 Depolar     --     0.0000                 0.0000                 0.0000
 Atom AN      X      Y      Z        X      Y      Z        X      Y      Z
   1   6    -0.34  -0.04  -0.01     0.31  -0.11  -0.04     0.10   0.20   0.07
   2   6    -0.18   0.23   0.08    -0.30   0.50   0.17    -0.24   0.04   0.01
   3   7     0.06  -0.10  -0.03     0.02  -0.27  -0.09     0.06   0.03   0.01
   4   6    -0.06   0.03   0.01    -0.10   0.03   0.01     0.01   0.11   0.04
   5   6    -0.08   0.04   0.01     0.01   0.14   0.05    -0.03  -0.11  -0.04
   6   7     0.25  -0.16  -0.06     0.28  -0.27  -0.09     0.10  -0.05  -0.02
   7   1     0.41   0.00  -0.17    -0.22   0.15   0.06    -0.16  -0.57   0.18
   8   1     0.42  -0.10   0.13    -0.22   0.15   0.05    -0.17  -0.33  -0.49
   9   1     0.46   0.17   0.06    -0.15  -0.09  -0.03     0.27   0.11   0.04
  10   1     0.01  -0.02  -0.01     0.05  -0.09  -0.03     0.03   0.01   0.00
  11   1    -0.07  -0.04  -0.01    -0.11  -0.09  -0.03     0.02   0.00   0.00
  12   1    -0.15   0.03   0.01    -0.18   0.01   0.00    -0.05   0.01   0.00
                     22                     23                     24
                        a                      a                      a 
 Frequencies --  1469.9370              1487.4571              1568.9096
 Red. masses --     1.5481                10.5883                11.8664
 Frc consts  --     0.0000                 0.0000                 0.0000
 IR Inten    --     8.2661                 5.1422                45.2617
 Raman Activ --     0.0000                 0.0000                 0.0000
 Depolar     --     0.0000                 0.0000                 0.0000
 Atom AN      X      Y      Z        X      Y      Z        X      Y      Z
   1   6    -0.00   0.07  -0.21    -0.11   0.03   0.01     0.18   0.02   0.01
   2   6     0.00   0.01  -0.04     0.30   0.10   0.03    -0.61  -0.38  -0.13
   3   7    -0.00   0.00  -0.00    -0.06  -0.02  -0.01     0.24   0.40   0.13
   4   6    -0.00  -0.00   0.00    -0.01  -0.56  -0.19     0.09  -0.24  -0.08
   5   6     0.00   0.00   0.00     0.07   0.59   0.20    -0.02   0.20   0.07
   6   7    -0.00  -0.00   0.01    -0.06  -0.06  -0.02     0.14  -0.07  -0.02
   7   1     0.28  -0.36  -0.05    -0.07  -0.15   0.05     0.07   0.07  -0.03
   8   1    -0.28   0.32   0.19    -0.07  -0.09  -0.12     0.07   0.04   0.07
   9   1     0.00  -0.24   0.69     0.09   0.04   0.01    -0.08  -0.04  -0.01
  10   1    -0.00  -0.00   0.00    -0.17  -0.01  -0.00    -0.09   0.05   0.02
  11   1     0.00  -0.00   0.00    -0.19  -0.04  -0.01    -0.06   0.01   0.00
  12   1     0.00   0.00  -0.00    -0.05   0.00   0.00    -0.11   0.02   0.01
                     25                     26                     27
                        a                      a                      a 
 Frequencies --  2997.3571              3008.2429              3077.2568
 Red. masses --     1.9462                 1.4669                 1.7292
 Frc consts  --     0.0000                 0.0000                 0.0000
 IR Inten    --    26.9592                26.0094                 5.2623
 Raman Activ --     0.0000                 0.0000                 0.0000
 Depolar     --     0.0000                 0.0000                 0.0000
 Atom AN      X      Y      Z        X      Y      Z        X      Y      Z
   1   6     0.00  -0.10   0.28     0.12   0.16   0.05    -0.09   0.23   0.08
   2   6     0.00  -0.00   0.01     0.01   0.01   0.00    -0.00   0.01   0.00
   3   7    -0.00  -0.00   0.00    -0.00  -0.00  -0.00    -0.00  -0.00  -0.00
   4   6     0.00   0.00  -0.00     0.00  -0.00  -0.00     0.00  -0.00  -0.00
   5   6    -0.00  -0.00   0.00     0.00   0.00   0.00     0.00  -0.00  -0.00
   6   7    -0.00   0.00  -0.00    -0.00  -0.00  -0.00    -0.00  -0.00  -0.00
   7   1    -0.24  -0.15  -0.61    -0.22  -0.11  -0.65    -0.01   0.03   0.01
   8   1     0.23   0.50  -0.40    -0.21  -0.48   0.45    -0.01   0.03   0.01
   9   1     0.00  -0.01   0.04     0.01   0.03   0.01     0.33  -0.86  -0.30
  10   1     0.00   0.00  -0.00     0.00  -0.00  -0.00    -0.00  -0.00  -0.00
  11   1     0.00  -0.00   0.00     0.00  -0.00  -0.00    -0.00   0.00   0.00
  12   1     0.00  -0.00   0.00     0.00   0.00   0.00     0.00   0.00   0.00
                     28                     29                     30
                        a                      a                      a 
 Frequencies --  3168.5612              3182.3693              3466.9117
 Red. masses --     1.8063                 1.9726                 1.8755
 Frc consts  --     0.0000                 0.0000                 0.0000
 IR Inten    --    10.3787                35.6283                 2.2168
 Raman Activ --     0.0000                 0.0000                 0.0000
 Depolar     --     0.0000                 0.0000                 0.0000
 Atom AN      X      Y      Z        X      Y      Z        X      Y      Z
   1   6     0.00  -0.00  -0.00     0.00  -0.00  -0.00    -0.00  -0.00  -0.00
   2   6     0.00   0.00   0.00    -0.00  -0.00  -0.00    -0.01  -0.00  -0.00
   3   7    -0.00  -0.00  -0.00    -0.00   0.00   0.00     0.00   0.00   0.00
   4   6    -0.15  -0.12  -0.04     0.15   0.13   0.05     0.00   0.00   0.00
   5   6     0.14  -0.11  -0.04     0.16  -0.14  -0.05     0.01  -0.01  -0.00
   6   7     0.00  -0.00  -0.00    -0.00  -0.00  -0.00    -0.08  -0.23  -0.08
   7   1    -0.00  -0.00  -0.00    -0.00  -0.00  -0.00     0.00   0.00   0.00
   8   1    -0.00  -0.00   0.00    -0.00  -0.00   0.00     0.00   0.00  -0.00
   9   1     0.00   0.00   0.00    -0.00   0.00   0.00    -0.00   0.00   0.00
  10   1     0.53   0.44   0.15    -0.49  -0.41  -0.14    -0.00  -0.00  -0.00
  11   1    -0.51   0.40   0.14    -0.53   0.42   0.15    -0.01   0.01   0.00
  12   1    -0.00  -0.01  -0.00    -0.00  -0.01  -0.00     0.31   0.87   0.29
