      -----------------------------------------------------------      
     |                   =====================                   |     
     |                           x T B                           |     
     |                   =====================                   |     
     |                         S. Grimme                         |     
     |          Mulliken Center for Theoretical Chemistry        |     
     |                    University of Bonn                     |     
      -----------------------------------------------------------      

   * xtb version 6.7.1 (edcfbbe) compiled by 'conda@5dfe00f5fb80' on 2026-06-10

   xtb is free software: you can redistribute it and/or modify it under
   the terms of the GNU Lesser General Public License as published by
   the Free Software Foundation, either version 3 of the License, or
   (at your option) any later version.
   
   xtb is distributed in the hope that it will be useful,
   but WITHOUT ANY WARRANTY; without even the implied warranty of
   MERCHANTABILITY or FITNESS FOR A PARTICULAR PURPOSE.  See the
   GNU Lesser General Public License for more details.
   
   Cite this work as:
   * C. Bannwarth, E. Caldeweyher, S. Ehlert, A. Hansen, P. Pracht,
     J. Seibert, S. Spicher, S. Grimme, WIREs Comput. Mol. Sci., 2020, 11,
     e01493. DOI: 10.1002/wcms.1493
   
   for GFN2-xTB:
   * C. Bannwarth, S. Ehlert and S. Grimme., J. Chem. Theory Comput., 2019,
     15, 1652-1671. DOI: 10.1021/acs.jctc.8b01176
   for GFN1-xTB:
   * S. Grimme, C. Bannwarth, P. Shushkov, J. Chem. Theory Comput., 2017,
     13, 1989-2009. DOI: 10.1021/acs.jctc.7b00118
   for GFN0-xTB:
   * P. Pracht, E. Caldeweyher, S. Ehlert, S. Grimme, ChemRxiv, 2019, preprint.
     DOI: 10.26434/chemrxiv.8326202.v1
   for GFN-FF:
   * S. Spicher and S. Grimme, Angew. Chem. Int. Ed., 2020, 59, 15665-15673.
     DOI: 10.1002/anie.202004239
   
   for ALPB and GBSA implicit solvation:
   * S. Ehlert, M. Stahn, S. Spicher, S. Grimme, J. Chem. Theory Comput.,
     2021, 17, 4250-4261. DOI: 10.1021/acs.jctc.1c00471
   
   for ddCOSMO and CPCM-X implicit solvation:
   * M. Stahn, S. Ehlert, S. Grimme, J. Phys. Chem. A,
     2023, XX, XXXX-XXXX. DOI: 10.1021/acs.jpca.3c04382
   
   for DFT-D4:
   * E. Caldeweyher, C. Bannwarth and S. Grimme, J. Chem. Phys., 2017,
     147, 034112. DOI: 10.1063/1.4993215
   * E. Caldeweyher, S. Ehlert, A. Hansen, H. Neugebauer, S. Spicher,
     C. Bannwarth and S. Grimme, J. Chem. Phys., 2019, 150, 154122.
     DOI: 10.1063/1.5090222
   * E. Caldeweyher, J.-M. Mewes, S. Ehlert and S. Grimme, Phys. Chem. Chem. Phys.
     2020, 22, 8499-8512. DOI: 10.1039/D0CP00502A
   
   for sTDA-xTB:
   * S. Grimme and C. Bannwarth, J. Chem. Phys., 2016, 145, 054103.
     DOI: 10.1063/1.4959605
   
   in the mass-spec context:
   * V. Asgeirsson, C. Bauer and S. Grimme, Chem. Sci., 2017, 8, 4879.
     DOI: 10.1039/c7sc00601b
   * J. Koopman and S. Grimme, ACS Omega 2019, 4, 12, 15120-15133.
     DOI: 10.1021/acsomega.9b02011
   
   for metadynamics refer to:
   * S. Grimme, J. Chem. Theory Comput., 2019, 155, 2847-2862
     DOI: 10.1021/acs.jctc.9b00143
   
   for SPH calculations refer to:
   * S. Spicher and S. Grimme, J. Chem. Theory Comput., 2021, 17, 1701-1714
     DOI: 10.1021/acs.jctc.0c01306
   
   for ONIOM refer to:
   * C. Plett, A. Katbashev, S. Ehlert, S. Grimme, M. Bursch,
     Phys. Chem. Chem. Phys., 2023, 25, 17860-17868. DOI: 10.1039/D3CP02178E
   
   for DIPRO refer to:
   * J. Kohn, N. Gildemeister, S. Grimme, D. Fazzi, A. Hansen,
     J. Chem. Phys., 2023, just accepted.
   
   for PTB refer to:
   * S. Grimme, M. Mueller, A. Hansen, J. Chem. Phys., 2023, 158, 124111.
     DOI: 10.1063/5.0137838
   
   with help from (in alphabetical order)
   P. Atkinson, C. Bannwarth, F. Bohle, G. Brandenburg, E. Caldeweyher
   M. Checinski, S. Dohm, S. Ehlert, S. Ehrlich, I. Gerasimov, C. Hölzer
   A. Katbashev, J. Kohn, J. Koopman, C. Lavigne, S. Lehtola, F. März, M. Müller,
   F. Musil, H. Neugebauer, J. Pisarek, C. Plett, P. Pracht, F. Pultar,
   J. Seibert, P. Shushkov, S. Spicher, M. Stahn, M. Steiner, T. Strunk,
   J. Stückrath, T. Rose, and J. Unsleber
   
 * started run on 2026/08/15 at 00:33:00.252     
   ID    Z sym.   atoms
    1    6 C      1, 2, 4, 5
    2    7 N      3, 6
    3    1 H      7-12

           -------------------------------------------------
          |                Calculation Setup                |
           -------------------------------------------------

          program call               : /home/mangwon1/miniconda3/envs/spectra/bin/xtb mol.xyz --ohess --chrg 0
          coordinate file            : mol.xyz
          omp threads                :                    16


           -------------------------------------------------
          |                 G F N 2 - x T B                 |
           -------------------------------------------------

        Reference                      10.1021/acs.jctc.8b01176
      * Hamiltonian:
        H0-scaling (s, p, d)           1.850000    2.230000    2.230000
        zeta-weighting                 0.500000
      * Dispersion:
        s8                             2.700000
        a1                             0.520000
        a2                             5.000000
        s9                             5.000000
      * Repulsion:
        kExp                           1.500000    1.000000
        rExp                           1.000000
      * Coulomb:
        alpha                          2.000000
        third order                    shell-resolved
        anisotropic                    true
        a3                             3.000000
        a5                             4.000000
        cn-shift                       1.200000
        cn-exp                         4.000000
        max-rad                        5.000000


          ...................................................
          :                      SETUP                      :
          :.................................................:
          :  # basis functions                  30          :
          :  # atomic orbitals                  30          :
          :  # shells                           18          :
          :  # electrons                        32          :
          :  max. iterations                   250          :
          :  Hamiltonian                  GFN2-xTB          :
          :  restarted?                      false          :
          :  GBSA solvation                  false          :
          :  PC potential                    false          :
          :  electronic temp.          300.0000000     K    :
          :  accuracy                    1.0000000          :
          :  -> integral cutoff          0.2500000E+02      :
          :  -> integral neglect         0.1000000E-07      :
          :  -> SCF convergence          0.1000000E-05 Eh   :
          :  -> wf. convergence          0.1000000E-03 e    :
          :  Broyden damping             0.4000000          :
          :  net charge                          0          :
          :  unpaired electrons                  0          :
          ...................................................

 iter      E             dE          RMSdq      gap      omega  full diag
   1    -17.6614320 -0.176614E+02  0.348E+00    5.40       0.0  T
   2    -17.7125943 -0.511623E-01  0.245E+00    4.75       1.0  T
   3    -17.7198336 -0.723928E-02  0.142E+00    4.86       1.0  T
   4    -17.7181290  0.170452E-02  0.645E-01    4.70       1.0  T
   5    -17.7211686 -0.303960E-02  0.104E-01    4.74       1.0  T
   6    -17.7211814 -0.127902E-04  0.460E-02    4.74       1.0  T
   7    -17.7211893 -0.792044E-05  0.225E-02    4.73       1.3  T
   8    -17.7211910 -0.160776E-05  0.692E-03    4.74       4.2  T
   9    -17.7211912 -0.291507E-06  0.196E-03    4.73      14.8  T
  10    -17.7211913 -0.370288E-08  0.106E-03    4.73      27.2  T
  11    -17.7211913 -0.718195E-08  0.148E-04    4.73     195.7  T
  12    -17.7211913 -0.245386E-10  0.758E-05    4.73     381.1  T

   *** convergence criteria satisfied after 12 iterations ***

         #    Occupation            Energy/Eh            Energy/eV
      -------------------------------------------------------------
         1        2.0000           -0.6773955             -18.4329
       ...           ...                  ...                  ...
        10        2.0000           -0.4846374             -13.1877
        11        2.0000           -0.4799785             -13.0609
        12        2.0000           -0.4677734             -12.7288
        13        2.0000           -0.4509718             -12.2716
        14        2.0000           -0.4196391             -11.4190
        15        2.0000           -0.3739820             -10.1766
        16        2.0000           -0.3703537             -10.0778 (HOMO)
        17                         -0.1963636              -5.3433 (LUMO)
        18                         -0.1602935              -4.3618
        19                          0.0191814               0.5220
        20                          0.1075589               2.9268
        21                          0.1273345               3.4649
       ...                                ...                  ...
        30                          0.6210303              16.8991
      -------------------------------------------------------------
                  HL-Gap            0.1739900 Eh            4.7345 eV
             Fermi-level           -0.2833586 Eh           -7.7106 eV

 SCC (total)                   0 d,  0 h,  0 min,  5.130 sec
 SCC setup                      ...        0 min,  0.059 sec (  1.148%)
 Dispersion                     ...        0 min,  0.141 sec (  2.740%)
 classical contributions        ...        0 min,  0.031 sec (  0.595%)
 integral evaluation            ...        0 min,  0.258 sec (  5.036%)
 iterations                     ...        0 min,  4.026 sec ( 78.476%)
 molecular gradient             ...        0 min,  0.615 sec ( 11.995%)
 printout                       ...        0 min,  0.000 sec (  0.009%)

         :::::::::::::::::::::::::::::::::::::::::::::::::::::
         ::                     SUMMARY                     ::
         :::::::::::::::::::::::::::::::::::::::::::::::::::::
         :: total energy             -17.469706553652 Eh    ::
         :: gradient norm              0.029180399876 Eh/a0 ::
         :: HOMO-LUMO gap              4.734509919338 eV    ::
         ::.................................................::
         :: SCC energy               -17.721186904325 Eh    ::
         :: -> isotropic ES            0.015344411050 Eh    ::
         :: -> anisotropic ES          0.005254144190 Eh    ::
         :: -> anisotropic XC          0.013523058860 Eh    ::
         :: -> dispersion             -0.007151511865 Eh    ::
         :: repulsion energy           0.251480350673 Eh    ::
         :: add. restraining           0.000000000000 Eh    ::
         :: total charge               0.000000000000 e     ::
         :::::::::::::::::::::::::::::::::::::::::::::::::::::

      ----------------------------------------------------------- 
     |                   =====================                   |
     |                        A N C O P T                        |
     |                   =====================                   |
     |               Approximate Normal Coordinate               |
     |                Rational Function Optimizer                |
      ----------------------------------------------------------- 
      ----------------------------------------------------------- 
     |                   =====================                   |
     |                        A N C O P T                        |
     |                   =====================                   |
     |               Approximate Normal Coordinate               |
     |                Rational Function Optimizer                |
      ----------------------------------------------------------- 

          ...................................................
          :                      SETUP                      :
          :.................................................:
          :   optimization level            normal          :
          :   max. optcycles                   200          :
          :   ANC micro-cycles                  20          :
          :   degrees of freedom                30          :
          :.................................................:
          :   RF solver                   davidson          :
          :   write xtbopt.log                true          :
          :   linear?                        false          :
          :   energy convergence         0.5000000E-05 Eh   :
          :   grad. convergence          0.1000000E-02 Eh/α :
          :   maxmium RF displ.          1.0000000          :
          :   Hlow (freq-cutoff)         0.1000000E-01      :
          :   Hmax (freq-cutoff)         5.0000000          :
          :   S6 in model hess.         20.0000000          :
          ...................................................

generating ANC from exact Hessian ...
Using Lindh-Hessian (1995)
 Shifting diagonal of input Hessian by    0.0000000000000000     
 Lowest  eigenvalues of input Hessian
    0.000000    0.000000    0.000000    0.000000    0.000000    0.000000
    0.010558    0.010674    0.024217    0.025103    0.054878    0.057031
    0.079231    0.080769    0.109214    0.118116    0.133027    0.135164
 Highest eigenvalues
    1.185296    1.541200    1.839324    1.879593    2.026117    2.096660


........................................................................
.............................. CYCLE    1 ..............................
........................................................................

 iter      E             dE          RMSdq      gap      omega  full diag
   1    -17.7211913 -0.177212E+02  0.955E-06    4.73       0.0  T
   2    -17.7211913 -0.959233E-13  0.518E-06    4.73    5569.9  T
   3    -17.7211913 -0.426326E-13  0.353E-06    4.73    8180.5  T
     SCC iter.                  ...        0 min,  0.890 sec
     gradient                   ...        0 min,  0.538 sec
 * total energy  :   -17.4697066 Eh     change       -0.8270717E-11 Eh
   gradient norm :     0.0291807 Eh/α   predicted     0.0000000E+00 (-100.00%)
   displ. norm   :     0.0861506 α      lambda       -0.1360717E-02
   maximum displ.:     0.0515350 α      in ANC's #6, #3, #19, ...

........................................................................
.............................. CYCLE    2 ..............................
........................................................................

 iter      E             dE          RMSdq      gap      omega  full diag
   1    -17.7331817 -0.177332E+02  0.119E-01    4.77       0.0  T
   2    -17.7331880 -0.622789E-05  0.709E-02    4.76       1.0  T
   3    -17.7331824  0.553904E-05  0.381E-02    4.77       1.0  T
   4    -17.7331914 -0.894739E-05  0.611E-03    4.77       4.7  T
   5    -17.7331916 -0.180985E-06  0.254E-03    4.76      11.3  T
   6    -17.7331916 -0.260446E-08  0.104E-03    4.76      27.7  T
   7    -17.7331916 -0.626128E-08  0.143E-04    4.76     201.9  T
   8    -17.7331916 -0.122846E-09  0.700E-05    4.76     412.3  T
     SCC iter.                  ...        0 min,  2.415 sec
     gradient                   ...        0 min,  0.448 sec
 * total energy  :   -17.4705431 Eh     change       -0.8365704E-03 Eh
   gradient norm :     0.0089104 Eh/α   predicted    -0.6854067E-03 ( -18.07%)
   displ. norm   :     0.0391283 α      lambda       -0.1240088E-03
   maximum displ.:     0.0324789 α      in ANC's #3, #6, #19, ...

........................................................................
.............................. CYCLE    3 ..............................
........................................................................

 iter      E             dE          RMSdq      gap      omega  full diag
   1    -17.7363368 -0.177363E+02  0.392E-02    4.78       0.0  T
   2    -17.7363376 -0.856673E-06  0.237E-02    4.78       1.2  T
   3    -17.7363372  0.431629E-06  0.136E-02    4.78       2.1  T
   4    -17.7363382 -0.104158E-05  0.193E-03    4.78      14.9  T
   5    -17.7363382 -0.143297E-07  0.862E-04    4.78      33.5  T
   6    -17.7363382 -0.791935E-09  0.382E-04    4.78      75.7  T
     SCC iter.                  ...        0 min,  1.576 sec
     gradient                   ...        0 min,  0.256 sec
 * total energy  :   -17.4706133 Eh     change       -0.7014780E-04 Eh
   gradient norm :     0.0025761 Eh/α   predicted    -0.6209816E-04 ( -11.48%)
   displ. norm   :     0.0181893 α      lambda       -0.1270870E-04
   maximum displ.:     0.0172176 α      in ANC's #3, #9, #7, ...

........................................................................
.............................. CYCLE    4 ..............................
........................................................................

 iter      E             dE          RMSdq      gap      omega  full diag
   1    -17.7363439 -0.177363E+02  0.124E-02    4.78       0.0  T
   2    -17.7363439 -0.459304E-07  0.702E-03    4.78       4.1  T
   3    -17.7363439  0.643058E-07  0.348E-03    4.78       8.3  T
   4    -17.7363440 -0.945071E-07  0.452E-04    4.78      63.9  T
   5    -17.7363440 -0.635282E-09  0.210E-04    4.78     137.8  T
     SCC iter.                  ...        0 min,  0.864 sec
     gradient                   ...        0 min,  0.256 sec
 * total energy  :   -17.4706223 Eh     change       -0.9000919E-05 Eh
   gradient norm :     0.0013643 Eh/α   predicted    -0.6356435E-05 ( -29.38%)
   displ. norm   :     0.0224837 α      lambda       -0.5934863E-05
   maximum displ.:     0.0208211 α      in ANC's #3, #9, #13, ...

........................................................................
.............................. CYCLE    5 ..............................
........................................................................

 iter      E             dE          RMSdq      gap      omega  full diag
   1    -17.7358862 -0.177359E+02  0.151E-02    4.78       0.0  T
   2    -17.7358863 -0.723581E-07  0.830E-03    4.78       3.5  T
   3    -17.7358862  0.509527E-07  0.329E-03    4.78       8.8  T
   4    -17.7358863 -0.808833E-07  0.450E-04    4.78      64.1  T
   5    -17.7358863 -0.539654E-09  0.236E-04    4.78     122.4  T
     SCC iter.                  ...        0 min,  0.884 sec
     gradient                   ...        0 min,  0.220 sec
 * total energy  :   -17.4706254 Eh     change       -0.3168126E-05 Eh
   gradient norm :     0.0007631 Eh/α   predicted    -0.2966956E-05 (  -6.35%)
   displ. norm   :     0.0059892 α      lambda       -0.7976241E-06
   maximum displ.:     0.0056950 α      in ANC's #3, #6, #11, ...

   *** GEOMETRY OPTIMIZATION CONVERGED AFTER 5 ITERATIONS ***

------------------------------------------------------------------------
 total energy gain   :        -0.0009189 Eh       -0.5766 kcal/mol
 total RMSD          :         0.0426205 a0        0.0226 Å
 total power (kW/mol):        -0.4825076 (step)   -0.2370 (real)
------------------------------------------------------------------------

 ANCopt (total)                0 d,  0 h,  0 min, 10.181 sec
 optimizer setup                ...        0 min,  0.000 sec (  0.001%)
 model hessian                  ...        0 min,  0.001 sec (  0.011%)
 ANC generation                 ...        0 min,  0.107 sec (  1.046%)
 coordinate transformation      ...        0 min,  0.000 sec (  0.001%)
 single point calculation       ...        0 min,  9.945 sec ( 97.689%)
 optimization log               ...        0 min,  0.001 sec (  0.010%)
 hessian update                 ...        0 min,  0.105 sec (  1.033%)
 rational function              ...        0 min,  0.001 sec (  0.006%)

================
 final structure:
================
12
 xtb: 6.7.1 (edcfbbe)
C            1.87965452010722       -0.14746031886805       -0.06307817843080
C            0.39568649897835       -0.18827158781344       -0.06719564960032
N           -0.34268913097931       -1.20754337779090       -0.41180516832100
C           -1.63547850146066       -0.80933481688023       -0.26664633838854
C           -1.68238279058098        0.47859361964992        0.17531552881564
N           -0.37605645260124        0.87100328922400        0.30118331429844
H            2.25658111242738        0.05623211620307        0.93897700534958
H            2.24544729483756        0.62983009299074       -0.73367040107201
H            2.25583891112308       -1.10933345732195       -0.39543516360174
H           -2.44253241124307       -1.47728625086033       -0.49032438094058
H           -2.50048518359587        1.12985270998048        0.40408781486912
H           -0.05358386701244        1.77371798148669        0.60859160702221

 Bond Distances (Angstroems)
 ---------------------------
C1-C2=1.4845         C1-H7=1.0898         C1-H8=1.0898         C1-H9=1.0850         C2-C1=1.4845         C2-N3=1.3049         
C2-N6=1.3614         N3-C2=1.3049         N3-C4=1.3605         C4-N3=1.3605         C4-C5=1.3625         C4-H10=1.0712        
C5-C4=1.3625         C5-N6=1.3698         C5-H11=1.0704        N6-C2=1.3614         N6-C5=1.3698         N6-H12=1.0067        
H7-C1=1.0898         H8-C1=1.0898         H9-C1=1.0850         H10-C4=1.0712        H11-C5=1.0704        H12-N6=1.0067        
 C  H  Rav=1.0812 sigma=0.0087  Rmin=1.0704  Rmax=1.0898     5
 C  C  Rav=1.4235 sigma=0.0610  Rmin=1.3625  Rmax=1.4845     2
 N  H  Rav=1.0067 sigma=0.0000  Rmin=1.0067  Rmax=1.0067     1
 N  C  Rav=1.3492 sigma=0.0258  Rmin=1.3049  Rmax=1.3698     4

 selected bond angles (degree)
 --------------------
H7-C1-C2=110.70                H8-C1-C2=110.70                H8-C1-H7=108.44                H9-C1-C2=108.75                
H9-C1-H7=109.11                H9-C1-H8=109.11                N3-C2-C1=126.00                N6-C2-C1=122.99                
N6-C2-N3=111.01                C4-N3-C2=106.31                C5-C4-N3=110.12                H10-C4-N3=120.74               
H10-C4-C5=129.14               N6-C5-C4=105.53                H11-C5-C4=132.13               H11-C5-N6=122.34               
C5-N6-C2=107.03                H12-N6-C2=126.78               H12-N6-C5=126.19               

 selected dihedral angles (degree)
 ---------------------------------
N3-C2-C1-H7=240.14            N3-C2-C1-H8=119.86            N3-C2-C1-H9=  0.00            N6-C2-C1-H7= 60.14            
N6-C2-C1-H8=299.86            N6-C2-C1-H9=180.00            C4-N3-C2-C1=180.00            C4-N3-C2-N6=  0.00            
C5-C4-N3-C2=  0.00            H10-C4-N3-C2=180.00           N6-C5-C4-N3=  0.00            N6-C5-C4-H10=180.00           
H11-C5-C4-N3=180.00           H11-C5-C4-H10=  0.00          C5-N6-C2-C1=180.00            C5-N6-C2-N3=  0.00            
H12-N6-C2-C1=  0.00           H12-N6-C2-N3=180.00           C2-N6-C5-C4=  0.00            C2-N6-C5-H11=180.00           
H12-N6-C5-C4=180.00           H12-N6-C5-H11=  0.00          
           -------------------------------------------------
          |                Final Singlepoint                |
           -------------------------------------------------

          ...................................................
          :                      SETUP                      :
          :.................................................:
          :  # basis functions                  30          :
          :  # atomic orbitals                  30          :
          :  # shells                           18          :
          :  # electrons                        32          :
          :  max. iterations                   250          :
          :  Hamiltonian                  GFN2-xTB          :
          :  restarted?                      false          :
          :  GBSA solvation                  false          :
          :  PC potential                    false          :
          :  electronic temp.          300.0000000     K    :
          :  accuracy                    1.0000000          :
          :  -> integral cutoff          0.2500000E+02      :
          :  -> integral neglect         0.1000000E-07      :
          :  -> SCF convergence          0.1000000E-05 Eh   :
          :  -> wf. convergence          0.1000000E-03 e    :
          :  Broyden damping             0.4000000          :
          :  net charge                          0          :
          :  unpaired electrons                  0          :
          ...................................................

 iter      E             dE          RMSdq      gap      omega  full diag
   1    -17.7358863 -0.177359E+02  0.105E-04    4.78       0.0  T
   2    -17.7358863 -0.280096E-10  0.665E-05    4.78     434.2  T
   3    -17.7358863 -0.237250E-10  0.352E-05    4.78     820.0  T

   *** convergence criteria satisfied after 3 iterations ***

         #    Occupation            Energy/Eh            Energy/eV
OpenBLAS Warning : Detect OpenMP Loop and this application may hang. Please rebuild the library with USE_OPENMP=1 option.
OpenBLAS Warning : Detect OpenMP Loop and this application may hang. Please rebuild the library with USE_OPENMP=1 option.
OpenBLAS Warning : Detect OpenMP Loop and this application may hang. Please rebuild the library with USE_OPENMP=1 option.
OpenBLAS Warning : Detect OpenMP Loop and this application may hang. Please rebuild the library with USE_OPENMP=1 option.
OpenBLAS Warning : Detect OpenMP Loop and this application may hang. Please rebuild the library with USE_OPENMP=1 option.
OpenBLAS Warning : Detect OpenMP Loop and this application may hang. Please rebuild the library with USE_OPENMP=1 option.
OpenBLAS Warning : Detect OpenMP Loop and this application may hang. Please rebuild the library with USE_OPENMP=1 option.
OpenBLAS Warning : Detect OpenMP Loop and this application may hang. Please rebuild the library with USE_OPENMP=1 option.
OpenBLAS Warning : Detect OpenMP Loop and this application may hang. Please rebuild the library with USE_OPENMP=1 option.
OpenBLAS Warning : Detect OpenMP Loop and this application may hang. Please rebuild the library with USE_OPENMP=1 option.
OpenBLAS Warning : Detect OpenMP Loop and this application may hang. Please rebuild the library with USE_OPENMP=1 option.
OpenBLAS Warning : Detect OpenMP Loop and this application may hang. Please rebuild the library with USE_OPENMP=1 option.
OpenBLAS Warning : Detect OpenMP Loop and this application may hang. Please rebuild the library with USE_OPENMP=1 option.
OpenBLAS Warning : Detect OpenMP Loop and this application may hang. Please rebuild the library with USE_OPENMP=1 option.
OpenBLAS Warning : Detect OpenMP Loop and this application may hang. Please rebuild the library with USE_OPENMP=1 option.
OpenBLAS Warning : Detect OpenMP Loop and this application may hang. Please rebuild the library with USE_OPENMP=1 option.
OpenBLAS Warning : Detect OpenMP Loop and this application may hang. Please rebuild the library with USE_OPENMP=1 option.
OpenBLAS Warning : Detect OpenMP Loop and this application may hang. Please rebuild the library with USE_OPENMP=1 option.
OpenBLAS Warning : Detect OpenMP Loop and this application may hang. Please rebuild the library with USE_OPENMP=1 option.
OpenBLAS Warning : Detect OpenMP Loop and this application may hang. Please rebuild the library with USE_OPENMP=1 option.
OpenBLAS Warning : Detect OpenMP Loop and this application may hang. Please rebuild the library with USE_OPENMP=1 option.
OpenBLAS Warning : Detect OpenMP Loop and this application may hang. Please rebuild the library with USE_OPENMP=1 option.
OpenBLAS Warning : Detect OpenMP Loop and this application may hang. Please rebuild the library with USE_OPENMP=1 option.
OpenBLAS Warning : Detect OpenMP Loop and this application may hang. Please rebuild the library with USE_OPENMP=1 option.
OpenBLAS Warning : Detect OpenMP Loop and this application may hang. Please rebuild the library with USE_OPENMP=1 option.
OpenBLAS Warning : Detect OpenMP Loop and this application may hang. Please rebuild the library with USE_OPENMP=1 option.
OpenBLAS Warning : Detect OpenMP Loop and this application may hang. Please rebuild the library with USE_OPENMP=1 option.
OpenBLAS Warning : Detect OpenMP Loop and this application may hang. Please rebuild the library with USE_OPENMP=1 option.
OpenBLAS Warning : Detect OpenMP Loop and this application may hang. Please rebuild the library with USE_OPENMP=1 option.
OpenBLAS Warning : Detect OpenMP Loop and this application may hang. Please rebuild the library with USE_OPENMP=1 option.
OpenBLAS Warning : Detect OpenMP Loop and this application may hang. Please rebuild the library with USE_OPENMP=1 option.
OpenBLAS Warning : Detect OpenMP Loop and this application may hang. Please rebuild the library with USE_OPENMP=1 option.
OpenBLAS Warning : Detect OpenMP Loop and this application may hang. Please rebuild the library with USE_OPENMP=1 option.
OpenBLAS Warning : Detect OpenMP Loop and this application may hang. Please rebuild the library with USE_OPENMP=1 option.
OpenBLAS Warning : Detect OpenMP Loop and this application may hang. Please rebuild the library with USE_OPENMP=1 option.
OpenBLAS Warning : Detect OpenMP Loop and this application may hang. Please rebuild the library with USE_OPENMP=1 option.
OpenBLAS Warning : Detect OpenMP Loop and this application may hang. Please rebuild the library with USE_OPENMP=1 option.
OpenBLAS Warning : Detect OpenMP Loop and this application may hang. Please rebuild the library with USE_OPENMP=1 option.
OpenBLAS Warning : Detect OpenMP Loop and this application may hang. Please rebuild the library with USE_OPENMP=1 option.
OpenBLAS Warning : Detect OpenMP Loop and this application may hang. Please rebuild the library with USE_OPENMP=1 option.
OpenBLAS Warning : Detect OpenMP Loop and this application may hang. Please rebuild the library with USE_OPENMP=1 option.
OpenBLAS Warning : Detect OpenMP Loop and this application may hang. Please rebuild the library with USE_OPENMP=1 option.
OpenBLAS Warning : Detect OpenMP Loop and this application may hang. Please rebuild the library with USE_OPENMP=1 option.
OpenBLAS Warning : Detect OpenMP Loop and this application may hang. Please rebuild the library with USE_OPENMP=1 option.
OpenBLAS Warning : Detect OpenMP Loop and this application may hang. Please rebuild the library with USE_OPENMP=1 option.
OpenBLAS Warning : Detect OpenMP Loop and this application may hang. Please rebuild the library with USE_OPENMP=1 option.
OpenBLAS Warning : Detect OpenMP Loop and this application may hang. Please rebuild the library with USE_OPENMP=1 option.
OpenBLAS Warning : Detect OpenMP Loop and this application may hang. Please rebuild the library with USE_OPENMP=1 option.
OpenBLAS Warning : Detect OpenMP Loop and this application may hang. Please rebuild the library with USE_OPENMP=1 option.
OpenBLAS Warning : Detect OpenMP Loop and this application may hang. Please rebuild the library with USE_OPENMP=1 option.
OpenBLAS Warning : Detect OpenMP Loop and this application may hang. Please rebuild the library with USE_OPENMP=1 option.
OpenBLAS Warning : Detect OpenMP Loop and this application may hang. Please rebuild the library with USE_OPENMP=1 option.
OpenBLAS Warning : Detect OpenMP Loop and this application may hang. Please rebuild the library with USE_OPENMP=1 option.
OpenBLAS Warning : Detect OpenMP Loop and this application may hang. Please rebuild the library with USE_OPENMP=1 option.
OpenBLAS Warning : Detect OpenMP Loop and this application may hang. Please rebuild the library with USE_OPENMP=1 option.
OpenBLAS Warning : Detect OpenMP Loop and this application may hang. Please rebuild the library with USE_OPENMP=1 option.
OpenBLAS Warning : Detect OpenMP Loop and this application may hang. Please rebuild the library with USE_OPENMP=1 option.
OpenBLAS Warning : Detect OpenMP Loop and this application may hang. Please rebuild the library with USE_OPENMP=1 option.
OpenBLAS Warning : Detect OpenMP Loop and this application may hang. Please rebuild the library with USE_OPENMP=1 option.
OpenBLAS Warning : Detect OpenMP Loop and this application may hang. Please rebuild the library with USE_OPENMP=1 option.
OpenBLAS Warning : Detect OpenMP Loop and this application may hang. Please rebuild the library with USE_OPENMP=1 option.
OpenBLAS Warning : Detect OpenMP Loop and this application may hang. Please rebuild the library with USE_OPENMP=1 option.
OpenBLAS Warning : Detect OpenMP Loop and this application may hang. Please rebuild the library with USE_OPENMP=1 option.
OpenBLAS Warning : Detect OpenMP Loop and this application may hang. Please rebuild the library with USE_OPENMP=1 option.
OpenBLAS Warning : Detect OpenMP Loop and this application may hang. Please rebuild the library with USE_OPENMP=1 option.
OpenBLAS Warning : Detect OpenMP Loop and this application may hang. Please rebuild the library with USE_OPENMP=1 option.
OpenBLAS Warning : Detect OpenMP Loop and this application may hang. Please rebuild the library with USE_OPENMP=1 option.
OpenBLAS Warning : Detect OpenMP Loop and this application may hang. Please rebuild the library with USE_OPENMP=1 option.
OpenBLAS Warning : Detect OpenMP Loop and this application may hang. Please rebuild the library with USE_OPENMP=1 option.
OpenBLAS Warning : Detect OpenMP Loop and this application may hang. Please rebuild the library with USE_OPENMP=1 option.
OpenBLAS Warning : Detect OpenMP Loop and this application may hang. Please rebuild the library with USE_OPENMP=1 option.
OpenBLAS Warning : Detect OpenMP Loop and this application may hang. Please rebuild the library with USE_OPENMP=1 option.
OpenBLAS Warning : Detect OpenMP Loop and this application may hang. Please rebuild the library with USE_OPENMP=1 option.
OpenBLAS Warning : Detect OpenMP Loop and this application may hang. Please rebuild the library with USE_OPENMP=1 option.
OpenBLAS Warning : Detect OpenMP Loop and this application may hang. Please rebuild the library with USE_OPENMP=1 option.
OpenBLAS Warning : Detect OpenMP Loop and this application may hang. Please rebuild the library with USE_OPENMP=1 option.
OpenBLAS Warning : Detect OpenMP Loop and this application may hang. Please rebuild the library with USE_OPENMP=1 option.
OpenBLAS Warning : Detect OpenMP Loop and this application may hang. Please rebuild the library with USE_OPENMP=1 option.
OpenBLAS Warning : Detect OpenMP Loop and this application may hang. Please rebuild the library with USE_OPENMP=1 option.
OpenBLAS Warning : Detect OpenMP Loop and this application may hang. Please rebuild the library with USE_OPENMP=1 option.
OpenBLAS Warning : Detect OpenMP Loop and this application may hang. Please rebuild the library with USE_OPENMP=1 option.
OpenBLAS Warning : Detect OpenMP Loop and this application may hang. Please rebuild the library with USE_OPENMP=1 option.
OpenBLAS Warning : Detect OpenMP Loop and this application may hang. Please rebuild the library with USE_OPENMP=1 option.
OpenBLAS Warning : Detect OpenMP Loop and this application may hang. Please rebuild the library with USE_OPENMP=1 option.
OpenBLAS Warning : Detect OpenMP Loop and this application may hang. Please rebuild the library with USE_OPENMP=1 option.
OpenBLAS Warning : Detect OpenMP Loop and this application may hang. Please rebuild the library with USE_OPENMP=1 option.
OpenBLAS Warning : Detect OpenMP Loop and this application may hang. Please rebuild the library with USE_OPENMP=1 option.
OpenBLAS Warning : Detect OpenMP Loop and this application may hang. Please rebuild the library with USE_OPENMP=1 option.
OpenBLAS Warning : Detect OpenMP Loop and this application may hang. Please rebuild the library with USE_OPENMP=1 option.
OpenBLAS Warning : Detect OpenMP Loop and this application may hang. Please rebuild the library with USE_OPENMP=1 option.
OpenBLAS Warning : Detect OpenMP Loop and this application may hang. Please rebuild the library with USE_OPENMP=1 option.
OpenBLAS Warning : Detect OpenMP Loop and this application may hang. Please rebuild the library with USE_OPENMP=1 option.
OpenBLAS Warning : Detect OpenMP Loop and this application may hang. Please rebuild the library with USE_OPENMP=1 option.
OpenBLAS Warning : Detect OpenMP Loop and this application may hang. Please rebuild the library with USE_OPENMP=1 option.
OpenBLAS Warning : Detect OpenMP Loop and this application may hang. Please rebuild the library with USE_OPENMP=1 option.
OpenBLAS Warning : Detect OpenMP Loop and this application may hang. Please rebuild the library with USE_OPENMP=1 option.
OpenBLAS Warning : Detect OpenMP Loop and this application may hang. Please rebuild the library with USE_OPENMP=1 option.
OpenBLAS Warning : Detect OpenMP Loop and this application may hang. Please rebuild the library with USE_OPENMP=1 option.
OpenBLAS Warning : Detect OpenMP Loop and this application may hang. Please rebuild the library with USE_OPENMP=1 option.
OpenBLAS Warning : Detect OpenMP Loop and this application may hang. Please rebuild the library with USE_OPENMP=1 option.
OpenBLAS Warning : Detect OpenMP Loop and this application may hang. Please rebuild the library with USE_OPENMP=1 option.
OpenBLAS Warning : Detect OpenMP Loop and this application may hang. Please rebuild the library with USE_OPENMP=1 option.
OpenBLAS Warning : Detect OpenMP Loop and this application may hang. Please rebuild the library with USE_OPENMP=1 option.
OpenBLAS Warning : Detect OpenMP Loop and this application may hang. Please rebuild the library with USE_OPENMP=1 option.
OpenBLAS Warning : Detect OpenMP Loop and this application may hang. Please rebuild the library with USE_OPENMP=1 option.
OpenBLAS Warning : Detect OpenMP Loop and this application may hang. Please rebuild the library with USE_OPENMP=1 option.
OpenBLAS Warning : Detect OpenMP Loop and this application may hang. Please rebuild the library with USE_OPENMP=1 option.
OpenBLAS Warning : Detect OpenMP Loop and this application may hang. Please rebuild the library with USE_OPENMP=1 option.
OpenBLAS Warning : Detect OpenMP Loop and this application may hang. Please rebuild the library with USE_OPENMP=1 option.
OpenBLAS Warning : Detect OpenMP Loop and this application may hang. Please rebuild the library with USE_OPENMP=1 option.
OpenBLAS Warning : Detect OpenMP Loop and this application may hang. Please rebuild the library with USE_OPENMP=1 option.
OpenBLAS Warning : Detect OpenMP Loop and this application may hang. Please rebuild the library with USE_OPENMP=1 option.
OpenBLAS Warning : Detect OpenMP Loop and this application may hang. Please rebuild the library with USE_OPENMP=1 option.
OpenBLAS Warning : Detect OpenMP Loop and this application may hang. Please rebuild the library with USE_OPENMP=1 option.
OpenBLAS Warning : Detect OpenMP Loop and this application may hang. Please rebuild the library with USE_OPENMP=1 option.
OpenBLAS Warning : Detect OpenMP Loop and this application may hang. Please rebuild the library with USE_OPENMP=1 option.
OpenBLAS Warning : Detect OpenMP Loop and this application may hang. Please rebuild the library with USE_OPENMP=1 option.
OpenBLAS Warning : Detect OpenMP Loop and this application may hang. Please rebuild the library with USE_OPENMP=1 option.
OpenBLAS Warning : Detect OpenMP Loop and this application may hang. Please rebuild the library with USE_OPENMP=1 option.
OpenBLAS Warning : Detect OpenMP Loop and this application may hang. Please rebuild the library with USE_OPENMP=1 option.
OpenBLAS Warning : Detect OpenMP Loop and this application may hang. Please rebuild the library with USE_OPENMP=1 option.
OpenBLAS Warning : Detect OpenMP Loop and this application may hang. Please rebuild the library with USE_OPENMP=1 option.
OpenBLAS Warning : Detect OpenMP Loop and this application may hang. Please rebuild the library with USE_OPENMP=1 option.
OpenBLAS Warning : Detect OpenMP Loop and this application may hang. Please rebuild the library with USE_OPENMP=1 option.
OpenBLAS Warning : Detect OpenMP Loop and this application may hang. Please rebuild the library with USE_OPENMP=1 option.
OpenBLAS Warning : Detect OpenMP Loop and this application may hang. Please rebuild the library with USE_OPENMP=1 option.
OpenBLAS Warning : Detect OpenMP Loop and this application may hang. Please rebuild the library with USE_OPENMP=1 option.
OpenBLAS Warning : Detect OpenMP Loop and this application may hang. Please rebuild the library with USE_OPENMP=1 option.
OpenBLAS Warning : Detect OpenMP Loop and this application may hang. Please rebuild the library with USE_OPENMP=1 option.
OpenBLAS Warning : Detect OpenMP Loop and this application may hang. Please rebuild the library with USE_OPENMP=1 option.
OpenBLAS Warning : Detect OpenMP Loop and this application may hang. Please rebuild the library with USE_OPENMP=1 option.
OpenBLAS Warning : Detect OpenMP Loop and this application may hang. Please rebuild the library with USE_OPENMP=1 option.
OpenBLAS Warning : Detect OpenMP Loop and this application may hang. Please rebuild the library with USE_OPENMP=1 option.
OpenBLAS Warning : Detect OpenMP Loop and this application may hang. Please rebuild the library with USE_OPENMP=1 option.
OpenBLAS Warning : Detect OpenMP Loop and this application may hang. Please rebuild the library with USE_OPENMP=1 option.
OpenBLAS Warning : Detect OpenMP Loop and this application may hang. Please rebuild the library with USE_OPENMP=1 option.
OpenBLAS Warning : Detect OpenMP Loop and this application may hang. Please rebuild the library with USE_OPENMP=1 option.
OpenBLAS Warning : Detect OpenMP Loop and this application may hang. Please rebuild the library with USE_OPENMP=1 option.
OpenBLAS Warning : Detect OpenMP Loop and this application may hang. Please rebuild the library with USE_OPENMP=1 option.
OpenBLAS Warning : Detect OpenMP Loop and this application may hang. Please rebuild the library with USE_OPENMP=1 option.
OpenBLAS Warning : Detect OpenMP Loop and this application may hang. Please rebuild the library with USE_OPENMP=1 option.
OpenBLAS Warning : Detect OpenMP Loop and this application may hang. Please rebuild the library with USE_OPENMP=1 option.
OpenBLAS Warning : Detect OpenMP Loop and this application may hang. Please rebuild the library with USE_OPENMP=1 option.
OpenBLAS Warning : Detect OpenMP Loop and this application may hang. Please rebuild the library with USE_OPENMP=1 option.
OpenBLAS Warning : Detect OpenMP Loop and this application may hang. Please rebuild the library with USE_OPENMP=1 option.
OpenBLAS Warning : Detect OpenMP Loop and this application may hang. Please rebuild the library with USE_OPENMP=1 option.
OpenBLAS Warning : Detect OpenMP Loop and this application may hang. Please rebuild the library with USE_OPENMP=1 option.
OpenBLAS Warning : Detect OpenMP Loop and this application may hang. Please rebuild the library with USE_OPENMP=1 option.
OpenBLAS Warning : Detect OpenMP Loop and this application may hang. Please rebuild the library with USE_OPENMP=1 option.
OpenBLAS Warning : Detect OpenMP Loop and this application may hang. Please rebuild the library with USE_OPENMP=1 option.
OpenBLAS Warning : Detect OpenMP Loop and this application may hang. Please rebuild the library with USE_OPENMP=1 option.
OpenBLAS Warning : Detect OpenMP Loop and this application may hang. Please rebuild the library with USE_OPENMP=1 option.
OpenBLAS Warning : Detect OpenMP Loop and this application may hang. Please rebuild the library with USE_OPENMP=1 option.
OpenBLAS Warning : Detect OpenMP Loop and this application may hang. Please rebuild the library with USE_OPENMP=1 option.
OpenBLAS Warning : Detect OpenMP Loop and this application may hang. Please rebuild the library with USE_OPENMP=1 option.
OpenBLAS Warning : Detect OpenMP Loop and this application may hang. Please rebuild the library with USE_OPENMP=1 option.
OpenBLAS Warning : Detect OpenMP Loop and this application may hang. Please rebuild the library with USE_OPENMP=1 option.
OpenBLAS Warning : Detect OpenMP Loop and this application may hang. Please rebuild the library with USE_OPENMP=1 option.
OpenBLAS Warning : Detect OpenMP Loop and this application may hang. Please rebuild the library with USE_OPENMP=1 option.
OpenBLAS Warning : Detect OpenMP Loop and this application may hang. Please rebuild the library with USE_OPENMP=1 option.
OpenBLAS Warning : Detect OpenMP Loop and this application may hang. Please rebuild the library with USE_OPENMP=1 option.
OpenBLAS Warning : Detect OpenMP Loop and this application may hang. Please rebuild the library with USE_OPENMP=1 option.
OpenBLAS Warning : Detect OpenMP Loop and this application may hang. Please rebuild the library with USE_OPENMP=1 option.
OpenBLAS Warning : Detect OpenMP Loop and this application may hang. Please rebuild the library with USE_OPENMP=1 option.
OpenBLAS Warning : Detect OpenMP Loop and this application may hang. Please rebuild the library with USE_OPENMP=1 option.
OpenBLAS Warning : Detect OpenMP Loop and this application may hang. Please rebuild the library with USE_OPENMP=1 option.
OpenBLAS Warning : Detect OpenMP Loop and this application may hang. Please rebuild the library with USE_OPENMP=1 option.
OpenBLAS Warning : Detect OpenMP Loop and this application may hang. Please rebuild the library with USE_OPENMP=1 option.
OpenBLAS Warning : Detect OpenMP Loop and this application may hang. Please rebuild the library with USE_OPENMP=1 option.
OpenBLAS Warning : Detect OpenMP Loop and this application may hang. Please rebuild the library with USE_OPENMP=1 option.
OpenBLAS Warning : Detect OpenMP Loop and this application may hang. Please rebuild the library with USE_OPENMP=1 option.
OpenBLAS Warning : Detect OpenMP Loop and this application may hang. Please rebuild the library with USE_OPENMP=1 option.
OpenBLAS Warning : Detect OpenMP Loop and this application may hang. Please rebuild the library with USE_OPENMP=1 option.
OpenBLAS Warning : Detect OpenMP Loop and this application may hang. Please rebuild the library with USE_OPENMP=1 option.
OpenBLAS Warning : Detect OpenMP Loop and this application may hang. Please rebuild the library with USE_OPENMP=1 option.
OpenBLAS Warning : Detect OpenMP Loop and this application may hang. Please rebuild the library with USE_OPENMP=1 option.
OpenBLAS Warning : Detect OpenMP Loop and this application may hang. Please rebuild the library with USE_OPENMP=1 option.
OpenBLAS Warning : Detect OpenMP Loop and this application may hang. Please rebuild the library with USE_OPENMP=1 option.
OpenBLAS Warning : Detect OpenMP Loop and this application may hang. Please rebuild the library with USE_OPENMP=1 option.
OpenBLAS Warning : Detect OpenMP Loop and this application may hang. Please rebuild the library with USE_OPENMP=1 option.
OpenBLAS Warning : Detect OpenMP Loop and this application may hang. Please rebuild the library with USE_OPENMP=1 option.
OpenBLAS Warning : Detect OpenMP Loop and this application may hang. Please rebuild the library with USE_OPENMP=1 option.
OpenBLAS Warning : Detect OpenMP Loop and this application may hang. Please rebuild the library with USE_OPENMP=1 option.
OpenBLAS Warning : Detect OpenMP Loop and this application may hang. Please rebuild the library with USE_OPENMP=1 option.
OpenBLAS Warning : Detect OpenMP Loop and this application may hang. Please rebuild the library with USE_OPENMP=1 option.
OpenBLAS Warning : Detect OpenMP Loop and this application may hang. Please rebuild the library with USE_OPENMP=1 option.
OpenBLAS Warning : Detect OpenMP Loop and this application may hang. Please rebuild the library with USE_OPENMP=1 option.
OpenBLAS Warning : Detect OpenMP Loop and this application may hang. Please rebuild the library with USE_OPENMP=1 option.
OpenBLAS Warning : Detect OpenMP Loop and this application may hang. Please rebuild the library with USE_OPENMP=1 option.
OpenBLAS Warning : Detect OpenMP Loop and this application may hang. Please rebuild the library with USE_OPENMP=1 option.
OpenBLAS Warning : Detect OpenMP Loop and this application may hang. Please rebuild the library with USE_OPENMP=1 option.
OpenBLAS Warning : Detect OpenMP Loop and this application may hang. Please rebuild the library with USE_OPENMP=1 option.
OpenBLAS Warning : Detect OpenMP Loop and this application may hang. Please rebuild the library with USE_OPENMP=1 option.
OpenBLAS Warning : Detect OpenMP Loop and this application may hang. Please rebuild the library with USE_OPENMP=1 option.
OpenBLAS Warning : Detect OpenMP Loop and this application may hang. Please rebuild the library with USE_OPENMP=1 option.
OpenBLAS Warning : Detect OpenMP Loop and this application may hang. Please rebuild the library with USE_OPENMP=1 option.
OpenBLAS Warning : Detect OpenMP Loop and this application may hang. Please rebuild the library with USE_OPENMP=1 option.
OpenBLAS Warning : Detect OpenMP Loop and this application may hang. Please rebuild the library with USE_OPENMP=1 option.
OpenBLAS Warning : Detect OpenMP Loop and this application may hang. Please rebuild the library with USE_OPENMP=1 option.
OpenBLAS Warning : Detect OpenMP Loop and this application may hang. Please rebuild the library with USE_OPENMP=1 option.
OpenBLAS Warning : Detect OpenMP Loop and this application may hang. Please rebuild the library with USE_OPENMP=1 option.
OpenBLAS Warning : Detect OpenMP Loop and this application may hang. Please rebuild the library with USE_OPENMP=1 option.
OpenBLAS Warning : Detect OpenMP Loop and this application may hang. Please rebuild the library with USE_OPENMP=1 option.
OpenBLAS Warning : Detect OpenMP Loop and this application may hang. Please rebuild the library with USE_OPENMP=1 option.
OpenBLAS Warning : Detect OpenMP Loop and this application may hang. Please rebuild the library with USE_OPENMP=1 option.
OpenBLAS Warning : Detect OpenMP Loop and this application may hang. Please rebuild the library with USE_OPENMP=1 option.
OpenBLAS Warning : Detect OpenMP Loop and this application may hang. Please rebuild the library with USE_OPENMP=1 option.
OpenBLAS Warning : Detect OpenMP Loop and this application may hang. Please rebuild the library with USE_OPENMP=1 option.
OpenBLAS Warning : Detect OpenMP Loop and this application may hang. Please rebuild the library with USE_OPENMP=1 option.
OpenBLAS Warning : Detect OpenMP Loop and this application may hang. Please rebuild the library with USE_OPENMP=1 option.
OpenBLAS Warning : Detect OpenMP Loop and this application may hang. Please rebuild the library with USE_OPENMP=1 option.
OpenBLAS Warning : Detect OpenMP Loop and this application may hang. Please rebuild the library with USE_OPENMP=1 option.
OpenBLAS Warning : Detect OpenMP Loop and this application may hang. Please rebuild the library with USE_OPENMP=1 option.
OpenBLAS Warning : Detect OpenMP Loop and this application may hang. Please rebuild the library with USE_OPENMP=1 option.
OpenBLAS Warning : Detect OpenMP Loop and this application may hang. Please rebuild the library with USE_OPENMP=1 option.
OpenBLAS Warning : Detect OpenMP Loop and this application may hang. Please rebuild the library with USE_OPENMP=1 option.
OpenBLAS Warning : Detect OpenMP Loop and this application may hang. Please rebuild the library with USE_OPENMP=1 option.
OpenBLAS Warning : Detect OpenMP Loop and this application may hang. Please rebuild the library with USE_OPENMP=1 option.
OpenBLAS Warning : Detect OpenMP Loop and this application may hang. Please rebuild the library with USE_OPENMP=1 option.
OpenBLAS Warning : Detect OpenMP Loop and this application may hang. Please rebuild the library with USE_OPENMP=1 option.
OpenBLAS Warning : Detect OpenMP Loop and this application may hang. Please rebuild the library with USE_OPENMP=1 option.
OpenBLAS Warning : Detect OpenMP Loop and this application may hang. Please rebuild the library with USE_OPENMP=1 option.
OpenBLAS Warning : Detect OpenMP Loop and this application may hang. Please rebuild the library with USE_OPENMP=1 option.
OpenBLAS Warning : Detect OpenMP Loop and this application may hang. Please rebuild the library with USE_OPENMP=1 option.
OpenBLAS Warning : Detect OpenMP Loop and this application may hang. Please rebuild the library with USE_OPENMP=1 option.
OpenBLAS Warning : Detect OpenMP Loop and this application may hang. Please rebuild the library with USE_OPENMP=1 option.
OpenBLAS Warning : Detect OpenMP Loop and this application may hang. Please rebuild the library with USE_OPENMP=1 option.
OpenBLAS Warning : Detect OpenMP Loop and this application may hang. Please rebuild the library with USE_OPENMP=1 option.
OpenBLAS Warning : Detect OpenMP Loop and this application may hang. Please rebuild the library with USE_OPENMP=1 option.
OpenBLAS Warning : Detect OpenMP Loop and this application may hang. Please rebuild the library with USE_OPENMP=1 option.
OpenBLAS Warning : Detect OpenMP Loop and this application may hang. Please rebuild the library with USE_OPENMP=1 option.
OpenBLAS Warning : Detect OpenMP Loop and this application may hang. Please rebuild the library with USE_OPENMP=1 option.
OpenBLAS Warning : Detect OpenMP Loop and this application may hang. Please rebuild the library with USE_OPENMP=1 option.
OpenBLAS Warning : Detect OpenMP Loop and this application may hang. Please rebuild the library with USE_OPENMP=1 option.
OpenBLAS Warning : Detect OpenMP Loop and this application may hang. Please rebuild the library with USE_OPENMP=1 option.
OpenBLAS Warning : Detect OpenMP Loop and this application may hang. Please rebuild the library with USE_OPENMP=1 option.
OpenBLAS Warning : Detect OpenMP Loop and this application may hang. Please rebuild the library with USE_OPENMP=1 option.
OpenBLAS Warning : Detect OpenMP Loop and this application may hang. Please rebuild the library with USE_OPENMP=1 option.
OpenBLAS Warning : Detect OpenMP Loop and this application may hang. Please rebuild the library with USE_OPENMP=1 option.
OpenBLAS Warning : Detect OpenMP Loop and this application may hang. Please rebuild the library with USE_OPENMP=1 option.
OpenBLAS Warning : Detect OpenMP Loop and this application may hang. Please rebuild the library with USE_OPENMP=1 option.
OpenBLAS Warning : Detect OpenMP Loop and this application may hang. Please rebuild the library with USE_OPENMP=1 option.
OpenBLAS Warning : Detect OpenMP Loop and this application may hang. Please rebuild the library with USE_OPENMP=1 option.
OpenBLAS Warning : Detect OpenMP Loop and this application may hang. Please rebuild the library with USE_OPENMP=1 option.
OpenBLAS Warning : Detect OpenMP Loop and this application may hang. Please rebuild the library with USE_OPENMP=1 option.
OpenBLAS Warning : Detect OpenMP Loop and this application may hang. Please rebuild the library with USE_OPENMP=1 option.
OpenBLAS Warning : Detect OpenMP Loop and this application may hang. Please rebuild the library with USE_OPENMP=1 option.
OpenBLAS Warning : Detect OpenMP Loop and this application may hang. Please rebuild the library with USE_OPENMP=1 option.
OpenBLAS Warning : Detect OpenMP Loop and this application may hang. Please rebuild the library with USE_OPENMP=1 option.
OpenBLAS Warning : Detect OpenMP Loop and this application may hang. Please rebuild the library with USE_OPENMP=1 option.
OpenBLAS Warning : Detect OpenMP Loop and this application may hang. Please rebuild the library with USE_OPENMP=1 option.
OpenBLAS Warning : Detect OpenMP Loop and this application may hang. Please rebuild the library with USE_OPENMP=1 option.
OpenBLAS Warning : Detect OpenMP Loop and this application may hang. Please rebuild the library with USE_OPENMP=1 option.
OpenBLAS Warning : Detect OpenMP Loop and this application may hang. Please rebuild the library with USE_OPENMP=1 option.
OpenBLAS Warning : Detect OpenMP Loop and this application may hang. Please rebuild the library with USE_OPENMP=1 option.
OpenBLAS Warning : Detect OpenMP Loop and this application may hang. Please rebuild the library with USE_OPENMP=1 option.
OpenBLAS Warning : Detect OpenMP Loop and this application may hang. Please rebuild the library with USE_OPENMP=1 option.
OpenBLAS Warning : Detect OpenMP Loop and this application may hang. Please rebuild the library with USE_OPENMP=1 option.
OpenBLAS Warning : Detect OpenMP Loop and this application may hang. Please rebuild the library with USE_OPENMP=1 option.
OpenBLAS Warning : Detect OpenMP Loop and this application may hang. Please rebuild the library with USE_OPENMP=1 option.
OpenBLAS Warning : Detect OpenMP Loop and this application may hang. Please rebuild the library with USE_OPENMP=1 option.
OpenBLAS Warning : Detect OpenMP Loop and this application may hang. Please rebuild the library with USE_OPENMP=1 option.
OpenBLAS Warning : Detect OpenMP Loop and this application may hang. Please rebuild the library with USE_OPENMP=1 option.
OpenBLAS Warning : Detect OpenMP Loop and this application may hang. Please rebuild the library with USE_OPENMP=1 option.
OpenBLAS Warning : Detect OpenMP Loop and this application may hang. Please rebuild the library with USE_OPENMP=1 option.
OpenBLAS Warning : Detect OpenMP Loop and this application may hang. Please rebuild the library with USE_OPENMP=1 option.
OpenBLAS Warning : Detect OpenMP Loop and this application may hang. Please rebuild the library with USE_OPENMP=1 option.
OpenBLAS Warning : Detect OpenMP Loop and this application may hang. Please rebuild the library with USE_OPENMP=1 option.
OpenBLAS Warning : Detect OpenMP Loop and this application may hang. Please rebuild the library with USE_OPENMP=1 option.
OpenBLAS Warning : Detect OpenMP Loop and this application may hang. Please rebuild the library with USE_OPENMP=1 option.
OpenBLAS Warning : Detect OpenMP Loop and this application may hang. Please rebuild the library with USE_OPENMP=1 option.
OpenBLAS Warning : Detect OpenMP Loop and this application may hang. Please rebuild the library with USE_OPENMP=1 option.
OpenBLAS Warning : Detect OpenMP Loop and this application may hang. Please rebuild the library with USE_OPENMP=1 option.
OpenBLAS Warning : Detect OpenMP Loop and this application may hang. Please rebuild the library with USE_OPENMP=1 option.
OpenBLAS Warning : Detect OpenMP Loop and this application may hang. Please rebuild the library with USE_OPENMP=1 option.
OpenBLAS Warning : Detect OpenMP Loop and this application may hang. Please rebuild the library with USE_OPENMP=1 option.
OpenBLAS Warning : Detect OpenMP Loop and this application may hang. Please rebuild the library with USE_OPENMP=1 option.
OpenBLAS Warning : Detect OpenMP Loop and this application may hang. Please rebuild the library with USE_OPENMP=1 option.
OpenBLAS Warning : Detect OpenMP Loop and this application may hang. Please rebuild the library with USE_OPENMP=1 option.
OpenBLAS Warning : Detect OpenMP Loop and this application may hang. Please rebuild the library with USE_OPENMP=1 option.
OpenBLAS Warning : Detect OpenMP Loop and this application may hang. Please rebuild the library with USE_OPENMP=1 option.
OpenBLAS Warning : Detect OpenMP Loop and this application may hang. Please rebuild the library with USE_OPENMP=1 option.
OpenBLAS Warning : Detect OpenMP Loop and this application may hang. Please rebuild the library with USE_OPENMP=1 option.
OpenBLAS Warning : Detect OpenMP Loop and this application may hang. Please rebuild the library with USE_OPENMP=1 option.
OpenBLAS Warning : Detect OpenMP Loop and this application may hang. Please rebuild the library with USE_OPENMP=1 option.
OpenBLAS Warning : Detect OpenMP Loop and this application may hang. Please rebuild the library with USE_OPENMP=1 option.
OpenBLAS Warning : Detect OpenMP Loop and this application may hang. Please rebuild the library with USE_OPENMP=1 option.
OpenBLAS Warning : Detect OpenMP Loop and this application may hang. Please rebuild the library with USE_OPENMP=1 option.
OpenBLAS Warning : Detect OpenMP Loop and this application may hang. Please rebuild the library with USE_OPENMP=1 option.
OpenBLAS Warning : Detect OpenMP Loop and this application may hang. Please rebuild the library with USE_OPENMP=1 option.
OpenBLAS Warning : Detect OpenMP Loop and this application may hang. Please rebuild the library with USE_OPENMP=1 option.
OpenBLAS Warning : Detect OpenMP Loop and this application may hang. Please rebuild the library with USE_OPENMP=1 option.
OpenBLAS Warning : Detect OpenMP Loop and this application may hang. Please rebuild the library with USE_OPENMP=1 option.
OpenBLAS Warning : Detect OpenMP Loop and this application may hang. Please rebuild the library with USE_OPENMP=1 option.
OpenBLAS Warning : Detect OpenMP Loop and this application may hang. Please rebuild the library with USE_OPENMP=1 option.
OpenBLAS Warning : Detect OpenMP Loop and this application may hang. Please rebuild the library with USE_OPENMP=1 option.
OpenBLAS Warning : Detect OpenMP Loop and this application may hang. Please rebuild the library with USE_OPENMP=1 option.
OpenBLAS Warning : Detect OpenMP Loop and this application may hang. Please rebuild the library with USE_OPENMP=1 option.
OpenBLAS Warning : Detect OpenMP Loop and this application may hang. Please rebuild the library with USE_OPENMP=1 option.
OpenBLAS Warning : Detect OpenMP Loop and this application may hang. Please rebuild the library with USE_OPENMP=1 option.
OpenBLAS Warning : Detect OpenMP Loop and this application may hang. Please rebuild the library with USE_OPENMP=1 option.
OpenBLAS Warning : Detect OpenMP Loop and this application may hang. Please rebuild the library with USE_OPENMP=1 option.
OpenBLAS Warning : Detect OpenMP Loop and this application may hang. Please rebuild the library with USE_OPENMP=1 option.
OpenBLAS Warning : Detect OpenMP Loop and this application may hang. Please rebuild the library with USE_OPENMP=1 option.
OpenBLAS Warning : Detect OpenMP Loop and this application may hang. Please rebuild the library with USE_OPENMP=1 option.
OpenBLAS Warning : Detect OpenMP Loop and this application may hang. Please rebuild the library with USE_OPENMP=1 option.
OpenBLAS Warning : Detect OpenMP Loop and this application may hang. Please rebuild the library with USE_OPENMP=1 option.
OpenBLAS Warning : Detect OpenMP Loop and this application may hang. Please rebuild the library with USE_OPENMP=1 option.
OpenBLAS Warning : Detect OpenMP Loop and this application may hang. Please rebuild the library with USE_OPENMP=1 option.
OpenBLAS Warning : Detect OpenMP Loop and this application may hang. Please rebuild the library with USE_OPENMP=1 option.
OpenBLAS Warning : Detect OpenMP Loop and this application may hang. Please rebuild the library with USE_OPENMP=1 option.
OpenBLAS Warning : Detect OpenMP Loop and this application may hang. Please rebuild the library with USE_OPENMP=1 option.
OpenBLAS Warning : Detect OpenMP Loop and this application may hang. Please rebuild the library with USE_OPENMP=1 option.
OpenBLAS Warning : Detect OpenMP Loop and this application may hang. Please rebuild the library with USE_OPENMP=1 option.
OpenBLAS Warning : Detect OpenMP Loop and this application may hang. Please rebuild the library with USE_OPENMP=1 option.
OpenBLAS Warning : Detect OpenMP Loop and this application may hang. Please rebuild the library with USE_OPENMP=1 option.
OpenBLAS Warning : Detect OpenMP Loop and this application may hang. Please rebuild the library with USE_OPENMP=1 option.
OpenBLAS Warning : Detect OpenMP Loop and this application may hang. Please rebuild the library with USE_OPENMP=1 option.
OpenBLAS Warning : Detect OpenMP Loop and this application may hang. Please rebuild the library with USE_OPENMP=1 option.
OpenBLAS Warning : Detect OpenMP Loop and this application may hang. Please rebuild the library with USE_OPENMP=1 option.
OpenBLAS Warning : Detect OpenMP Loop and this application may hang. Please rebuild the library with USE_OPENMP=1 option.
OpenBLAS Warning : Detect OpenMP Loop and this application may hang. Please rebuild the library with USE_OPENMP=1 option.
OpenBLAS Warning : Detect OpenMP Loop and this application may hang. Please rebuild the library with USE_OPENMP=1 option.
OpenBLAS Warning : Detect OpenMP Loop and this application may hang. Please rebuild the library with USE_OPENMP=1 option.
OpenBLAS Warning : Detect OpenMP Loop and this application may hang. Please rebuild the library with USE_OPENMP=1 option.
OpenBLAS Warning : Detect OpenMP Loop and this application may hang. Please rebuild the library with USE_OPENMP=1 option.
OpenBLAS Warning : Detect OpenMP Loop and this application may hang. Please rebuild the library with USE_OPENMP=1 option.
OpenBLAS Warning : Detect OpenMP Loop and this application may hang. Please rebuild the library with USE_OPENMP=1 option.
OpenBLAS Warning : Detect OpenMP Loop and this application may hang. Please rebuild the library with USE_OPENMP=1 option.
OpenBLAS Warning : Detect OpenMP Loop and this application may hang. Please rebuild the library with USE_OPENMP=1 option.
OpenBLAS Warning : Detect OpenMP Loop and this application may hang. Please rebuild the library with USE_OPENMP=1 option.
OpenBLAS Warning : Detect OpenMP Loop and this application may hang. Please rebuild the library with USE_OPENMP=1 option.
OpenBLAS Warning : Detect OpenMP Loop and this application may hang. Please rebuild the library with USE_OPENMP=1 option.
OpenBLAS Warning : Detect OpenMP Loop and this application may hang. Please rebuild the library with USE_OPENMP=1 option.
OpenBLAS Warning : Detect OpenMP Loop and this application may hang. Please rebuild the library with USE_OPENMP=1 option.
OpenBLAS Warning : Detect OpenMP Loop and this application may hang. Please rebuild the library with USE_OPENMP=1 option.
OpenBLAS Warning : Detect OpenMP Loop and this application may hang. Please rebuild the library with USE_OPENMP=1 option.
OpenBLAS Warning : Detect OpenMP Loop and this application may hang. Please rebuild the library with USE_OPENMP=1 option.
OpenBLAS Warning : Detect OpenMP Loop and this application may hang. Please rebuild the library with USE_OPENMP=1 option.
OpenBLAS Warning : Detect OpenMP Loop and this application may hang. Please rebuild the library with USE_OPENMP=1 option.
OpenBLAS Warning : Detect OpenMP Loop and this application may hang. Please rebuild the library with USE_OPENMP=1 option.
OpenBLAS Warning : Detect OpenMP Loop and this application may hang. Please rebuild the library with USE_OPENMP=1 option.
OpenBLAS Warning : Detect OpenMP Loop and this application may hang. Please rebuild the library with USE_OPENMP=1 option.
OpenBLAS Warning : Detect OpenMP Loop and this application may hang. Please rebuild the library with USE_OPENMP=1 option.
OpenBLAS Warning : Detect OpenMP Loop and this application may hang. Please rebuild the library with USE_OPENMP=1 option.
OpenBLAS Warning : Detect OpenMP Loop and this application may hang. Please rebuild the library with USE_OPENMP=1 option.
OpenBLAS Warning : Detect OpenMP Loop and this application may hang. Please rebuild the library with USE_OPENMP=1 option.
OpenBLAS Warning : Detect OpenMP Loop and this application may hang. Please rebuild the library with USE_OPENMP=1 option.
OpenBLAS Warning : Detect OpenMP Loop and this application may hang. Please rebuild the library with USE_OPENMP=1 option.
OpenBLAS Warning : Detect OpenMP Loop and this application may hang. Please rebuild the library with USE_OPENMP=1 option.
OpenBLAS Warning : Detect OpenMP Loop and this application may hang. Please rebuild the library with USE_OPENMP=1 option.
OpenBLAS Warning : Detect OpenMP Loop and this application may hang. Please rebuild the library with USE_OPENMP=1 option.
OpenBLAS Warning : Detect OpenMP Loop and this application may hang. Please rebuild the library with USE_OPENMP=1 option.
OpenBLAS Warning : Detect OpenMP Loop and this application may hang. Please rebuild the library with USE_OPENMP=1 option.
OpenBLAS Warning : Detect OpenMP Loop and this application may hang. Please rebuild the library with USE_OPENMP=1 option.
OpenBLAS Warning : Detect OpenMP Loop and this application may hang. Please rebuild the library with USE_OPENMP=1 option.
OpenBLAS Warning : Detect OpenMP Loop and this application may hang. Please rebuild the library with USE_OPENMP=1 option.
OpenBLAS Warning : Detect OpenMP Loop and this application may hang. Please rebuild the library with USE_OPENMP=1 option.
OpenBLAS Warning : Detect OpenMP Loop and this application may hang. Please rebuild the library with USE_OPENMP=1 option.
OpenBLAS Warning : Detect OpenMP Loop and this application may hang. Please rebuild the library with USE_OPENMP=1 option.
OpenBLAS Warning : Detect OpenMP Loop and this application may hang. Please rebuild the library with USE_OPENMP=1 option.
OpenBLAS Warning : Detect OpenMP Loop and this application may hang. Please rebuild the library with USE_OPENMP=1 option.
OpenBLAS Warning : Detect OpenMP Loop and this application may hang. Please rebuild the library with USE_OPENMP=1 option.
OpenBLAS Warning : Detect OpenMP Loop and this application may hang. Please rebuild the library with USE_OPENMP=1 option.
OpenBLAS Warning : Detect OpenMP Loop and this application may hang. Please rebuild the library with USE_OPENMP=1 option.
OpenBLAS Warning : Detect OpenMP Loop and this application may hang. Please rebuild the library with USE_OPENMP=1 option.
OpenBLAS Warning : Detect OpenMP Loop and this application may hang. Please rebuild the library with USE_OPENMP=1 option.
OpenBLAS Warning : Detect OpenMP Loop and this application may hang. Please rebuild the library with USE_OPENMP=1 option.
OpenBLAS Warning : Detect OpenMP Loop and this application may hang. Please rebuild the library with USE_OPENMP=1 option.
OpenBLAS Warning : Detect OpenMP Loop and this application may hang. Please rebuild the library with USE_OPENMP=1 option.
OpenBLAS Warning : Detect OpenMP Loop and this application may hang. Please rebuild the library with USE_OPENMP=1 option.
OpenBLAS Warning : Detect OpenMP Loop and this application may hang. Please rebuild the library with USE_OPENMP=1 option.
OpenBLAS Warning : Detect OpenMP Loop and this application may hang. Please rebuild the library with USE_OPENMP=1 option.
OpenBLAS Warning : Detect OpenMP Loop and this application may hang. Please rebuild the library with USE_OPENMP=1 option.
OpenBLAS Warning : Detect OpenMP Loop and this application may hang. Please rebuild the library with USE_OPENMP=1 option.
OpenBLAS Warning : Detect OpenMP Loop and this application may hang. Please rebuild the library with USE_OPENMP=1 option.
OpenBLAS Warning : Detect OpenMP Loop and this application may hang. Please rebuild the library with USE_OPENMP=1 option.
OpenBLAS Warning : Detect OpenMP Loop and this application may hang. Please rebuild the library with USE_OPENMP=1 option.
OpenBLAS Warning : Detect OpenMP Loop and this application may hang. Please rebuild the library with USE_OPENMP=1 option.
OpenBLAS Warning : Detect OpenMP Loop and this application may hang. Please rebuild the library with USE_OPENMP=1 option.
OpenBLAS Warning : Detect OpenMP Loop and this application may hang. Please rebuild the library with USE_OPENMP=1 option.
OpenBLAS Warning : Detect OpenMP Loop and this application may hang. Please rebuild the library with USE_OPENMP=1 option.
OpenBLAS Warning : Detect OpenMP Loop and this application may hang. Please rebuild the library with USE_OPENMP=1 option.
OpenBLAS Warning : Detect OpenMP Loop and this application may hang. Please rebuild the library with USE_OPENMP=1 option.
OpenBLAS Warning : Detect OpenMP Loop and this application may hang. Please rebuild the library with USE_OPENMP=1 option.
OpenBLAS Warning : Detect OpenMP Loop and this application may hang. Please rebuild the library with USE_OPENMP=1 option.
OpenBLAS Warning : Detect OpenMP Loop and this application may hang. Please rebuild the library with USE_OPENMP=1 option.
OpenBLAS Warning : Detect OpenMP Loop and this application may hang. Please rebuild the library with USE_OPENMP=1 option.
OpenBLAS Warning : Detect OpenMP Loop and this application may hang. Please rebuild the library with USE_OPENMP=1 option.
OpenBLAS Warning : Detect OpenMP Loop and this application may hang. Please rebuild the library with USE_OPENMP=1 option.
OpenBLAS Warning : Detect OpenMP Loop and this application may hang. Please rebuild the library with USE_OPENMP=1 option.
OpenBLAS Warning : Detect OpenMP Loop and this application may hang. Please rebuild the library with USE_OPENMP=1 option.
OpenBLAS Warning : Detect OpenMP Loop and this application may hang. Please rebuild the library with USE_OPENMP=1 option.
OpenBLAS Warning : Detect OpenMP Loop and this application may hang. Please rebuild the library with USE_OPENMP=1 option.
OpenBLAS Warning : Detect OpenMP Loop and this application may hang. Please rebuild the library with USE_OPENMP=1 option.
OpenBLAS Warning : Detect OpenMP Loop and this application may hang. Please rebuild the library with USE_OPENMP=1 option.
OpenBLAS Warning : Detect OpenMP Loop and this application may hang. Please rebuild the library with USE_OPENMP=1 option.
OpenBLAS Warning : Detect OpenMP Loop and this application may hang. Please rebuild the library with USE_OPENMP=1 option.
OpenBLAS Warning : Detect OpenMP Loop and this application may hang. Please rebuild the library with USE_OPENMP=1 option.
OpenBLAS Warning : Detect OpenMP Loop and this application may hang. Please rebuild the library with USE_OPENMP=1 option.
OpenBLAS Warning : Detect OpenMP Loop and this application may hang. Please rebuild the library with USE_OPENMP=1 option.
OpenBLAS Warning : Detect OpenMP Loop and this application may hang. Please rebuild the library with USE_OPENMP=1 option.
OpenBLAS Warning : Detect OpenMP Loop and this application may hang. Please rebuild the library with USE_OPENMP=1 option.
OpenBLAS Warning : Detect OpenMP Loop and this application may hang. Please rebuild the library with USE_OPENMP=1 option.
OpenBLAS Warning : Detect OpenMP Loop and this application may hang. Please rebuild the library with USE_OPENMP=1 option.
OpenBLAS Warning : Detect OpenMP Loop and this application may hang. Please rebuild the library with USE_OPENMP=1 option.
OpenBLAS Warning : Detect OpenMP Loop and this application may hang. Please rebuild the library with USE_OPENMP=1 option.
OpenBLAS Warning : Detect OpenMP Loop and this application may hang. Please rebuild the library with USE_OPENMP=1 option.
OpenBLAS Warning : Detect OpenMP Loop and this application may hang. Please rebuild the library with USE_OPENMP=1 option.
OpenBLAS Warning : Detect OpenMP Loop and this application may hang. Please rebuild the library with USE_OPENMP=1 option.
OpenBLAS Warning : Detect OpenMP Loop and this application may hang. Please rebuild the library with USE_OPENMP=1 option.
OpenBLAS Warning : Detect OpenMP Loop and this application may hang. Please rebuild the library with USE_OPENMP=1 option.
OpenBLAS Warning : Detect OpenMP Loop and this application may hang. Please rebuild the library with USE_OPENMP=1 option.
OpenBLAS Warning : Detect OpenMP Loop and this application may hang. Please rebuild the library with USE_OPENMP=1 option.
OpenBLAS Warning : Detect OpenMP Loop and this application may hang. Please rebuild the library with USE_OPENMP=1 option.
OpenBLAS Warning : Detect OpenMP Loop and this application may hang. Please rebuild the library with USE_OPENMP=1 option.
OpenBLAS Warning : Detect OpenMP Loop and this application may hang. Please rebuild the library with USE_OPENMP=1 option.
OpenBLAS Warning : Detect OpenMP Loop and this application may hang. Please rebuild the library with USE_OPENMP=1 option.
OpenBLAS Warning : Detect OpenMP Loop and this application may hang. Please rebuild the library with USE_OPENMP=1 option.
OpenBLAS Warning : Detect OpenMP Loop and this application may hang. Please rebuild the library with USE_OPENMP=1 option.
OpenBLAS Warning : Detect OpenMP Loop and this application may hang. Please rebuild the library with USE_OPENMP=1 option.
OpenBLAS Warning : Detect OpenMP Loop and this application may hang. Please rebuild the library with USE_OPENMP=1 option.
OpenBLAS Warning : Detect OpenMP Loop and this application may hang. Please rebuild the library with USE_OPENMP=1 option.
OpenBLAS Warning : Detect OpenMP Loop and this application may hang. Please rebuild the library with USE_OPENMP=1 option.
OpenBLAS Warning : Detect OpenMP Loop and this application may hang. Please rebuild the library with USE_OPENMP=1 option.
OpenBLAS Warning : Detect OpenMP Loop and this application may hang. Please rebuild the library with USE_OPENMP=1 option.
OpenBLAS Warning : Detect OpenMP Loop and this application may hang. Please rebuild the library with USE_OPENMP=1 option.
OpenBLAS Warning : Detect OpenMP Loop and this application may hang. Please rebuild the library with USE_OPENMP=1 option.
OpenBLAS Warning : Detect OpenMP Loop and this application may hang. Please rebuild the library with USE_OPENMP=1 option.
OpenBLAS Warning : Detect OpenMP Loop and this application may hang. Please rebuild the library with USE_OPENMP=1 option.
OpenBLAS Warning : Detect OpenMP Loop and this application may hang. Please rebuild the library with USE_OPENMP=1 option.
OpenBLAS Warning : Detect OpenMP Loop and this application may hang. Please rebuild the library with USE_OPENMP=1 option.
OpenBLAS Warning : Detect OpenMP Loop and this application may hang. Please rebuild the library with USE_OPENMP=1 option.
OpenBLAS Warning : Detect OpenMP Loop and this application may hang. Please rebuild the library with USE_OPENMP=1 option.
OpenBLAS Warning : Detect OpenMP Loop and this application may hang. Please rebuild the library with USE_OPENMP=1 option.
OpenBLAS Warning : Detect OpenMP Loop and this application may hang. Please rebuild the library with USE_OPENMP=1 option.
OpenBLAS Warning : Detect OpenMP Loop and this application may hang. Please rebuild the library with USE_OPENMP=1 option.
OpenBLAS Warning : Detect OpenMP Loop and this application may hang. Please rebuild the library with USE_OPENMP=1 option.
OpenBLAS Warning : Detect OpenMP Loop and this application may hang. Please rebuild the library with USE_OPENMP=1 option.
OpenBLAS Warning : Detect OpenMP Loop and this application may hang. Please rebuild the library with USE_OPENMP=1 option.
OpenBLAS Warning : Detect OpenMP Loop and this application may hang. Please rebuild the library with USE_OPENMP=1 option.
OpenBLAS Warning : Detect OpenMP Loop and this application may hang. Please rebuild the library with USE_OPENMP=1 option.
OpenBLAS Warning : Detect OpenMP Loop and this application may hang. Please rebuild the library with USE_OPENMP=1 option.
OpenBLAS Warning : Detect OpenMP Loop and this application may hang. Please rebuild the library with USE_OPENMP=1 option.
OpenBLAS Warning : Detect OpenMP Loop and this application may hang. Please rebuild the library with USE_OPENMP=1 option.
OpenBLAS Warning : Detect OpenMP Loop and this application may hang. Please rebuild the library with USE_OPENMP=1 option.
OpenBLAS Warning : Detect OpenMP Loop and this application may hang. Please rebuild the library with USE_OPENMP=1 option.
OpenBLAS Warning : Detect OpenMP Loop and this application may hang. Please rebuild the library with USE_OPENMP=1 option.
OpenBLAS Warning : Detect OpenMP Loop and this application may hang. Please rebuild the library with USE_OPENMP=1 option.
OpenBLAS Warning : Detect OpenMP Loop and this application may hang. Please rebuild the library with USE_OPENMP=1 option.
OpenBLAS Warning : Detect OpenMP Loop and this application may hang. Please rebuild the library with USE_OPENMP=1 option.
OpenBLAS Warning : Detect OpenMP Loop and this application may hang. Please rebuild the library with USE_OPENMP=1 option.
OpenBLAS Warning : Detect OpenMP Loop and this application may hang. Please rebuild the library with USE_OPENMP=1 option.
OpenBLAS Warning : Detect OpenMP Loop and this application may hang. Please rebuild the library with USE_OPENMP=1 option.
OpenBLAS Warning : Detect OpenMP Loop and this application may hang. Please rebuild the library with USE_OPENMP=1 option.
OpenBLAS Warning : Detect OpenMP Loop and this application may hang. Please rebuild the library with USE_OPENMP=1 option.
OpenBLAS Warning : Detect OpenMP Loop and this application may hang. Please rebuild the library with USE_OPENMP=1 option.
OpenBLAS Warning : Detect OpenMP Loop and this application may hang. Please rebuild the library with USE_OPENMP=1 option.
OpenBLAS Warning : Detect OpenMP Loop and this application may hang. Please rebuild the library with USE_OPENMP=1 option.
OpenBLAS Warning : Detect OpenMP Loop and this application may hang. Please rebuild the library with USE_OPENMP=1 option.
OpenBLAS Warning : Detect OpenMP Loop and this application may hang. Please rebuild the library with USE_OPENMP=1 option.
OpenBLAS Warning : Detect OpenMP Loop and this application may hang. Please rebuild the library with USE_OPENMP=1 option.
OpenBLAS Warning : Detect OpenMP Loop and this application may hang. Please rebuild the library with USE_OPENMP=1 option.
OpenBLAS Warning : Detect OpenMP Loop and this application may hang. Please rebuild the library with USE_OPENMP=1 option.
OpenBLAS Warning : Detect OpenMP Loop and this application may hang. Please rebuild the library with USE_OPENMP=1 option.
OpenBLAS Warning : Detect OpenMP Loop and this application may hang. Please rebuild the library with USE_OPENMP=1 option.
OpenBLAS Warning : Detect OpenMP Loop and this application may hang. Please rebuild the library with USE_OPENMP=1 option.
OpenBLAS Warning : Detect OpenMP Loop and this application may hang. Please rebuild the library with USE_OPENMP=1 option.
OpenBLAS Warning : Detect OpenMP Loop and this application may hang. Please rebuild the library with USE_OPENMP=1 option.
OpenBLAS Warning : Detect OpenMP Loop and this application may hang. Please rebuild the library with USE_OPENMP=1 option.
OpenBLAS Warning : Detect OpenMP Loop and this application may hang. Please rebuild the library with USE_OPENMP=1 option.
OpenBLAS Warning : Detect OpenMP Loop and this application may hang. Please rebuild the library with USE_OPENMP=1 option.
OpenBLAS Warning : Detect OpenMP Loop and this application may hang. Please rebuild the library with USE_OPENMP=1 option.
OpenBLAS Warning : Detect OpenMP Loop and this application may hang. Please rebuild the library with USE_OPENMP=1 option.
OpenBLAS Warning : Detect OpenMP Loop and this application may hang. Please rebuild the library with USE_OPENMP=1 option.
OpenBLAS Warning : Detect OpenMP Loop and this application may hang. Please rebuild the library with USE_OPENMP=1 option.
OpenBLAS Warning : Detect OpenMP Loop and this application may hang. Please rebuild the library with USE_OPENMP=1 option.
OpenBLAS Warning : Detect OpenMP Loop and this application may hang. Please rebuild the library with USE_OPENMP=1 option.
OpenBLAS Warning : Detect OpenMP Loop and this application may hang. Please rebuild the library with USE_OPENMP=1 option.
OpenBLAS Warning : Detect OpenMP Loop and this application may hang. Please rebuild the library with USE_OPENMP=1 option.
OpenBLAS Warning : Detect OpenMP Loop and this application may hang. Please rebuild the library with USE_OPENMP=1 option.
OpenBLAS Warning : Detect OpenMP Loop and this application may hang. Please rebuild the library with USE_OPENMP=1 option.
OpenBLAS Warning : Detect OpenMP Loop and this application may hang. Please rebuild the library with USE_OPENMP=1 option.
OpenBLAS Warning : Detect OpenMP Loop and this application may hang. Please rebuild the library with USE_OPENMP=1 option.
OpenBLAS Warning : Detect OpenMP Loop and this application may hang. Please rebuild the library with USE_OPENMP=1 option.
OpenBLAS Warning : Detect OpenMP Loop and this application may hang. Please rebuild the library with USE_OPENMP=1 option.
OpenBLAS Warning : Detect OpenMP Loop and this application may hang. Please rebuild the library with USE_OPENMP=1 option.
OpenBLAS Warning : Detect OpenMP Loop and this application may hang. Please rebuild the library with USE_OPENMP=1 option.
OpenBLAS Warning : Detect OpenMP Loop and this application may hang. Please rebuild the library with USE_OPENMP=1 option.
OpenBLAS Warning : Detect OpenMP Loop and this application may hang. Please rebuild the library with USE_OPENMP=1 option.
OpenBLAS Warning : Detect OpenMP Loop and this application may hang. Please rebuild the library with USE_OPENMP=1 option.
OpenBLAS Warning : Detect OpenMP Loop and this application may hang. Please rebuild the library with USE_OPENMP=1 option.
OpenBLAS Warning : Detect OpenMP Loop and this application may hang. Please rebuild the library with USE_OPENMP=1 option.
OpenBLAS Warning : Detect OpenMP Loop and this application may hang. Please rebuild the library with USE_OPENMP=1 option.
OpenBLAS Warning : Detect OpenMP Loop and this application may hang. Please rebuild the library with USE_OPENMP=1 option.
OpenBLAS Warning : Detect OpenMP Loop and this application may hang. Please rebuild the library with USE_OPENMP=1 option.
OpenBLAS Warning : Detect OpenMP Loop and this application may hang. Please rebuild the library with USE_OPENMP=1 option.
OpenBLAS Warning : Detect OpenMP Loop and this application may hang. Please rebuild the library with USE_OPENMP=1 option.
OpenBLAS Warning : Detect OpenMP Loop and this application may hang. Please rebuild the library with USE_OPENMP=1 option.
OpenBLAS Warning : Detect OpenMP Loop and this application may hang. Please rebuild the library with USE_OPENMP=1 option.
OpenBLAS Warning : Detect OpenMP Loop and this application may hang. Please rebuild the library with USE_OPENMP=1 option.
OpenBLAS Warning : Detect OpenMP Loop and this application may hang. Please rebuild the library with USE_OPENMP=1 option.
OpenBLAS Warning : Detect OpenMP Loop and this application may hang. Please rebuild the library with USE_OPENMP=1 option.
OpenBLAS Warning : Detect OpenMP Loop and this application may hang. Please rebuild the library with USE_OPENMP=1 option.
OpenBLAS Warning : Detect OpenMP Loop and this application may hang. Please rebuild the library with USE_OPENMP=1 option.
OpenBLAS Warning : Detect OpenMP Loop and this application may hang. Please rebuild the library with USE_OPENMP=1 option.
OpenBLAS Warning : Detect OpenMP Loop and this application may hang. Please rebuild the library with USE_OPENMP=1 option.
OpenBLAS Warning : Detect OpenMP Loop and this application may hang. Please rebuild the library with USE_OPENMP=1 option.
OpenBLAS Warning : Detect OpenMP Loop and this application may hang. Please rebuild the library with USE_OPENMP=1 option.
OpenBLAS Warning : Detect OpenMP Loop and this application may hang. Please rebuild the library with USE_OPENMP=1 option.
OpenBLAS Warning : Detect OpenMP Loop and this application may hang. Please rebuild the library with USE_OPENMP=1 option.
OpenBLAS Warning : Detect OpenMP Loop and this application may hang. Please rebuild the library with USE_OPENMP=1 option.
OpenBLAS Warning : Detect OpenMP Loop and this application may hang. Please rebuild the library with USE_OPENMP=1 option.
OpenBLAS Warning : Detect OpenMP Loop and this application may hang. Please rebuild the library with USE_OPENMP=1 option.
OpenBLAS Warning : Detect OpenMP Loop and this application may hang. Please rebuild the library with USE_OPENMP=1 option.
OpenBLAS Warning : Detect OpenMP Loop and this application may hang. Please rebuild the library with USE_OPENMP=1 option.
OpenBLAS Warning : Detect OpenMP Loop and this application may hang. Please rebuild the library with USE_OPENMP=1 option.
OpenBLAS Warning : Detect OpenMP Loop and this application may hang. Please rebuild the library with USE_OPENMP=1 option.
OpenBLAS Warning : Detect OpenMP Loop and this application may hang. Please rebuild the library with USE_OPENMP=1 option.
OpenBLAS Warning : Detect OpenMP Loop and this application may hang. Please rebuild the library with USE_OPENMP=1 option.
OpenBLAS Warning : Detect OpenMP Loop and this application may hang. Please rebuild the library with USE_OPENMP=1 option.
OpenBLAS Warning : Detect OpenMP Loop and this application may hang. Please rebuild the library with USE_OPENMP=1 option.
OpenBLAS Warning : Detect OpenMP Loop and this application may hang. Please rebuild the library with USE_OPENMP=1 option.
OpenBLAS Warning : Detect OpenMP Loop and this application may hang. Please rebuild the library with USE_OPENMP=1 option.
OpenBLAS Warning : Detect OpenMP Loop and this application may hang. Please rebuild the library with USE_OPENMP=1 option.
OpenBLAS Warning : Detect OpenMP Loop and this application may hang. Please rebuild the library with USE_OPENMP=1 option.
OpenBLAS Warning : Detect OpenMP Loop and this application may hang. Please rebuild the library with USE_OPENMP=1 option.
OpenBLAS Warning : Detect OpenMP Loop and this application may hang. Please rebuild the library with USE_OPENMP=1 option.
OpenBLAS Warning : Detect OpenMP Loop and this application may hang. Please rebuild the library with USE_OPENMP=1 option.
OpenBLAS Warning : Detect OpenMP Loop and this application may hang. Please rebuild the library with USE_OPENMP=1 option.
OpenBLAS Warning : Detect OpenMP Loop and this application may hang. Please rebuild the library with USE_OPENMP=1 option.
OpenBLAS Warning : Detect OpenMP Loop and this application may hang. Please rebuild the library with USE_OPENMP=1 option.
OpenBLAS Warning : Detect OpenMP Loop and this application may hang. Please rebuild the library with USE_OPENMP=1 option.
OpenBLAS Warning : Detect OpenMP Loop and this application may hang. Please rebuild the library with USE_OPENMP=1 option.
OpenBLAS Warning : Detect OpenMP Loop and this application may hang. Please rebuild the library with USE_OPENMP=1 option.
OpenBLAS Warning : Detect OpenMP Loop and this application may hang. Please rebuild the library with USE_OPENMP=1 option.
OpenBLAS Warning : Detect OpenMP Loop and this application may hang. Please rebuild the library with USE_OPENMP=1 option.
OpenBLAS Warning : Detect OpenMP Loop and this application may hang. Please rebuild the library with USE_OPENMP=1 option.
OpenBLAS Warning : Detect OpenMP Loop and this application may hang. Please rebuild the library with USE_OPENMP=1 option.
OpenBLAS Warning : Detect OpenMP Loop and this application may hang. Please rebuild the library with USE_OPENMP=1 option.
OpenBLAS Warning : Detect OpenMP Loop and this application may hang. Please rebuild the library with USE_OPENMP=1 option.
OpenBLAS Warning : Detect OpenMP Loop and this application may hang. Please rebuild the library with USE_OPENMP=1 option.
OpenBLAS Warning : Detect OpenMP Loop and this application may hang. Please rebuild the library with USE_OPENMP=1 option.
OpenBLAS Warning : Detect OpenMP Loop and this application may hang. Please rebuild the library with USE_OPENMP=1 option.
OpenBLAS Warning : Detect OpenMP Loop and this application may hang. Please rebuild the library with USE_OPENMP=1 option.
OpenBLAS Warning : Detect OpenMP Loop and this application may hang. Please rebuild the library with USE_OPENMP=1 option.
OpenBLAS Warning : Detect OpenMP Loop and this application may hang. Please rebuild the library with USE_OPENMP=1 option.
OpenBLAS Warning : Detect OpenMP Loop and this application may hang. Please rebuild the library with USE_OPENMP=1 option.
OpenBLAS Warning : Detect OpenMP Loop and this application may hang. Please rebuild the library with USE_OPENMP=1 option.
OpenBLAS Warning : Detect OpenMP Loop and this application may hang. Please rebuild the library with USE_OPENMP=1 option.
OpenBLAS Warning : Detect OpenMP Loop and this application may hang. Please rebuild the library with USE_OPENMP=1 option.
OpenBLAS Warning : Detect OpenMP Loop and this application may hang. Please rebuild the library with USE_OPENMP=1 option.
OpenBLAS Warning : Detect OpenMP Loop and this application may hang. Please rebuild the library with USE_OPENMP=1 option.
OpenBLAS Warning : Detect OpenMP Loop and this application may hang. Please rebuild the library with USE_OPENMP=1 option.
OpenBLAS Warning : Detect OpenMP Loop and this application may hang. Please rebuild the library with USE_OPENMP=1 option.
OpenBLAS Warning : Detect OpenMP Loop and this application may hang. Please rebuild the library with USE_OPENMP=1 option.
OpenBLAS Warning : Detect OpenMP Loop and this application may hang. Please rebuild the library with USE_OPENMP=1 option.
OpenBLAS Warning : Detect OpenMP Loop and this application may hang. Please rebuild the library with USE_OPENMP=1 option.
OpenBLAS Warning : Detect OpenMP Loop and this application may hang. Please rebuild the library with USE_OPENMP=1 option.
OpenBLAS Warning : Detect OpenMP Loop and this application may hang. Please rebuild the library with USE_OPENMP=1 option.
OpenBLAS Warning : Detect OpenMP Loop and this application may hang. Please rebuild the library with USE_OPENMP=1 option.
OpenBLAS Warning : Detect OpenMP Loop and this application may hang. Please rebuild the library with USE_OPENMP=1 option.
OpenBLAS Warning : Detect OpenMP Loop and this application may hang. Please rebuild the library with USE_OPENMP=1 option.
OpenBLAS Warning : Detect OpenMP Loop and this application may hang. Please rebuild the library with USE_OPENMP=1 option.
OpenBLAS Warning : Detect OpenMP Loop and this application may hang. Please rebuild the library with USE_OPENMP=1 option.
OpenBLAS Warning : Detect OpenMP Loop and this application may hang. Please rebuild the library with USE_OPENMP=1 option.
OpenBLAS Warning : Detect OpenMP Loop and this application may hang. Please rebuild the library with USE_OPENMP=1 option.
OpenBLAS Warning : Detect OpenMP Loop and this application may hang. Please rebuild the library with USE_OPENMP=1 option.
OpenBLAS Warning : Detect OpenMP Loop and this application may hang. Please rebuild the library with USE_OPENMP=1 option.
OpenBLAS Warning : Detect OpenMP Loop and this application may hang. Please rebuild the library with USE_OPENMP=1 option.
OpenBLAS Warning : Detect OpenMP Loop and this application may hang. Please rebuild the library with USE_OPENMP=1 option.
OpenBLAS Warning : Detect OpenMP Loop and this application may hang. Please rebuild the library with USE_OPENMP=1 option.
OpenBLAS Warning : Detect OpenMP Loop and this application may hang. Please rebuild the library with USE_OPENMP=1 option.
OpenBLAS Warning : Detect OpenMP Loop and this application may hang. Please rebuild the library with USE_OPENMP=1 option.
OpenBLAS Warning : Detect OpenMP Loop and this application may hang. Please rebuild the library with USE_OPENMP=1 option.
OpenBLAS Warning : Detect OpenMP Loop and this application may hang. Please rebuild the library with USE_OPENMP=1 option.
OpenBLAS Warning : Detect OpenMP Loop and this application may hang. Please rebuild the library with USE_OPENMP=1 option.
OpenBLAS Warning : Detect OpenMP Loop and this application may hang. Please rebuild the library with USE_OPENMP=1 option.
OpenBLAS Warning : Detect OpenMP Loop and this application may hang. Please rebuild the library with USE_OPENMP=1 option.
OpenBLAS Warning : Detect OpenMP Loop and this application may hang. Please rebuild the library with USE_OPENMP=1 option.
OpenBLAS Warning : Detect OpenMP Loop and this application may hang. Please rebuild the library with USE_OPENMP=1 option.
OpenBLAS Warning : Detect OpenMP Loop and this application may hang. Please rebuild the library with USE_OPENMP=1 option.
OpenBLAS Warning : Detect OpenMP Loop and this application may hang. Please rebuild the library with USE_OPENMP=1 option.
OpenBLAS Warning : Detect OpenMP Loop and this application may hang. Please rebuild the library with USE_OPENMP=1 option.
OpenBLAS Warning : Detect OpenMP Loop and this application may hang. Please rebuild the library with USE_OPENMP=1 option.
OpenBLAS Warning : Detect OpenMP Loop and this application may hang. Please rebuild the library with USE_OPENMP=1 option.
OpenBLAS Warning : Detect OpenMP Loop and this application may hang. Please rebuild the library with USE_OPENMP=1 option.
OpenBLAS Warning : Detect OpenMP Loop and this application may hang. Please rebuild the library with USE_OPENMP=1 option.
OpenBLAS Warning : Detect OpenMP Loop and this application may hang. Please rebuild the library with USE_OPENMP=1 option.
OpenBLAS Warning : Detect OpenMP Loop and this application may hang. Please rebuild the library with USE_OPENMP=1 option.
OpenBLAS Warning : Detect OpenMP Loop and this application may hang. Please rebuild the library with USE_OPENMP=1 option.
OpenBLAS Warning : Detect OpenMP Loop and this application may hang. Please rebuild the library with USE_OPENMP=1 option.
OpenBLAS Warning : Detect OpenMP Loop and this application may hang. Please rebuild the library with USE_OPENMP=1 option.
OpenBLAS Warning : Detect OpenMP Loop and this application may hang. Please rebuild the library with USE_OPENMP=1 option.
OpenBLAS Warning : Detect OpenMP Loop and this application may hang. Please rebuild the library with USE_OPENMP=1 option.
OpenBLAS Warning : Detect OpenMP Loop and this application may hang. Please rebuild the library with USE_OPENMP=1 option.
OpenBLAS Warning : Detect OpenMP Loop and this application may hang. Please rebuild the library with USE_OPENMP=1 option.
OpenBLAS Warning : Detect OpenMP Loop and this application may hang. Please rebuild the library with USE_OPENMP=1 option.
OpenBLAS Warning : Detect OpenMP Loop and this application may hang. Please rebuild the library with USE_OPENMP=1 option.
OpenBLAS Warning : Detect OpenMP Loop and this application may hang. Please rebuild the library with USE_OPENMP=1 option.
OpenBLAS Warning : Detect OpenMP Loop and this application may hang. Please rebuild the library with USE_OPENMP=1 option.
OpenBLAS Warning : Detect OpenMP Loop and this application may hang. Please rebuild the library with USE_OPENMP=1 option.
OpenBLAS Warning : Detect OpenMP Loop and this application may hang. Please rebuild the library with USE_OPENMP=1 option.
OpenBLAS Warning : Detect OpenMP Loop and this application may hang. Please rebuild the library with USE_OPENMP=1 option.
OpenBLAS Warning : Detect OpenMP Loop and this application may hang. Please rebuild the library with USE_OPENMP=1 option.
OpenBLAS Warning : Detect OpenMP Loop and this application may hang. Please rebuild the library with USE_OPENMP=1 option.
OpenBLAS Warning : Detect OpenMP Loop and this application may hang. Please rebuild the library with USE_OPENMP=1 option.
OpenBLAS Warning : Detect OpenMP Loop and this application may hang. Please rebuild the library with USE_OPENMP=1 option.
OpenBLAS Warning : Detect OpenMP Loop and this application may hang. Please rebuild the library with USE_OPENMP=1 option.
OpenBLAS Warning : Detect OpenMP Loop and this application may hang. Please rebuild the library with USE_OPENMP=1 option.
OpenBLAS Warning : Detect OpenMP Loop and this application may hang. Please rebuild the library with USE_OPENMP=1 option.
OpenBLAS Warning : Detect OpenMP Loop and this application may hang. Please rebuild the library with USE_OPENMP=1 option.
OpenBLAS Warning : Detect OpenMP Loop and this application may hang. Please rebuild the library with USE_OPENMP=1 option.
OpenBLAS Warning : Detect OpenMP Loop and this application may hang. Please rebuild the library with USE_OPENMP=1 option.
OpenBLAS Warning : Detect OpenMP Loop and this application may hang. Please rebuild the library with USE_OPENMP=1 option.
OpenBLAS Warning : Detect OpenMP Loop and this application may hang. Please rebuild the library with USE_OPENMP=1 option.
OpenBLAS Warning : Detect OpenMP Loop and this application may hang. Please rebuild the library with USE_OPENMP=1 option.
OpenBLAS Warning : Detect OpenMP Loop and this application may hang. Please rebuild the library with USE_OPENMP=1 option.
OpenBLAS Warning : Detect OpenMP Loop and this application may hang. Please rebuild the library with USE_OPENMP=1 option.
OpenBLAS Warning : Detect OpenMP Loop and this application may hang. Please rebuild the library with USE_OPENMP=1 option.
OpenBLAS Warning : Detect OpenMP Loop and this application may hang. Please rebuild the library with USE_OPENMP=1 option.
OpenBLAS Warning : Detect OpenMP Loop and this application may hang. Please rebuild the library with USE_OPENMP=1 option.
OpenBLAS Warning : Detect OpenMP Loop and this application may hang. Please rebuild the library with USE_OPENMP=1 option.
OpenBLAS Warning : Detect OpenMP Loop and this application may hang. Please rebuild the library with USE_OPENMP=1 option.
OpenBLAS Warning : Detect OpenMP Loop and this application may hang. Please rebuild the library with USE_OPENMP=1 option.
OpenBLAS Warning : Detect OpenMP Loop and this application may hang. Please rebuild the library with USE_OPENMP=1 option.
OpenBLAS Warning : Detect OpenMP Loop and this application may hang. Please rebuild the library with USE_OPENMP=1 option.
OpenBLAS Warning : Detect OpenMP Loop and this application may hang. Please rebuild the library with USE_OPENMP=1 option.
OpenBLAS Warning : Detect OpenMP Loop and this application may hang. Please rebuild the library with USE_OPENMP=1 option.
OpenBLAS Warning : Detect OpenMP Loop and this application may hang. Please rebuild the library with USE_OPENMP=1 option.
OpenBLAS Warning : Detect OpenMP Loop and this application may hang. Please rebuild the library with USE_OPENMP=1 option.
OpenBLAS Warning : Detect OpenMP Loop and this application may hang. Please rebuild the library with USE_OPENMP=1 option.
OpenBLAS Warning : Detect OpenMP Loop and this application may hang. Please rebuild the library with USE_OPENMP=1 option.
OpenBLAS Warning : Detect OpenMP Loop and this application may hang. Please rebuild the library with USE_OPENMP=1 option.
OpenBLAS Warning : Detect OpenMP Loop and this application may hang. Please rebuild the library with USE_OPENMP=1 option.
OpenBLAS Warning : Detect OpenMP Loop and this application may hang. Please rebuild the library with USE_OPENMP=1 option.
OpenBLAS Warning : Detect OpenMP Loop and this application may hang. Please rebuild the library with USE_OPENMP=1 option.
OpenBLAS Warning : Detect OpenMP Loop and this application may hang. Please rebuild the library with USE_OPENMP=1 option.
OpenBLAS Warning : Detect OpenMP Loop and this application may hang. Please rebuild the library with USE_OPENMP=1 option.
OpenBLAS Warning : Detect OpenMP Loop and this application may hang. Please rebuild the library with USE_OPENMP=1 option.
OpenBLAS Warning : Detect OpenMP Loop and this application may hang. Please rebuild the library with USE_OPENMP=1 option.
OpenBLAS Warning : Detect OpenMP Loop and this application may hang. Please rebuild the library with USE_OPENMP=1 option.
OpenBLAS Warning : Detect OpenMP Loop and this application may hang. Please rebuild the library with USE_OPENMP=1 option.
OpenBLAS Warning : Detect OpenMP Loop and this application may hang. Please rebuild the library with USE_OPENMP=1 option.
OpenBLAS Warning : Detect OpenMP Loop and this application may hang. Please rebuild the library with USE_OPENMP=1 option.
OpenBLAS Warning : Detect OpenMP Loop and this application may hang. Please rebuild the library with USE_OPENMP=1 option.
OpenBLAS Warning : Detect OpenMP Loop and this application may hang. Please rebuild the library with USE_OPENMP=1 option.
OpenBLAS Warning : Detect OpenMP Loop and this application may hang. Please rebuild the library with USE_OPENMP=1 option.
OpenBLAS Warning : Detect OpenMP Loop and this application may hang. Please rebuild the library with USE_OPENMP=1 option.
OpenBLAS Warning : Detect OpenMP Loop and this application may hang. Please rebuild the library with USE_OPENMP=1 option.
OpenBLAS Warning : Detect OpenMP Loop and this application may hang. Please rebuild the library with USE_OPENMP=1 option.
OpenBLAS Warning : Detect OpenMP Loop and this application may hang. Please rebuild the library with USE_OPENMP=1 option.
OpenBLAS Warning : Detect OpenMP Loop and this application may hang. Please rebuild the library with USE_OPENMP=1 option.
OpenBLAS Warning : Detect OpenMP Loop and this application may hang. Please rebuild the library with USE_OPENMP=1 option.
OpenBLAS Warning : Detect OpenMP Loop and this application may hang. Please rebuild the library with USE_OPENMP=1 option.
OpenBLAS Warning : Detect OpenMP Loop and this application may hang. Please rebuild the library with USE_OPENMP=1 option.
OpenBLAS Warning : Detect OpenMP Loop and this application may hang. Please rebuild the library with USE_OPENMP=1 option.
OpenBLAS Warning : Detect OpenMP Loop and this application may hang. Please rebuild the library with USE_OPENMP=1 option.
OpenBLAS Warning : Detect OpenMP Loop and this application may hang. Please rebuild the library with USE_OPENMP=1 option.
OpenBLAS Warning : Detect OpenMP Loop and this application may hang. Please rebuild the library with USE_OPENMP=1 option.
OpenBLAS Warning : Detect OpenMP Loop and this application may hang. Please rebuild the library with USE_OPENMP=1 option.
OpenBLAS Warning : Detect OpenMP Loop and this application may hang. Please rebuild the library with USE_OPENMP=1 option.
OpenBLAS Warning : Detect OpenMP Loop and this application may hang. Please rebuild the library with USE_OPENMP=1 option.
OpenBLAS Warning : Detect OpenMP Loop and this application may hang. Please rebuild the library with USE_OPENMP=1 option.
OpenBLAS Warning : Detect OpenMP Loop and this application may hang. Please rebuild the library with USE_OPENMP=1 option.
OpenBLAS Warning : Detect OpenMP Loop and this application may hang. Please rebuild the library with USE_OPENMP=1 option.
OpenBLAS Warning : Detect OpenMP Loop and this application may hang. Please rebuild the library with USE_OPENMP=1 option.
OpenBLAS Warning : Detect OpenMP Loop and this application may hang. Please rebuild the library with USE_OPENMP=1 option.
OpenBLAS Warning : Detect OpenMP Loop and this application may hang. Please rebuild the library with USE_OPENMP=1 option.
OpenBLAS Warning : Detect OpenMP Loop and this application may hang. Please rebuild the library with USE_OPENMP=1 option.
OpenBLAS Warning : Detect OpenMP Loop and this application may hang. Please rebuild the library with USE_OPENMP=1 option.
OpenBLAS Warning : Detect OpenMP Loop and this application may hang. Please rebuild the library with USE_OPENMP=1 option.
OpenBLAS Warning : Detect OpenMP Loop and this application may hang. Please rebuild the library with USE_OPENMP=1 option.
OpenBLAS Warning : Detect OpenMP Loop and this application may hang. Please rebuild the library with USE_OPENMP=1 option.
OpenBLAS Warning : Detect OpenMP Loop and this application may hang. Please rebuild the library with USE_OPENMP=1 option.
OpenBLAS Warning : Detect OpenMP Loop and this application may hang. Please rebuild the library with USE_OPENMP=1 option.
OpenBLAS Warning : Detect OpenMP Loop and this application may hang. Please rebuild the library with USE_OPENMP=1 option.
OpenBLAS Warning : Detect OpenMP Loop and this application may hang. Please rebuild the library with USE_OPENMP=1 option.
OpenBLAS Warning : Detect OpenMP Loop and this application may hang. Please rebuild the library with USE_OPENMP=1 option.
OpenBLAS Warning : Detect OpenMP Loop and this application may hang. Please rebuild the library with USE_OPENMP=1 option.
OpenBLAS Warning : Detect OpenMP Loop and this application may hang. Please rebuild the library with USE_OPENMP=1 option.
OpenBLAS Warning : Detect OpenMP Loop and this application may hang. Please rebuild the library with USE_OPENMP=1 option.
OpenBLAS Warning : Detect OpenMP Loop and this application may hang. Please rebuild the library with USE_OPENMP=1 option.
OpenBLAS Warning : Detect OpenMP Loop and this application may hang. Please rebuild the library with USE_OPENMP=1 option.
OpenBLAS Warning : Detect OpenMP Loop and this application may hang. Please rebuild the library with USE_OPENMP=1 option.
OpenBLAS Warning : Detect OpenMP Loop and this application may hang. Please rebuild the library with USE_OPENMP=1 option.
OpenBLAS Warning : Detect OpenMP Loop and this application may hang. Please rebuild the library with USE_OPENMP=1 option.
OpenBLAS Warning : Detect OpenMP Loop and this application may hang. Please rebuild the library with USE_OPENMP=1 option.
OpenBLAS Warning : Detect OpenMP Loop and this application may hang. Please rebuild the library with USE_OPENMP=1 option.
OpenBLAS Warning : Detect OpenMP Loop and this application may hang. Please rebuild the library with USE_OPENMP=1 option.
OpenBLAS Warning : Detect OpenMP Loop and this application may hang. Please rebuild the library with USE_OPENMP=1 option.
OpenBLAS Warning : Detect OpenMP Loop and this application may hang. Please rebuild the library with USE_OPENMP=1 option.
OpenBLAS Warning : Detect OpenMP Loop and this application may hang. Please rebuild the library with USE_OPENMP=1 option.
OpenBLAS Warning : Detect OpenMP Loop and this application may hang. Please rebuild the library with USE_OPENMP=1 option.
OpenBLAS Warning : Detect OpenMP Loop and this application may hang. Please rebuild the library with USE_OPENMP=1 option.
OpenBLAS Warning : Detect OpenMP Loop and this application may hang. Please rebuild the library with USE_OPENMP=1 option.
OpenBLAS Warning : Detect OpenMP Loop and this application may hang. Please rebuild the library with USE_OPENMP=1 option.
OpenBLAS Warning : Detect OpenMP Loop and this application may hang. Please rebuild the library with USE_OPENMP=1 option.
OpenBLAS Warning : Detect OpenMP Loop and this application may hang. Please rebuild the library with USE_OPENMP=1 option.
OpenBLAS Warning : Detect OpenMP Loop and this application may hang. Please rebuild the library with USE_OPENMP=1 option.
OpenBLAS Warning : Detect OpenMP Loop and this application may hang. Please rebuild the library with USE_OPENMP=1 option.
OpenBLAS Warning : Detect OpenMP Loop and this application may hang. Please rebuild the library with USE_OPENMP=1 option.
OpenBLAS Warning : Detect OpenMP Loop and this application may hang. Please rebuild the library with USE_OPENMP=1 option.
OpenBLAS Warning : Detect OpenMP Loop and this application may hang. Please rebuild the library with USE_OPENMP=1 option.
OpenBLAS Warning : Detect OpenMP Loop and this application may hang. Please rebuild the library with USE_OPENMP=1 option.
OpenBLAS Warning : Detect OpenMP Loop and this application may hang. Please rebuild the library with USE_OPENMP=1 option.
OpenBLAS Warning : Detect OpenMP Loop and this application may hang. Please rebuild the library with USE_OPENMP=1 option.
OpenBLAS Warning : Detect OpenMP Loop and this application may hang. Please rebuild the library with USE_OPENMP=1 option.
OpenBLAS Warning : Detect OpenMP Loop and this application may hang. Please rebuild the library with USE_OPENMP=1 option.
OpenBLAS Warning : Detect OpenMP Loop and this application may hang. Please rebuild the library with USE_OPENMP=1 option.
OpenBLAS Warning : Detect OpenMP Loop and this application may hang. Please rebuild the library with USE_OPENMP=1 option.
OpenBLAS Warning : Detect OpenMP Loop and this application may hang. Please rebuild the library with USE_OPENMP=1 option.
OpenBLAS Warning : Detect OpenMP Loop and this application may hang. Please rebuild the library with USE_OPENMP=1 option.
OpenBLAS Warning : Detect OpenMP Loop and this application may hang. Please rebuild the library with USE_OPENMP=1 option.
OpenBLAS Warning : Detect OpenMP Loop and this application may hang. Please rebuild the library with USE_OPENMP=1 option.
OpenBLAS Warning : Detect OpenMP Loop and this application may hang. Please rebuild the library with USE_OPENMP=1 option.
OpenBLAS Warning : Detect OpenMP Loop and this application may hang. Please rebuild the library with USE_OPENMP=1 option.
OpenBLAS Warning : Detect OpenMP Loop and this application may hang. Please rebuild the library with USE_OPENMP=1 option.
OpenBLAS Warning : Detect OpenMP Loop and this application may hang. Please rebuild the library with USE_OPENMP=1 option.
OpenBLAS Warning : Detect OpenMP Loop and this application may hang. Please rebuild the library with USE_OPENMP=1 option.
OpenBLAS Warning : Detect OpenMP Loop and this application may hang. Please rebuild the library with USE_OPENMP=1 option.
OpenBLAS Warning : Detect OpenMP Loop and this application may hang. Please rebuild the library with USE_OPENMP=1 option.
OpenBLAS Warning : Detect OpenMP Loop and this application may hang. Please rebuild the library with USE_OPENMP=1 option.
OpenBLAS Warning : Detect OpenMP Loop and this application may hang. Please rebuild the library with USE_OPENMP=1 option.
OpenBLAS Warning : Detect OpenMP Loop and this application may hang. Please rebuild the library with USE_OPENMP=1 option.
OpenBLAS Warning : Detect OpenMP Loop and this application may hang. Please rebuild the library with USE_OPENMP=1 option.
OpenBLAS Warning : Detect OpenMP Loop and this application may hang. Please rebuild the library with USE_OPENMP=1 option.
OpenBLAS Warning : Detect OpenMP Loop and this application may hang. Please rebuild the library with USE_OPENMP=1 option.
OpenBLAS Warning : Detect OpenMP Loop and this application may hang. Please rebuild the library with USE_OPENMP=1 option.
OpenBLAS Warning : Detect OpenMP Loop and this application may hang. Please rebuild the library with USE_OPENMP=1 option.
OpenBLAS Warning : Detect OpenMP Loop and this application may hang. Please rebuild the library with USE_OPENMP=1 option.
OpenBLAS Warning : Detect OpenMP Loop and this application may hang. Please rebuild the library with USE_OPENMP=1 option.
OpenBLAS Warning : Detect OpenMP Loop and this application may hang. Please rebuild the library with USE_OPENMP=1 option.
OpenBLAS Warning : Detect OpenMP Loop and this application may hang. Please rebuild the library with USE_OPENMP=1 option.
OpenBLAS Warning : Detect OpenMP Loop and this application may hang. Please rebuild the library with USE_OPENMP=1 option.
OpenBLAS Warning : Detect OpenMP Loop and this application may hang. Please rebuild the library with USE_OPENMP=1 option.
OpenBLAS Warning : Detect OpenMP Loop and this application may hang. Please rebuild the library with USE_OPENMP=1 option.
OpenBLAS Warning : Detect OpenMP Loop and this application may hang. Please rebuild the library with USE_OPENMP=1 option.
OpenBLAS Warning : Detect OpenMP Loop and this application may hang. Please rebuild the library with USE_OPENMP=1 option.
OpenBLAS Warning : Detect OpenMP Loop and this application may hang. Please rebuild the library with USE_OPENMP=1 option.
OpenBLAS Warning : Detect OpenMP Loop and this application may hang. Please rebuild the library with USE_OPENMP=1 option.
OpenBLAS Warning : Detect OpenMP Loop and this application may hang. Please rebuild the library with USE_OPENMP=1 option.
OpenBLAS Warning : Detect OpenMP Loop and this application may hang. Please rebuild the library with USE_OPENMP=1 option.
OpenBLAS Warning : Detect OpenMP Loop and this application may hang. Please rebuild the library with USE_OPENMP=1 option.
OpenBLAS Warning : Detect OpenMP Loop and this application may hang. Please rebuild the library with USE_OPENMP=1 option.
OpenBLAS Warning : Detect OpenMP Loop and this application may hang. Please rebuild the library with USE_OPENMP=1 option.
OpenBLAS Warning : Detect OpenMP Loop and this application may hang. Please rebuild the library with USE_OPENMP=1 option.
OpenBLAS Warning : Detect OpenMP Loop and this application may hang. Please rebuild the library with USE_OPENMP=1 option.
OpenBLAS Warning : Detect OpenMP Loop and this application may hang. Please rebuild the library with USE_OPENMP=1 option.
OpenBLAS Warning : Detect OpenMP Loop and this application may hang. Please rebuild the library with USE_OPENMP=1 option.
OpenBLAS Warning : Detect OpenMP Loop and this application may hang. Please rebuild the library with USE_OPENMP=1 option.
OpenBLAS Warning : Detect OpenMP Loop and this application may hang. Please rebuild the library with USE_OPENMP=1 option.
OpenBLAS Warning : Detect OpenMP Loop and this application may hang. Please rebuild the library with USE_OPENMP=1 option.
OpenBLAS Warning : Detect OpenMP Loop and this application may hang. Please rebuild the library with USE_OPENMP=1 option.
OpenBLAS Warning : Detect OpenMP Loop and this application may hang. Please rebuild the library with USE_OPENMP=1 option.
OpenBLAS Warning : Detect OpenMP Loop and this application may hang. Please rebuild the library with USE_OPENMP=1 option.
OpenBLAS Warning : Detect OpenMP Loop and this application may hang. Please rebuild the library with USE_OPENMP=1 option.
OpenBLAS Warning : Detect OpenMP Loop and this application may hang. Please rebuild the library with USE_OPENMP=1 option.
OpenBLAS Warning : Detect OpenMP Loop and this application may hang. Please rebuild the library with USE_OPENMP=1 option.
OpenBLAS Warning : Detect OpenMP Loop and this application may hang. Please rebuild the library with USE_OPENMP=1 option.
OpenBLAS Warning : Detect OpenMP Loop and this application may hang. Please rebuild the library with USE_OPENMP=1 option.
OpenBLAS Warning : Detect OpenMP Loop and this application may hang. Please rebuild the library with USE_OPENMP=1 option.
OpenBLAS Warning : Detect OpenMP Loop and this application may hang. Please rebuild the library with USE_OPENMP=1 option.
OpenBLAS Warning : Detect OpenMP Loop and this application may hang. Please rebuild the library with USE_OPENMP=1 option.
OpenBLAS Warning : Detect OpenMP Loop and this application may hang. Please rebuild the library with USE_OPENMP=1 option.
OpenBLAS Warning : Detect OpenMP Loop and this application may hang. Please rebuild the library with USE_OPENMP=1 option.
OpenBLAS Warning : Detect OpenMP Loop and this application may hang. Please rebuild the library with USE_OPENMP=1 option.
OpenBLAS Warning : Detect OpenMP Loop and this application may hang. Please rebuild the library with USE_OPENMP=1 option.
OpenBLAS Warning : Detect OpenMP Loop and this application may hang. Please rebuild the library with USE_OPENMP=1 option.
OpenBLAS Warning : Detect OpenMP Loop and this application may hang. Please rebuild the library with USE_OPENMP=1 option.
OpenBLAS Warning : Detect OpenMP Loop and this application may hang. Please rebuild the library with USE_OPENMP=1 option.
OpenBLAS Warning : Detect OpenMP Loop and this application may hang. Please rebuild the library with USE_OPENMP=1 option.
      -------------------------------------------------------------
         1        2.0000           -0.6794410             -18.4885
       ...           ...                  ...                  ...
        10        2.0000           -0.4843123             -13.1788
        11        2.0000           -0.4799379             -13.0598
        12        2.0000           -0.4679225             -12.7328
        13        2.0000           -0.4515393             -12.2870
        14        2.0000           -0.4203361             -11.4379
        15        2.0000           -0.3753946             -10.2150
        16        2.0000           -0.3687671             -10.0347 (HOMO)
        17                         -0.1931920              -5.2570 (LUMO)
        18                         -0.1553251              -4.2266
        19                          0.0251988               0.6857
        20                          0.1174111               3.1949
        21                          0.1413597               3.8466
       ...                                ...                  ...
        30                          0.6512563              17.7216
      -------------------------------------------------------------
                  HL-Gap            0.1755751 Eh            4.7776 eV
             Fermi-level           -0.2809795 Eh           -7.6458 eV

 SCC (total)                   0 d,  0 h,  0 min,  0.957 sec
 SCC setup                      ...        0 min,  0.023 sec (  2.417%)
 Dispersion                     ...        0 min,  0.048 sec (  5.024%)
 classical contributions        ...        0 min,  0.024 sec (  2.497%)
 integral evaluation            ...        0 min,  0.075 sec (  7.817%)
 iterations                     ...        0 min,  0.481 sec ( 50.264%)
 molecular gradient             ...        0 min,  0.305 sec ( 31.835%)
 printout                       ...        0 min,  0.001 sec (  0.138%)

         :::::::::::::::::::::::::::::::::::::::::::::::::::::
         ::                     SUMMARY                     ::
         :::::::::::::::::::::::::::::::::::::::::::::::::::::
         :: total energy             -17.470625441083 Eh    ::
         :: gradient norm              0.000762674050 Eh/a0 ::
         :: HOMO-LUMO gap              4.777642892678 eV    ::
         ::.................................................::
         :: SCC energy               -17.735881935186 Eh    ::
         :: -> isotropic ES            0.015574647040 Eh    ::
         :: -> anisotropic ES          0.004877671088 Eh    ::
         :: -> anisotropic XC          0.013240647905 Eh    ::
         :: -> dispersion             -0.007159491522 Eh    ::
         :: repulsion energy           0.265256494103 Eh    ::
         :: add. restraining           0.000000000000 Eh    ::
         :: total charge               0.000000000000 e     ::
         :::::::::::::::::::::::::::::::::::::::::::::::::::::

           ------------------------------------------------- 
          |                Numerical Hessian                |
           ------------------------------------------------- 
step length          :   0.00500
SCC accuracy         :   0.30000
Hessian scale factor :   1.00000
frozen atoms in %    :   0.00000    0
RMS gradient         :   0.00076
estimated CPU  time      0.20 min
estimated wall time      0.03 min

writing file <hessian>.

 projected vibrational frequencies (cm⁻¹)
eigval :       -0.00    -0.00    -0.00     0.00     0.00     0.00
eigval :       79.97   253.60   319.02   568.49   614.89   651.85
eigval :      686.75   754.39   832.19   888.41   961.32   995.45
eigval :     1035.73  1079.09  1126.75  1146.84  1246.05  1359.84
eigval :     1388.26  1402.95  1465.40  1469.94  1487.46  1568.91
eigval :     2997.36  3008.24  3077.26  3168.56  3182.37  3466.91
           -------------------------------------------------
          |                Property Printout                |
           -------------------------------------------------

    * Orbital Energies and Occupations

         #    Occupation            Energy/Eh            Energy/eV
      -------------------------------------------------------------
         1        2.0000           -0.6794409             -18.4885
       ...           ...                  ...                  ...
         4        2.0000           -0.5981179             -16.2756
         5        2.0000           -0.5705266             -15.5248
         6        2.0000           -0.5669779             -15.4283
         7        2.0000           -0.5399548             -14.6929
         8        2.0000           -0.5307325             -14.4420
         9        2.0000           -0.4903990             -13.3444
        10        2.0000           -0.4843123             -13.1788
        11        2.0000           -0.4799378             -13.0598
        12        2.0000           -0.4679225             -12.7328
        13        2.0000           -0.4515391             -12.2870
        14        2.0000           -0.4203360             -11.4379
        15        2.0000           -0.3753945             -10.2150
        16        2.0000           -0.3687670             -10.0347 (HOMO)
        17                         -0.1931919              -5.2570 (LUMO)
        18                         -0.1553250              -4.2266
        19                          0.0251989               0.6857
        20                          0.1174112               3.1949
        21                          0.1413598               3.8466
        22                          0.1694552               4.6111
        23                          0.1807391               4.9182
        24                          0.1941584               5.2833
        25                          0.2153769               5.8607
        26                          0.2617777               7.1233
        27                          0.3111295               8.4663
       ...                                ...                  ...
        30                          0.6512564              17.7216
      -------------------------------------------------------------
                  HL-Gap            0.1755751 Eh            4.7776 eV
             Fermi-level           -0.2809794 Eh           -7.6458 eV

     #   Z          covCN         q      C6AA      α(0)
     1   6 C        3.755    -0.120    22.857     6.817
     2   6 C        3.180     0.131    24.743     8.121
     3   7 N        1.919    -0.280    28.094     7.859
     4   6 C        3.149     0.016    27.386     8.560
     5   6 C        3.018    -0.020    28.489     8.755
     6   7 N        2.821    -0.109    23.377     7.181
     7   1 H        0.925     0.049     2.333     2.388
     8   1 H        0.925     0.049     2.333     2.388
     9   1 H        0.925     0.071     2.072     2.251
    10   1 H        0.926     0.031     2.579     2.511
    11   1 H        0.926     0.026     2.639     2.540
    12   1 H        0.860     0.156     1.364     1.830

 Mol. C6AA /au·bohr⁶  :       1544.606782
 Mol. C8AA /au·bohr⁸  :      35190.955328
 Mol. α(0) /au        :         61.202331


Wiberg/Mayer (AO) data.
largest (>0.10) Wiberg bond orders for each atom

 ---------------------------------------------------------------------------
     #   Z sym  total        # sym  WBO       # sym  WBO       # sym  WBO
 ---------------------------------------------------------------------------
     1   6 C    3.995 --     2 C    1.026     9 H    0.981     8 H    0.972
                             7 H    0.972
     2   6 C    3.957 --     3 N    1.533     6 N    1.228     1 C    1.026
                             5 C    0.114
     3   7 N    3.021 --     2 C    1.533     4 C    1.287
     4   6 C    3.977 --     5 C    1.597     3 N    1.287    10 H    0.972
     5   6 C    3.939 --     4 C    1.597     6 N    1.197    11 H    0.971
                             2 C    0.114
     6   7 N    3.570 --     2 C    1.228     5 C    1.197    12 H    0.947
     7   1 H    0.998 --     1 C    0.972
     8   1 H    0.998 --     1 C    0.972
     9   1 H    0.995 --     1 C    0.981
    10   1 H    0.999 --     4 C    0.972
    11   1 H    0.999 --     5 C    0.971
    12   1 H    0.976 --     6 N    0.947
 ---------------------------------------------------------------------------

Topologies differ in total number of bonds
Writing topology from bond orders to xtbtopo.mol

molecular dipole:
                 x           y           z       tot (Debye)
 q only:        0.385       0.809       0.275
   full:        0.329       1.400       0.478       3.853
molecular quadrupole (traceless):
                xx          xy          yy          xz          yz          zz
 q only:        2.091      -0.541      -0.721      -0.209       0.257      -1.370
  q+dip:        2.480      -0.439      -0.319      -0.183       0.719      -2.161
   full:        2.596      -0.454      -1.277      -0.182       0.020      -1.318

           -------------------------------------------------
          |                Geometry Summary                 |
           -------------------------------------------------

      molecular mass/u    :       82.1039945
   center of mass at/Å    :       -0.2535019      -0.1425944      -0.0472099
  moments of inertia/u·Å² :        0.5613734E+02   0.1380313E+03   0.1910170E+03
rotational constants/cm⁻¹ :        0.3002927E+00   0.1221290E+00   0.8825202E-01

 * 12 selected distances

     #   Z          #   Z                                           value/Å
     1   6 C        2   6 C                                       1.4845349 (max)
     2   6 C        3   7 N                                       1.3049405
     3   7 N        4   6 C                                       1.3604947
     4   6 C        5   6 C                                       1.3624575
     2   6 C        6   7 N                                       1.3613794
     5   6 C        6   7 N                                       1.3697872
     1   6 C        7   1 H                                       1.0898069
     1   6 C        8   1 H                                       1.0898068
     1   6 C        9   1 H                                       1.0849774
     4   6 C       10   1 H                                       1.0712270
     5   6 C       11   1 H                                       1.0704050
     6   7 N       12   1 H                                       1.0066690 (min)

 * 4 distinct bonds (by element types)

   Z      Z             #   av. dist./Å        max./Å        min./Å
   1 H    6 C           5     1.0812446     1.0898069     1.0704050
   6 C    6 C           2     1.4234962     1.4845349     1.3624575
   1 H    7 N           1     1.0066690     1.0066690     1.0066690
   6 C    7 N           4     1.3491504     1.3697872     1.3049405

           -------------------------------------------------
          |               Frequency Printout                |
           -------------------------------------------------
 projected vibrational frequencies (cm⁻¹)
eigval :       -0.00    -0.00    -0.00     0.00     0.00     0.00
eigval :       79.97   253.60   319.02   568.49   614.89   651.85
eigval :      686.75   754.39   832.19   888.41   961.32   995.45
eigval :     1035.73  1079.09  1126.75  1146.84  1246.05  1359.84
eigval :     1388.26  1402.95  1465.40  1469.94  1487.46  1568.91
eigval :     2997.36  3008.24  3077.26  3168.56  3182.37  3466.91
 reduced masses (amu)
   1: 10.12   2: 11.55   3: 11.64   4: 10.51   5: 11.67   6: 10.91   7:  1.63   8:  9.49
   9:  8.96  10:  9.91  11:  5.14  12: 10.13  13: 10.64  14:  3.14  15:  3.12  16: 11.63
  17:  6.73  18:  5.45  19:  4.55  20:  3.01  21:  6.69  22:  4.54  23: 11.65  24: 11.30
  25:  4.80  26:  9.82  27:  2.77  28:  1.55  29: 10.59  30: 11.87  31:  1.95  32:  1.47
  33:  1.73  34:  1.81  35:  1.97  36:  1.88
 IR intensities (km·mol⁻¹)
   1:  1.30   2:  0.27   3:  1.98   4:  0.76   5:  0.97   6:  9.08   7:  0.23   8:  1.66
   9:  3.35  10: 29.85  11: 53.39  12:  0.03  13:  1.03  14:  4.97  15:  4.90  16:  3.52
  17:  2.47  18:  5.00  19: 10.99  20: 18.70  21:  0.54  22:  6.28  23:  9.93  24: 21.18
  25: 16.48  26: 90.61  27:  5.12  28:  8.27  29:  5.14  30: 45.26  31: 26.96  32: 26.01
  33:  5.26  34: 10.38  35: 35.63  36:  2.22
Molecule has the following symmetry elements: (sigma) 
It seems to be the Cs point group
 Raman intensities (Ä⁴*amu⁻¹)
   1:  0.00   2:  0.00   3:  0.00   4:  0.00   5:  0.00   6:  0.00   7:  0.00   8:  0.00
   9:  0.00  10:  0.00  11:  0.00  12:  0.00  13:  0.00  14:  0.00  15:  0.00  16:  0.00
  17:  0.00  18:  0.00  19:  0.00  20:  0.00  21:  0.00  22:  0.00  23:  0.00  24:  0.00
  25:  0.00  26:  0.00  27:  0.00  28:  0.00  29:  0.00  30:  0.00  31:  0.00  32:  0.00
  33:  0.00  34:  0.00  35:  0.00  36:  0.00
 output can be read by thermo (or use thermo option).
 writing <g98.out> molden fake output.
 recommended (thermochemical) frequency scaling factor: 1.0
           -------------------------------------------------
          |             Thermodynamic Functions             |
           -------------------------------------------------

cs  symmetry found (for desy threshold:  0.10E+00) used in thermo

          ...................................................
          :                      SETUP                      :
          :.................................................:
          :  # frequencies                          30      :
          :  # imaginary freq.                       0      :
          :  linear?                             false      :
          :  only rotor calc.                    false      :
          :  symmetry                               cs      :
          :  rotational number                       1      :
          :  scaling factor                  1.0000000      :
          :  rotor cutoff                   50.0000000 cm⁻¹ :
          :  imag. cutoff                  -20.0000000 cm⁻¹ :
          :.................................................:

    mode    ω/cm⁻¹     T·S(HO)/kcal·mol⁻¹    T·S(FR)/kcal·mol⁻¹   T·S(vib)
   ------------------------------------------------------------------------
       1     79.97    -1.16025 ( 86.75%)    -0.91692 ( 13.25%)    -1.12800
       2    253.60    -0.50846 ( 99.85%)    -0.57537 (  0.15%)    -0.50856
   ------------------------------------------------------------------------

   temp. (K)  partition function   enthalpy   heat capacity  entropy
                                   cal/mol     cal/K/mol   cal/K/mol   J/K/mol
 298.15  VIB   7.65                 1689.897     13.710      9.605
         ROT  0.929E+05              888.752      2.981     25.715
         INT  0.711E+06             2578.649     16.691     35.320
         TR   0.720E+27             1481.254      4.968     39.112
         TOT                        4059.9029    21.6591    74.4322   311.4242

       T/K    H(0)-H(T)+PV         H(T)/Eh          T*S/Eh         G(T)/Eh
   ------------------------------------------------------------------------
    298.15    0.646987E-02    0.102800E+00    0.353651E-01    0.674354E-01
   ------------------------------------------------------------------------

         :::::::::::::::::::::::::::::::::::::::::::::::::::::
         ::                  THERMODYNAMIC                  ::
         :::::::::::::::::::::::::::::::::::::::::::::::::::::
         :: total free energy         -17.403190069234 Eh   ::
         ::.................................................::
         :: total energy              -17.470625441085 Eh   ::
         :: zero point energy           0.096330629177 Eh   ::
         :: G(RRHO) w/o ZPVE           -0.028895257327 Eh   ::
         :: G(RRHO) contrib.            0.067435371851 Eh   ::
         :::::::::::::::::::::::::::::::::::::::::::::::::::::

optimized geometry written to: xtbopt.xyz


           -------------------------------------------------
          | TOTAL ENERGY              -17.470625441085 Eh   |
          | TOTAL ENTHALPY            -17.367824944751 Eh   |
          | TOTAL FREE ENERGY         -17.403190069234 Eh   |
          | GRADIENT NORM               0.000762658800 Eh/α |
          | HOMO-LUMO GAP               4.777641270405 eV   |
           -------------------------------------------------

------------------------------------------------------------------------
 * finished run on 2026/08/15 at 00:33:22.240     
------------------------------------------------------------------------
Note: The following floating-point exceptions are signalling: IEEE_UNDERFLOW_FLAG IEEE_DENORMAL
normal termination of xtb
 total:
 * wall-time:     0 d,  0 h,  0 min, 21.987 sec
 *  cpu-time:     0 d,  0 h,  2 min,  9.368 sec
 * ratio c/w:     5.884 speedup
 SCF:
 * wall-time:     0 d,  0 h,  0 min,  5.131 sec
 *  cpu-time:     0 d,  0 h,  0 min, 30.142 sec
 * ratio c/w:     5.875 speedup
 ANC optimizer:
 * wall-time:     0 d,  0 h,  0 min, 11.140 sec
 *  cpu-time:     0 d,  0 h,  1 min,  5.377 sec
 * ratio c/w:     5.869 speedup
 analytical hessian:
 * wall-time:     0 d,  0 h,  0 min,  5.059 sec
 *  cpu-time:     0 d,  0 h,  0 min, 30.096 sec
 * ratio c/w:     5.949 speedup

