12
 energy: -17.470625441083 gnorm: 0.000762674050 xtb: 6.7.1 (edcfbbe)
C            1.87965352778552       -0.14747027080489       -0.06308448229555
C            0.39568527862625       -0.18827377689754       -0.06719670221034
N           -0.34269689112249       -1.20754230218449       -0.41180186454636
C           -1.63548366986429       -0.80932671890328       -0.26663921693384
C           -1.68237967267200        0.47860273455844        0.17532056613465
N           -0.37605084070570        0.87100578389626        0.30118310679328
H            2.25658468446967        0.05622193957801        0.93896903024482
H            2.24544803157239        0.62981705536360       -0.73367933841700
H            2.25583172229604       -1.10934595900730       -0.39544110180987
H           -2.44254185779788       -1.47727431753656       -0.49031327653941
H           -2.50047785712203        1.12986650773197        0.40409457124093
H           -0.05357245546552        1.77371932420576        0.60858869833868
